*SPEF "ieee 1481-1999"
*DESIGN "CF_SRAM_1024x32_wb_wrapper"
*DATE "17:23:03 Sunday October 04, 2026"
*VENDOR "The OpenROAD Project"
*PROGRAM "OpenROAD"
*VERSION "edf00dff99f6c40d67a30c0e22a8191c5d2ed9d6"
*DESIGN_FLOW "NAME_SCOPE LOCAL" "PIN_CAP NONE"
*DIVIDER /
*DELIMITER :
*BUS_DELIMITER []
*T_UNIT 1 NS
*C_UNIT 1 PF
*R_UNIT 1 OHM
*L_UNIT 1 HENRY

*NAME_MAP
*3 wb_clk_i
*4 wb_rst_i
*5 wbs_ack_o
*6 wbs_adr_i[0]
*7 wbs_adr_i[10]
*8 wbs_adr_i[11]
*9 wbs_adr_i[12]
*10 wbs_adr_i[13]
*11 wbs_adr_i[14]
*12 wbs_adr_i[15]
*13 wbs_adr_i[16]
*14 wbs_adr_i[17]
*15 wbs_adr_i[18]
*16 wbs_adr_i[19]
*17 wbs_adr_i[1]
*18 wbs_adr_i[20]
*19 wbs_adr_i[21]
*20 wbs_adr_i[22]
*21 wbs_adr_i[23]
*22 wbs_adr_i[24]
*23 wbs_adr_i[25]
*24 wbs_adr_i[26]
*25 wbs_adr_i[27]
*26 wbs_adr_i[28]
*27 wbs_adr_i[29]
*28 wbs_adr_i[2]
*29 wbs_adr_i[30]
*30 wbs_adr_i[31]
*31 wbs_adr_i[3]
*32 wbs_adr_i[4]
*33 wbs_adr_i[5]
*34 wbs_adr_i[6]
*35 wbs_adr_i[7]
*36 wbs_adr_i[8]
*37 wbs_adr_i[9]
*38 wbs_cyc_i
*39 wbs_dat_i[0]
*40 wbs_dat_i[10]
*41 wbs_dat_i[11]
*42 wbs_dat_i[12]
*43 wbs_dat_i[13]
*44 wbs_dat_i[14]
*45 wbs_dat_i[15]
*46 wbs_dat_i[16]
*47 wbs_dat_i[17]
*48 wbs_dat_i[18]
*49 wbs_dat_i[19]
*50 wbs_dat_i[1]
*51 wbs_dat_i[20]
*52 wbs_dat_i[21]
*53 wbs_dat_i[22]
*54 wbs_dat_i[23]
*55 wbs_dat_i[24]
*56 wbs_dat_i[25]
*57 wbs_dat_i[26]
*58 wbs_dat_i[27]
*59 wbs_dat_i[28]
*60 wbs_dat_i[29]
*61 wbs_dat_i[2]
*62 wbs_dat_i[30]
*63 wbs_dat_i[31]
*64 wbs_dat_i[3]
*65 wbs_dat_i[4]
*66 wbs_dat_i[5]
*67 wbs_dat_i[6]
*68 wbs_dat_i[7]
*69 wbs_dat_i[8]
*70 wbs_dat_i[9]
*71 wbs_dat_o[0]
*72 wbs_dat_o[10]
*73 wbs_dat_o[11]
*74 wbs_dat_o[12]
*75 wbs_dat_o[13]
*76 wbs_dat_o[14]
*77 wbs_dat_o[15]
*78 wbs_dat_o[16]
*79 wbs_dat_o[17]
*80 wbs_dat_o[18]
*81 wbs_dat_o[19]
*82 wbs_dat_o[1]
*83 wbs_dat_o[20]
*84 wbs_dat_o[21]
*85 wbs_dat_o[22]
*86 wbs_dat_o[23]
*87 wbs_dat_o[24]
*88 wbs_dat_o[25]
*89 wbs_dat_o[26]
*90 wbs_dat_o[27]
*91 wbs_dat_o[28]
*92 wbs_dat_o[29]
*93 wbs_dat_o[2]
*94 wbs_dat_o[30]
*95 wbs_dat_o[31]
*96 wbs_dat_o[3]
*97 wbs_dat_o[4]
*98 wbs_dat_o[5]
*99 wbs_dat_o[6]
*100 wbs_dat_o[7]
*101 wbs_dat_o[8]
*102 wbs_dat_o[9]
*103 wbs_sel_i[0]
*104 wbs_sel_i[1]
*105 wbs_sel_i[2]
*106 wbs_sel_i[3]
*107 wbs_stb_i
*108 wbs_we_i
*109 _00_
*110 clknet_0_wb_clk_i
*111 clknet_1_0__leaf_wb_clk_i
*112 clknet_1_1__leaf_wb_clk_i
*113 i_ram_wb_controller\.DO\[0\]
*114 i_ram_wb_controller\.DO\[10\]
*115 i_ram_wb_controller\.DO\[11\]
*116 i_ram_wb_controller\.DO\[12\]
*117 i_ram_wb_controller\.DO\[13\]
*118 i_ram_wb_controller\.DO\[14\]
*119 i_ram_wb_controller\.DO\[15\]
*120 i_ram_wb_controller\.DO\[16\]
*121 i_ram_wb_controller\.DO\[17\]
*122 i_ram_wb_controller\.DO\[18\]
*123 i_ram_wb_controller\.DO\[19\]
*124 i_ram_wb_controller\.DO\[1\]
*125 i_ram_wb_controller\.DO\[20\]
*126 i_ram_wb_controller\.DO\[21\]
*127 i_ram_wb_controller\.DO\[22\]
*128 i_ram_wb_controller\.DO\[23\]
*129 i_ram_wb_controller\.DO\[24\]
*130 i_ram_wb_controller\.DO\[25\]
*131 i_ram_wb_controller\.DO\[26\]
*132 i_ram_wb_controller\.DO\[27\]
*133 i_ram_wb_controller\.DO\[28\]
*134 i_ram_wb_controller\.DO\[29\]
*135 i_ram_wb_controller\.DO\[2\]
*136 i_ram_wb_controller\.DO\[30\]
*137 i_ram_wb_controller\.DO\[31\]
*138 i_ram_wb_controller\.DO\[3\]
*139 i_ram_wb_controller\.DO\[4\]
*140 i_ram_wb_controller\.DO\[5\]
*141 i_ram_wb_controller\.DO\[6\]
*142 i_ram_wb_controller\.DO\[7\]
*143 i_ram_wb_controller\.DO\[8\]
*144 i_ram_wb_controller\.DO\[9\]
*145 i_ram_wb_controller\.EN
*146 i_ram_wb_controller\.R_WB
*147 net1
*148 net10
*149 net100
*150 net101
*151 net102
*152 net103
*153 net104
*154 net105
*155 net106
*156 net107
*157 net108
*158 net109
*159 net11
*160 net110
*161 net111
*162 net112
*163 net113
*164 net114
*165 net115
*166 net116
*167 net117
*168 net118
*169 net119
*170 net12
*171 net120
*172 net121
*173 net122
*174 net123
*175 net124
*176 net125
*177 net126
*178 net127
*179 net128
*180 net129
*181 net13
*182 net130
*183 net131
*184 net132
*185 net133
*186 net134
*187 net135
*188 net136
*189 net137
*190 net138
*191 net139
*192 net14
*193 net140
*194 net141
*195 net142
*196 net143
*197 net144
*198 net145
*199 net146
*200 net147
*201 net148
*202 net149
*203 net15
*204 net150
*205 net151
*206 net152
*207 net153
*208 net154
*209 net155
*210 net156
*211 net157
*212 net158
*213 net159
*214 net16
*215 net160
*216 net161
*217 net162
*218 net163
*219 net164
*220 net165
*221 net166
*222 net167
*223 net168
*224 net169
*225 net17
*226 net170
*227 net171
*228 net172
*229 net173
*230 net174
*231 net175
*232 net176
*233 net177
*234 net178
*235 net179
*236 net18
*237 net180
*238 net181
*239 net182
*240 net183
*241 net184
*242 net185
*243 net186
*244 net187
*245 net188
*246 net189
*247 net19
*248 net190
*249 net191
*250 net192
*251 net193
*252 net194
*253 net195
*254 net196
*255 net197
*256 net198
*257 net199
*258 net2
*259 net20
*260 net200
*261 net201
*262 net202
*263 net203
*264 net204
*265 net205
*266 net206
*267 net207
*268 net208
*269 net209
*270 net21
*271 net210
*272 net211
*273 net212
*274 net213
*275 net214
*276 net215
*277 net216
*278 net217
*279 net218
*280 net219
*281 net22
*282 net220
*283 net221
*284 net222
*285 net223
*286 net224
*287 net225
*288 net226
*289 net227
*290 net228
*291 net229
*292 net23
*293 net230
*294 net231
*295 net232
*296 net233
*297 net234
*298 net235
*299 net236
*300 net24
*301 net25
*302 net26
*303 net27
*304 net28
*305 net29
*306 net3
*307 net30
*308 net31
*309 net32
*310 net33
*311 net34
*312 net35
*313 net36
*314 net37
*315 net38
*316 net39
*317 net4
*318 net40
*319 net41
*320 net42
*321 net43
*322 net44
*323 net45
*324 net46
*325 net47
*326 net48
*327 net49
*328 net5
*329 net50
*330 net51
*331 net52
*332 net53
*333 net54
*334 net55
*335 net56
*336 net57
*337 net58
*338 net59
*339 net6
*340 net60
*341 net61
*342 net62
*343 net63
*344 net64
*345 net65
*346 net66
*347 net67
*348 net68
*349 net69
*350 net7
*351 net70
*352 net71
*353 net72
*354 net73
*355 net74
*356 net75
*357 net76
*358 net77
*359 net78
*360 net79
*361 net8
*362 net80
*363 net81
*364 net82
*365 net83
*366 net84
*367 net85
*368 net86
*369 net87
*370 net88
*371 net89
*372 net9
*373 net90
*374 net91
*375 net92
*376 net93
*377 net94
*378 net95
*379 net96
*380 net97
*381 net98
*382 net99
*383 sram_scan_out_cc
*384 ANTENNA_1
*385 ANTENNA_10
*386 ANTENNA_100
*387 ANTENNA_101
*388 ANTENNA_102
*389 ANTENNA_103
*390 ANTENNA_104
*391 ANTENNA_105
*392 ANTENNA_106
*393 ANTENNA_107
*394 ANTENNA_11
*395 ANTENNA_12
*396 ANTENNA_13
*397 ANTENNA_14
*398 ANTENNA_15
*399 ANTENNA_16
*400 ANTENNA_17
*401 ANTENNA_18
*402 ANTENNA_19
*403 ANTENNA_2
*404 ANTENNA_20
*405 ANTENNA_21
*406 ANTENNA_22
*407 ANTENNA_23
*408 ANTENNA_24
*409 ANTENNA_25
*410 ANTENNA_26
*411 ANTENNA_27
*412 ANTENNA_28
*413 ANTENNA_29
*414 ANTENNA_3
*415 ANTENNA_30
*416 ANTENNA_31
*417 ANTENNA_32
*418 ANTENNA_33
*419 ANTENNA_34
*420 ANTENNA_35
*421 ANTENNA_36
*422 ANTENNA_37
*423 ANTENNA_38
*424 ANTENNA_39
*425 ANTENNA_4
*426 ANTENNA_40
*427 ANTENNA_41
*428 ANTENNA_42
*429 ANTENNA_43
*430 ANTENNA_44
*431 ANTENNA_45
*432 ANTENNA_46
*433 ANTENNA_47
*434 ANTENNA_48
*435 ANTENNA_49
*436 ANTENNA_5
*437 ANTENNA_50
*438 ANTENNA_51
*439 ANTENNA_52
*440 ANTENNA_53
*441 ANTENNA_54
*442 ANTENNA_55
*443 ANTENNA_56
*444 ANTENNA_57
*445 ANTENNA_58
*446 ANTENNA_59
*447 ANTENNA_6
*448 ANTENNA_60
*449 ANTENNA_61
*450 ANTENNA_62
*451 ANTENNA_63
*452 ANTENNA_64
*453 ANTENNA_65
*454 ANTENNA_66
*455 ANTENNA_67
*456 ANTENNA_68
*457 ANTENNA_69
*458 ANTENNA_7
*459 ANTENNA_70
*460 ANTENNA_71
*461 ANTENNA_72
*462 ANTENNA_73
*463 ANTENNA_74
*464 ANTENNA_75
*465 ANTENNA_76
*466 ANTENNA_77
*467 ANTENNA_78
*468 ANTENNA_79
*469 ANTENNA_8
*470 ANTENNA_80
*471 ANTENNA_81
*472 ANTENNA_82
*473 ANTENNA_83
*474 ANTENNA_84
*475 ANTENNA_85
*476 ANTENNA_86
*477 ANTENNA_87
*478 ANTENNA_88
*479 ANTENNA_89
*480 ANTENNA_9
*481 ANTENNA_90
*482 ANTENNA_91
*483 ANTENNA_92
*484 ANTENNA_93
*485 ANTENNA_94
*486 ANTENNA_95
*487 ANTENNA_96
*488 ANTENNA_97
*489 ANTENNA_98
*490 ANTENNA_99
*491 ANTENNA_clkbuf_0_wb_clk_i_A
*492 ANTENNA_hold100_A
*493 ANTENNA_hold101_A
*494 ANTENNA_hold102_A
*495 ANTENNA_hold103_A
*496 ANTENNA_hold104_A
*497 ANTENNA_hold105_A
*498 ANTENNA_hold106_A
*499 ANTENNA_hold107_A
*500 ANTENNA_hold108_A
*501 ANTENNA_hold109_A
*502 ANTENNA_hold110_A
*503 ANTENNA_hold111_A
*504 ANTENNA_hold112_A
*505 ANTENNA_hold113_A
*506 ANTENNA_hold114_A
*507 ANTENNA_hold115_A
*508 ANTENNA_hold116_A
*509 ANTENNA_hold117_A
*510 ANTENNA_hold118_A
*511 ANTENNA_hold119_A
*512 ANTENNA_hold120_A
*513 ANTENNA_hold121_A
*514 ANTENNA_hold122_A
*515 ANTENNA_hold123_A
*516 ANTENNA_hold124_A
*517 ANTENNA_hold125_A
*518 ANTENNA_hold126_A
*519 ANTENNA_hold127_A
*520 ANTENNA_hold128_A
*521 ANTENNA_hold129_A
*522 ANTENNA_hold130_A
*523 ANTENNA_hold131_A
*524 ANTENNA_hold132_A
*525 ANTENNA_hold133_A
*526 ANTENNA_hold134_A
*527 ANTENNA_hold135_A
*528 ANTENNA_hold136_A
*529 ANTENNA_hold137_A
*530 ANTENNA_hold138_A
*531 ANTENNA_hold87_A
*532 ANTENNA_hold90_A
*533 ANTENNA_hold93_A
*534 ANTENNA_hold96_A
*535 ANTENNA_hold97_A
*536 ANTENNA_hold98_A
*537 ANTENNA_hold99_A
*538 ANTENNA_input12_A
*539 ANTENNA_input1_A
*540 ANTENNA_input49_A
*541 ANTENNA_input50_A
*542 FILLER_0_109
*543 FILLER_0_111
*544 FILLER_0_113
*545 FILLER_0_125
*546 FILLER_0_137
*547 FILLER_0_139
*548 FILLER_0_141
*549 FILLER_0_15
*550 FILLER_0_153
*551 FILLER_0_165
*552 FILLER_0_167
*553 FILLER_0_169
*554 FILLER_0_181
*555 FILLER_0_193
*556 FILLER_0_195
*557 FILLER_0_197
*558 FILLER_0_209
*559 FILLER_0_221
*560 FILLER_0_223
*561 FILLER_0_225
*562 FILLER_0_237
*563 FILLER_0_241
*564 FILLER_0_248
*565 FILLER_0_269
*566 FILLER_0_27
*567 FILLER_0_281
*568 FILLER_0_29
*569 FILLER_0_3
*570 FILLER_0_309
*571 FILLER_0_363
*572 FILLER_0_391
*573 FILLER_0_393
*574 FILLER_0_41
*575 FILLER_0_447
*576 FILLER_0_475
*577 FILLER_0_477
*578 FILLER_0_53
*579 FILLER_0_531
*580 FILLER_0_55
*581 FILLER_0_557
*582 FILLER_0_559
*583 FILLER_0_57
*584 FILLER_0_587
*585 FILLER_0_615
*586 FILLER_0_619
*587 FILLER_0_641
*588 FILLER_0_643
*589 FILLER_0_645
*590 FILLER_0_649
*591 FILLER_0_653
*592 FILLER_0_665
*593 FILLER_0_669
*594 FILLER_0_671
*595 FILLER_0_673
*596 FILLER_0_677
*597 FILLER_0_69
*598 FILLER_0_699
*599 FILLER_0_709
*600 FILLER_0_713
*601 FILLER_0_727
*602 FILLER_0_755
*603 FILLER_0_783
*604 FILLER_0_793
*605 FILLER_0_81
*606 FILLER_0_83
*607 FILLER_0_85
*608 FILLER_0_97
*609 FILLER_100_703
*610 FILLER_100_715
*611 FILLER_100_727
*612 FILLER_100_729
*613 FILLER_100_741
*614 FILLER_100_753
*615 FILLER_100_765
*616 FILLER_100_777
*617 FILLER_100_781
*618 FILLER_100_783
*619 FILLER_100_785
*620 FILLER_100_797
*621 FILLER_101_703
*622 FILLER_101_715
*623 FILLER_101_727
*624 FILLER_101_739
*625 FILLER_101_751
*626 FILLER_101_755
*627 FILLER_101_757
*628 FILLER_101_769
*629 FILLER_101_781
*630 FILLER_101_793
*631 FILLER_102_703
*632 FILLER_102_715
*633 FILLER_102_727
*634 FILLER_102_729
*635 FILLER_102_741
*636 FILLER_102_753
*637 FILLER_102_765
*638 FILLER_102_777
*639 FILLER_102_781
*640 FILLER_102_783
*641 FILLER_102_785
*642 FILLER_102_797
*643 FILLER_103_703
*644 FILLER_103_715
*645 FILLER_103_727
*646 FILLER_103_739
*647 FILLER_103_751
*648 FILLER_103_755
*649 FILLER_103_757
*650 FILLER_103_769
*651 FILLER_103_781
*652 FILLER_103_793
*653 FILLER_104_703
*654 FILLER_104_715
*655 FILLER_104_727
*656 FILLER_104_729
*657 FILLER_104_741
*658 FILLER_104_753
*659 FILLER_104_765
*660 FILLER_104_777
*661 FILLER_104_781
*662 FILLER_104_783
*663 FILLER_104_785
*664 FILLER_104_797
*665 FILLER_105_703
*666 FILLER_105_715
*667 FILLER_105_727
*668 FILLER_105_739
*669 FILLER_105_751
*670 FILLER_105_755
*671 FILLER_105_757
*672 FILLER_105_769
*673 FILLER_105_781
*674 FILLER_105_793
*675 FILLER_106_703
*676 FILLER_106_715
*677 FILLER_106_727
*678 FILLER_106_729
*679 FILLER_106_741
*680 FILLER_106_753
*681 FILLER_106_765
*682 FILLER_106_777
*683 FILLER_106_781
*684 FILLER_106_783
*685 FILLER_106_785
*686 FILLER_106_797
*687 FILLER_107_703
*688 FILLER_107_715
*689 FILLER_107_727
*690 FILLER_107_739
*691 FILLER_107_751
*692 FILLER_107_755
*693 FILLER_107_757
*694 FILLER_107_769
*695 FILLER_107_781
*696 FILLER_107_793
*697 FILLER_108_703
*698 FILLER_108_715
*699 FILLER_108_727
*700 FILLER_108_729
*701 FILLER_108_741
*702 FILLER_108_753
*703 FILLER_108_765
*704 FILLER_108_777
*705 FILLER_108_781
*706 FILLER_108_783
*707 FILLER_108_785
*708 FILLER_108_797
*709 FILLER_109_703
*710 FILLER_109_715
*711 FILLER_109_727
*712 FILLER_109_739
*713 FILLER_109_751
*714 FILLER_109_755
*715 FILLER_109_757
*716 FILLER_109_769
*717 FILLER_109_781
*718 FILLER_109_793
*719 FILLER_10_703
*720 FILLER_10_713
*721 FILLER_10_725
*722 FILLER_10_727
*723 FILLER_10_729
*724 FILLER_10_741
*725 FILLER_10_753
*726 FILLER_10_765
*727 FILLER_10_777
*728 FILLER_10_781
*729 FILLER_10_783
*730 FILLER_10_785
*731 FILLER_10_797
*732 FILLER_110_703
*733 FILLER_110_715
*734 FILLER_110_727
*735 FILLER_110_729
*736 FILLER_110_741
*737 FILLER_110_753
*738 FILLER_110_765
*739 FILLER_110_777
*740 FILLER_110_781
*741 FILLER_110_783
*742 FILLER_110_785
*743 FILLER_110_797
*744 FILLER_111_703
*745 FILLER_111_715
*746 FILLER_111_727
*747 FILLER_111_739
*748 FILLER_111_751
*749 FILLER_111_755
*750 FILLER_111_757
*751 FILLER_111_769
*752 FILLER_111_781
*753 FILLER_111_793
*754 FILLER_112_703
*755 FILLER_112_715
*756 FILLER_112_727
*757 FILLER_112_729
*758 FILLER_112_741
*759 FILLER_112_753
*760 FILLER_112_765
*761 FILLER_112_777
*762 FILLER_112_781
*763 FILLER_112_783
*764 FILLER_112_785
*765 FILLER_112_797
*766 FILLER_113_703
*767 FILLER_113_715
*768 FILLER_113_727
*769 FILLER_113_739
*770 FILLER_113_751
*771 FILLER_113_755
*772 FILLER_113_757
*773 FILLER_113_769
*774 FILLER_113_781
*775 FILLER_113_793
*776 FILLER_114_703
*777 FILLER_114_715
*778 FILLER_114_727
*779 FILLER_114_729
*780 FILLER_114_741
*781 FILLER_114_753
*782 FILLER_114_765
*783 FILLER_114_777
*784 FILLER_114_781
*785 FILLER_114_783
*786 FILLER_114_785
*787 FILLER_114_797
*788 FILLER_115_703
*789 FILLER_115_715
*790 FILLER_115_727
*791 FILLER_115_739
*792 FILLER_115_751
*793 FILLER_115_755
*794 FILLER_115_757
*795 FILLER_115_769
*796 FILLER_115_781
*797 FILLER_115_793
*798 FILLER_116_703
*799 FILLER_116_715
*800 FILLER_116_727
*801 FILLER_116_729
*802 FILLER_116_741
*803 FILLER_116_753
*804 FILLER_116_765
*805 FILLER_116_777
*806 FILLER_116_781
*807 FILLER_116_783
*808 FILLER_116_785
*809 FILLER_116_797
*810 FILLER_117_703
*811 FILLER_117_715
*812 FILLER_117_727
*813 FILLER_117_739
*814 FILLER_117_751
*815 FILLER_117_755
*816 FILLER_117_757
*817 FILLER_117_769
*818 FILLER_117_781
*819 FILLER_117_793
*820 FILLER_118_703
*821 FILLER_118_715
*822 FILLER_118_727
*823 FILLER_118_729
*824 FILLER_118_741
*825 FILLER_118_753
*826 FILLER_118_765
*827 FILLER_118_777
*828 FILLER_118_781
*829 FILLER_118_783
*830 FILLER_118_785
*831 FILLER_118_797
*832 FILLER_119_703
*833 FILLER_119_715
*834 FILLER_119_727
*835 FILLER_119_739
*836 FILLER_119_751
*837 FILLER_119_755
*838 FILLER_119_757
*839 FILLER_119_769
*840 FILLER_119_781
*841 FILLER_119_793
*842 FILLER_11_705
*843 FILLER_11_709
*844 FILLER_11_713
*845 FILLER_11_725
*846 FILLER_11_737
*847 FILLER_11_749
*848 FILLER_11_753
*849 FILLER_11_755
*850 FILLER_11_757
*851 FILLER_11_769
*852 FILLER_11_781
*853 FILLER_11_793
*854 FILLER_120_703
*855 FILLER_120_715
*856 FILLER_120_727
*857 FILLER_120_729
*858 FILLER_120_741
*859 FILLER_120_753
*860 FILLER_120_765
*861 FILLER_120_777
*862 FILLER_120_781
*863 FILLER_120_783
*864 FILLER_120_785
*865 FILLER_120_797
*866 FILLER_121_703
*867 FILLER_121_715
*868 FILLER_121_727
*869 FILLER_121_739
*870 FILLER_121_751
*871 FILLER_121_755
*872 FILLER_121_757
*873 FILLER_121_769
*874 FILLER_121_781
*875 FILLER_121_793
*876 FILLER_122_703
*877 FILLER_122_715
*878 FILLER_122_727
*879 FILLER_122_729
*880 FILLER_122_741
*881 FILLER_122_753
*882 FILLER_122_765
*883 FILLER_122_777
*884 FILLER_122_781
*885 FILLER_122_783
*886 FILLER_122_785
*887 FILLER_122_797
*888 FILLER_123_703
*889 FILLER_123_715
*890 FILLER_123_727
*891 FILLER_123_739
*892 FILLER_123_751
*893 FILLER_123_755
*894 FILLER_123_757
*895 FILLER_123_769
*896 FILLER_123_781
*897 FILLER_123_793
*898 FILLER_124_703
*899 FILLER_124_715
*900 FILLER_124_727
*901 FILLER_124_729
*902 FILLER_124_741
*903 FILLER_124_753
*904 FILLER_124_765
*905 FILLER_124_777
*906 FILLER_124_781
*907 FILLER_124_783
*908 FILLER_124_785
*909 FILLER_124_797
*910 FILLER_125_703
*911 FILLER_125_715
*912 FILLER_125_727
*913 FILLER_125_739
*914 FILLER_125_751
*915 FILLER_125_755
*916 FILLER_125_757
*917 FILLER_125_769
*918 FILLER_125_781
*919 FILLER_125_793
*920 FILLER_126_703
*921 FILLER_126_715
*922 FILLER_126_727
*923 FILLER_126_729
*924 FILLER_126_741
*925 FILLER_126_753
*926 FILLER_126_765
*927 FILLER_126_777
*928 FILLER_126_781
*929 FILLER_126_783
*930 FILLER_126_785
*931 FILLER_126_797
*932 FILLER_127_703
*933 FILLER_127_715
*934 FILLER_127_727
*935 FILLER_127_739
*936 FILLER_127_751
*937 FILLER_127_755
*938 FILLER_127_757
*939 FILLER_127_769
*940 FILLER_127_781
*941 FILLER_127_793
*942 FILLER_128_703
*943 FILLER_128_715
*944 FILLER_128_727
*945 FILLER_128_729
*946 FILLER_128_741
*947 FILLER_128_753
*948 FILLER_128_765
*949 FILLER_128_777
*950 FILLER_128_781
*951 FILLER_128_783
*952 FILLER_128_785
*953 FILLER_128_797
*954 FILLER_129_703
*955 FILLER_129_715
*956 FILLER_129_727
*957 FILLER_129_739
*958 FILLER_129_751
*959 FILLER_129_755
*960 FILLER_129_757
*961 FILLER_129_769
*962 FILLER_129_781
*963 FILLER_129_793
*964 FILLER_12_703
*965 FILLER_12_715
*966 FILLER_12_727
*967 FILLER_12_729
*968 FILLER_12_741
*969 FILLER_12_753
*970 FILLER_12_765
*971 FILLER_12_777
*972 FILLER_12_781
*973 FILLER_12_783
*974 FILLER_12_785
*975 FILLER_12_797
*976 FILLER_130_703
*977 FILLER_130_715
*978 FILLER_130_727
*979 FILLER_130_729
*980 FILLER_130_741
*981 FILLER_130_753
*982 FILLER_130_765
*983 FILLER_130_777
*984 FILLER_130_781
*985 FILLER_130_783
*986 FILLER_130_785
*987 FILLER_130_797
*988 FILLER_131_703
*989 FILLER_131_715
*990 FILLER_131_727
*991 FILLER_131_739
*992 FILLER_131_751
*993 FILLER_131_755
*994 FILLER_131_757
*995 FILLER_131_769
*996 FILLER_131_781
*997 FILLER_131_793
*998 FILLER_132_703
*999 FILLER_132_715
*1000 FILLER_132_727
*1001 FILLER_132_729
*1002 FILLER_132_741
*1003 FILLER_132_753
*1004 FILLER_132_765
*1005 FILLER_132_777
*1006 FILLER_132_781
*1007 FILLER_132_783
*1008 FILLER_132_785
*1009 FILLER_132_797
*1010 FILLER_133_703
*1011 FILLER_133_715
*1012 FILLER_133_727
*1013 FILLER_133_739
*1014 FILLER_133_751
*1015 FILLER_133_755
*1016 FILLER_133_757
*1017 FILLER_133_769
*1018 FILLER_133_781
*1019 FILLER_133_793
*1020 FILLER_134_703
*1021 FILLER_134_715
*1022 FILLER_134_727
*1023 FILLER_134_729
*1024 FILLER_134_741
*1025 FILLER_134_753
*1026 FILLER_134_765
*1027 FILLER_134_777
*1028 FILLER_134_781
*1029 FILLER_134_783
*1030 FILLER_134_785
*1031 FILLER_134_797
*1032 FILLER_135_703
*1033 FILLER_135_715
*1034 FILLER_135_727
*1035 FILLER_135_739
*1036 FILLER_135_751
*1037 FILLER_135_755
*1038 FILLER_135_757
*1039 FILLER_135_769
*1040 FILLER_135_781
*1041 FILLER_135_793
*1042 FILLER_136_703
*1043 FILLER_136_715
*1044 FILLER_136_727
*1045 FILLER_136_729
*1046 FILLER_136_741
*1047 FILLER_136_753
*1048 FILLER_136_765
*1049 FILLER_136_777
*1050 FILLER_136_781
*1051 FILLER_136_783
*1052 FILLER_136_785
*1053 FILLER_136_797
*1054 FILLER_137_703
*1055 FILLER_137_715
*1056 FILLER_137_727
*1057 FILLER_137_739
*1058 FILLER_137_751
*1059 FILLER_137_755
*1060 FILLER_137_757
*1061 FILLER_137_769
*1062 FILLER_137_781
*1063 FILLER_137_793
*1064 FILLER_138_703
*1065 FILLER_138_715
*1066 FILLER_138_727
*1067 FILLER_138_729
*1068 FILLER_138_741
*1069 FILLER_138_753
*1070 FILLER_138_765
*1071 FILLER_138_777
*1072 FILLER_138_781
*1073 FILLER_138_783
*1074 FILLER_138_785
*1075 FILLER_138_797
*1076 FILLER_139_703
*1077 FILLER_139_715
*1078 FILLER_139_727
*1079 FILLER_139_739
*1080 FILLER_139_751
*1081 FILLER_139_755
*1082 FILLER_139_757
*1083 FILLER_139_769
*1084 FILLER_139_781
*1085 FILLER_139_793
*1086 FILLER_13_703
*1087 FILLER_13_715
*1088 FILLER_13_727
*1089 FILLER_13_739
*1090 FILLER_13_751
*1091 FILLER_13_755
*1092 FILLER_13_757
*1093 FILLER_13_769
*1094 FILLER_13_781
*1095 FILLER_13_793
*1096 FILLER_140_703
*1097 FILLER_140_715
*1098 FILLER_140_727
*1099 FILLER_140_729
*1100 FILLER_140_741
*1101 FILLER_140_753
*1102 FILLER_140_765
*1103 FILLER_140_777
*1104 FILLER_140_781
*1105 FILLER_140_783
*1106 FILLER_140_785
*1107 FILLER_140_797
*1108 FILLER_141_703
*1109 FILLER_141_715
*1110 FILLER_141_727
*1111 FILLER_141_739
*1112 FILLER_141_751
*1113 FILLER_141_755
*1114 FILLER_141_757
*1115 FILLER_141_769
*1116 FILLER_141_781
*1117 FILLER_141_793
*1118 FILLER_142_703
*1119 FILLER_142_715
*1120 FILLER_142_727
*1121 FILLER_142_729
*1122 FILLER_142_741
*1123 FILLER_142_753
*1124 FILLER_142_765
*1125 FILLER_142_777
*1126 FILLER_142_781
*1127 FILLER_142_783
*1128 FILLER_142_785
*1129 FILLER_142_797
*1130 FILLER_143_703
*1131 FILLER_143_715
*1132 FILLER_143_727
*1133 FILLER_143_739
*1134 FILLER_143_751
*1135 FILLER_143_755
*1136 FILLER_143_757
*1137 FILLER_143_769
*1138 FILLER_143_781
*1139 FILLER_143_793
*1140 FILLER_144_703
*1141 FILLER_144_715
*1142 FILLER_144_727
*1143 FILLER_144_729
*1144 FILLER_144_741
*1145 FILLER_144_753
*1146 FILLER_144_765
*1147 FILLER_144_777
*1148 FILLER_144_781
*1149 FILLER_144_783
*1150 FILLER_144_785
*1151 FILLER_144_797
*1152 FILLER_145_703
*1153 FILLER_145_715
*1154 FILLER_145_727
*1155 FILLER_145_739
*1156 FILLER_145_751
*1157 FILLER_145_755
*1158 FILLER_145_757
*1159 FILLER_145_769
*1160 FILLER_145_781
*1161 FILLER_145_793
*1162 FILLER_146_703
*1163 FILLER_146_715
*1164 FILLER_146_727
*1165 FILLER_146_729
*1166 FILLER_146_741
*1167 FILLER_146_753
*1168 FILLER_146_765
*1169 FILLER_146_777
*1170 FILLER_146_781
*1171 FILLER_146_783
*1172 FILLER_146_785
*1173 FILLER_146_797
*1174 FILLER_147_703
*1175 FILLER_147_715
*1176 FILLER_147_727
*1177 FILLER_147_739
*1178 FILLER_147_751
*1179 FILLER_147_755
*1180 FILLER_147_757
*1181 FILLER_147_769
*1182 FILLER_147_781
*1183 FILLER_147_793
*1184 FILLER_148_703
*1185 FILLER_148_715
*1186 FILLER_148_727
*1187 FILLER_148_729
*1188 FILLER_148_741
*1189 FILLER_148_753
*1190 FILLER_148_765
*1191 FILLER_148_777
*1192 FILLER_148_781
*1193 FILLER_148_783
*1194 FILLER_148_785
*1195 FILLER_148_797
*1196 FILLER_149_703
*1197 FILLER_149_715
*1198 FILLER_149_727
*1199 FILLER_149_739
*1200 FILLER_149_751
*1201 FILLER_149_755
*1202 FILLER_149_757
*1203 FILLER_149_769
*1204 FILLER_149_781
*1205 FILLER_149_793
*1206 FILLER_14_703
*1207 FILLER_14_715
*1208 FILLER_14_727
*1209 FILLER_14_729
*1210 FILLER_14_741
*1211 FILLER_14_753
*1212 FILLER_14_765
*1213 FILLER_14_777
*1214 FILLER_14_781
*1215 FILLER_14_783
*1216 FILLER_14_785
*1217 FILLER_14_797
*1218 FILLER_150_703
*1219 FILLER_150_715
*1220 FILLER_150_727
*1221 FILLER_150_729
*1222 FILLER_150_741
*1223 FILLER_150_753
*1224 FILLER_150_765
*1225 FILLER_150_777
*1226 FILLER_150_781
*1227 FILLER_150_783
*1228 FILLER_150_785
*1229 FILLER_150_797
*1230 FILLER_151_703
*1231 FILLER_151_715
*1232 FILLER_151_727
*1233 FILLER_151_739
*1234 FILLER_151_751
*1235 FILLER_151_755
*1236 FILLER_151_757
*1237 FILLER_151_769
*1238 FILLER_151_781
*1239 FILLER_151_793
*1240 FILLER_152_703
*1241 FILLER_152_715
*1242 FILLER_152_727
*1243 FILLER_152_729
*1244 FILLER_152_741
*1245 FILLER_152_753
*1246 FILLER_152_765
*1247 FILLER_152_777
*1248 FILLER_152_781
*1249 FILLER_152_783
*1250 FILLER_152_785
*1251 FILLER_152_797
*1252 FILLER_153_703
*1253 FILLER_153_715
*1254 FILLER_153_727
*1255 FILLER_153_739
*1256 FILLER_153_751
*1257 FILLER_153_755
*1258 FILLER_153_757
*1259 FILLER_153_769
*1260 FILLER_153_781
*1261 FILLER_153_793
*1262 FILLER_154_703
*1263 FILLER_154_715
*1264 FILLER_154_727
*1265 FILLER_154_729
*1266 FILLER_154_741
*1267 FILLER_154_753
*1268 FILLER_154_765
*1269 FILLER_154_777
*1270 FILLER_154_781
*1271 FILLER_154_783
*1272 FILLER_154_785
*1273 FILLER_154_797
*1274 FILLER_155_703
*1275 FILLER_155_715
*1276 FILLER_155_727
*1277 FILLER_155_729
*1278 FILLER_155_741
*1279 FILLER_155_753
*1280 FILLER_155_755
*1281 FILLER_155_757
*1282 FILLER_155_769
*1283 FILLER_155_781
*1284 FILLER_155_783
*1285 FILLER_155_785
*1286 FILLER_155_797
*1287 FILLER_15_703
*1288 FILLER_15_715
*1289 FILLER_15_727
*1290 FILLER_15_739
*1291 FILLER_15_751
*1292 FILLER_15_755
*1293 FILLER_15_757
*1294 FILLER_15_769
*1295 FILLER_15_781
*1296 FILLER_15_793
*1297 FILLER_16_703
*1298 FILLER_16_715
*1299 FILLER_16_727
*1300 FILLER_16_729
*1301 FILLER_16_741
*1302 FILLER_16_753
*1303 FILLER_16_765
*1304 FILLER_16_777
*1305 FILLER_16_781
*1306 FILLER_16_783
*1307 FILLER_16_785
*1308 FILLER_16_797
*1309 FILLER_17_703
*1310 FILLER_17_715
*1311 FILLER_17_727
*1312 FILLER_17_739
*1313 FILLER_17_751
*1314 FILLER_17_755
*1315 FILLER_17_757
*1316 FILLER_17_769
*1317 FILLER_17_781
*1318 FILLER_17_793
*1319 FILLER_18_703
*1320 FILLER_18_715
*1321 FILLER_18_727
*1322 FILLER_18_729
*1323 FILLER_18_741
*1324 FILLER_18_753
*1325 FILLER_18_765
*1326 FILLER_18_777
*1327 FILLER_18_781
*1328 FILLER_18_783
*1329 FILLER_18_785
*1330 FILLER_18_797
*1331 FILLER_19_703
*1332 FILLER_19_715
*1333 FILLER_19_727
*1334 FILLER_19_739
*1335 FILLER_19_751
*1336 FILLER_19_755
*1337 FILLER_19_757
*1338 FILLER_19_769
*1339 FILLER_19_781
*1340 FILLER_19_793
*1341 FILLER_1_105
*1342 FILLER_1_109
*1343 FILLER_1_111
*1344 FILLER_1_113
*1345 FILLER_1_125
*1346 FILLER_1_137
*1347 FILLER_1_149
*1348 FILLER_1_15
*1349 FILLER_1_161
*1350 FILLER_1_165
*1351 FILLER_1_167
*1352 FILLER_1_169
*1353 FILLER_1_181
*1354 FILLER_1_193
*1355 FILLER_1_205
*1356 FILLER_1_217
*1357 FILLER_1_221
*1358 FILLER_1_223
*1359 FILLER_1_225
*1360 FILLER_1_237
*1361 FILLER_1_249
*1362 FILLER_1_251
*1363 FILLER_1_27
*1364 FILLER_1_3
*1365 FILLER_1_303
*1366 FILLER_1_339
*1367 FILLER_1_358
*1368 FILLER_1_39
*1369 FILLER_1_447
*1370 FILLER_1_449
*1371 FILLER_1_509
*1372 FILLER_1_51
*1373 FILLER_1_55
*1374 FILLER_1_556
*1375 FILLER_1_569
*1376 FILLER_1_57
*1377 FILLER_1_627
*1378 FILLER_1_633
*1379 FILLER_1_643
*1380 FILLER_1_659
*1381 FILLER_1_671
*1382 FILLER_1_673
*1383 FILLER_1_677
*1384 FILLER_1_69
*1385 FILLER_1_697
*1386 FILLER_1_701
*1387 FILLER_1_727
*1388 FILLER_1_781
*1389 FILLER_1_783
*1390 FILLER_1_785
*1391 FILLER_1_797
*1392 FILLER_1_81
*1393 FILLER_1_93
*1394 FILLER_20_703
*1395 FILLER_20_715
*1396 FILLER_20_727
*1397 FILLER_20_729
*1398 FILLER_20_741
*1399 FILLER_20_753
*1400 FILLER_20_765
*1401 FILLER_20_777
*1402 FILLER_20_781
*1403 FILLER_20_783
*1404 FILLER_20_785
*1405 FILLER_20_797
*1406 FILLER_21_703
*1407 FILLER_21_715
*1408 FILLER_21_727
*1409 FILLER_21_739
*1410 FILLER_21_751
*1411 FILLER_21_755
*1412 FILLER_21_757
*1413 FILLER_21_769
*1414 FILLER_21_781
*1415 FILLER_21_793
*1416 FILLER_22_703
*1417 FILLER_22_715
*1418 FILLER_22_727
*1419 FILLER_22_729
*1420 FILLER_22_741
*1421 FILLER_22_753
*1422 FILLER_22_765
*1423 FILLER_22_777
*1424 FILLER_22_781
*1425 FILLER_22_783
*1426 FILLER_22_785
*1427 FILLER_22_797
*1428 FILLER_23_703
*1429 FILLER_23_715
*1430 FILLER_23_727
*1431 FILLER_23_739
*1432 FILLER_23_751
*1433 FILLER_23_755
*1434 FILLER_23_757
*1435 FILLER_23_769
*1436 FILLER_23_781
*1437 FILLER_23_793
*1438 FILLER_24_703
*1439 FILLER_24_715
*1440 FILLER_24_727
*1441 FILLER_24_729
*1442 FILLER_24_741
*1443 FILLER_24_753
*1444 FILLER_24_765
*1445 FILLER_24_777
*1446 FILLER_24_781
*1447 FILLER_24_783
*1448 FILLER_24_785
*1449 FILLER_24_797
*1450 FILLER_25_703
*1451 FILLER_25_715
*1452 FILLER_25_727
*1453 FILLER_25_739
*1454 FILLER_25_751
*1455 FILLER_25_755
*1456 FILLER_25_757
*1457 FILLER_25_769
*1458 FILLER_25_781
*1459 FILLER_25_793
*1460 FILLER_26_703
*1461 FILLER_26_715
*1462 FILLER_26_727
*1463 FILLER_26_729
*1464 FILLER_26_741
*1465 FILLER_26_753
*1466 FILLER_26_765
*1467 FILLER_26_777
*1468 FILLER_26_781
*1469 FILLER_26_783
*1470 FILLER_26_785
*1471 FILLER_26_797
*1472 FILLER_27_703
*1473 FILLER_27_715
*1474 FILLER_27_727
*1475 FILLER_27_739
*1476 FILLER_27_751
*1477 FILLER_27_755
*1478 FILLER_27_757
*1479 FILLER_27_769
*1480 FILLER_27_781
*1481 FILLER_27_793
*1482 FILLER_28_703
*1483 FILLER_28_715
*1484 FILLER_28_727
*1485 FILLER_28_729
*1486 FILLER_28_741
*1487 FILLER_28_753
*1488 FILLER_28_765
*1489 FILLER_28_777
*1490 FILLER_28_781
*1491 FILLER_28_783
*1492 FILLER_28_785
*1493 FILLER_28_797
*1494 FILLER_29_703
*1495 FILLER_29_715
*1496 FILLER_29_727
*1497 FILLER_29_739
*1498 FILLER_29_751
*1499 FILLER_29_755
*1500 FILLER_29_757
*1501 FILLER_29_769
*1502 FILLER_29_781
*1503 FILLER_29_793
*1504 FILLER_2_109
*1505 FILLER_2_121
*1506 FILLER_2_133
*1507 FILLER_2_137
*1508 FILLER_2_139
*1509 FILLER_2_141
*1510 FILLER_2_15
*1511 FILLER_2_153
*1512 FILLER_2_165
*1513 FILLER_2_177
*1514 FILLER_2_189
*1515 FILLER_2_193
*1516 FILLER_2_195
*1517 FILLER_2_197
*1518 FILLER_2_209
*1519 FILLER_2_221
*1520 FILLER_2_233
*1521 FILLER_2_245
*1522 FILLER_2_249
*1523 FILLER_2_251
*1524 FILLER_2_253
*1525 FILLER_2_255
*1526 FILLER_2_27
*1527 FILLER_2_29
*1528 FILLER_2_296
*1529 FILLER_2_3
*1530 FILLER_2_309
*1531 FILLER_2_360
*1532 FILLER_2_365
*1533 FILLER_2_367
*1534 FILLER_2_408
*1535 FILLER_2_41
*1536 FILLER_2_418
*1537 FILLER_2_423
*1538 FILLER_2_431
*1539 FILLER_2_474
*1540 FILLER_2_477
*1541 FILLER_2_501
*1542 FILLER_2_513
*1543 FILLER_2_529
*1544 FILLER_2_53
*1545 FILLER_2_531
*1546 FILLER_2_533
*1547 FILLER_2_544
*1548 FILLER_2_548
*1549 FILLER_2_564
*1550 FILLER_2_568
*1551 FILLER_2_570
*1552 FILLER_2_587
*1553 FILLER_2_597
*1554 FILLER_2_641
*1555 FILLER_2_643
*1556 FILLER_2_645
*1557 FILLER_2_65
*1558 FILLER_2_673
*1559 FILLER_2_677
*1560 FILLER_2_697
*1561 FILLER_2_699
*1562 FILLER_2_709
*1563 FILLER_2_735
*1564 FILLER_2_737
*1565 FILLER_2_763
*1566 FILLER_2_77
*1567 FILLER_2_771
*1568 FILLER_2_779
*1569 FILLER_2_791
*1570 FILLER_2_799
*1571 FILLER_2_81
*1572 FILLER_2_83
*1573 FILLER_2_85
*1574 FILLER_2_97
*1575 FILLER_30_703
*1576 FILLER_30_715
*1577 FILLER_30_727
*1578 FILLER_30_729
*1579 FILLER_30_741
*1580 FILLER_30_753
*1581 FILLER_30_765
*1582 FILLER_30_777
*1583 FILLER_30_781
*1584 FILLER_30_783
*1585 FILLER_30_785
*1586 FILLER_30_797
*1587 FILLER_31_703
*1588 FILLER_31_715
*1589 FILLER_31_727
*1590 FILLER_31_739
*1591 FILLER_31_751
*1592 FILLER_31_755
*1593 FILLER_31_757
*1594 FILLER_31_769
*1595 FILLER_31_781
*1596 FILLER_31_793
*1597 FILLER_32_703
*1598 FILLER_32_715
*1599 FILLER_32_727
*1600 FILLER_32_729
*1601 FILLER_32_741
*1602 FILLER_32_753
*1603 FILLER_32_765
*1604 FILLER_32_777
*1605 FILLER_32_781
*1606 FILLER_32_783
*1607 FILLER_32_785
*1608 FILLER_32_797
*1609 FILLER_33_703
*1610 FILLER_33_715
*1611 FILLER_33_727
*1612 FILLER_33_739
*1613 FILLER_33_751
*1614 FILLER_33_755
*1615 FILLER_33_757
*1616 FILLER_33_769
*1617 FILLER_33_781
*1618 FILLER_33_793
*1619 FILLER_34_703
*1620 FILLER_34_715
*1621 FILLER_34_727
*1622 FILLER_34_729
*1623 FILLER_34_741
*1624 FILLER_34_753
*1625 FILLER_34_765
*1626 FILLER_34_777
*1627 FILLER_34_781
*1628 FILLER_34_783
*1629 FILLER_34_785
*1630 FILLER_34_797
*1631 FILLER_35_703
*1632 FILLER_35_715
*1633 FILLER_35_727
*1634 FILLER_35_739
*1635 FILLER_35_751
*1636 FILLER_35_755
*1637 FILLER_35_757
*1638 FILLER_35_769
*1639 FILLER_35_781
*1640 FILLER_35_793
*1641 FILLER_36_703
*1642 FILLER_36_715
*1643 FILLER_36_727
*1644 FILLER_36_729
*1645 FILLER_36_741
*1646 FILLER_36_753
*1647 FILLER_36_765
*1648 FILLER_36_777
*1649 FILLER_36_781
*1650 FILLER_36_783
*1651 FILLER_36_785
*1652 FILLER_36_797
*1653 FILLER_37_703
*1654 FILLER_37_715
*1655 FILLER_37_727
*1656 FILLER_37_739
*1657 FILLER_37_751
*1658 FILLER_37_755
*1659 FILLER_37_757
*1660 FILLER_37_769
*1661 FILLER_37_781
*1662 FILLER_37_793
*1663 FILLER_38_703
*1664 FILLER_38_715
*1665 FILLER_38_727
*1666 FILLER_38_729
*1667 FILLER_38_741
*1668 FILLER_38_753
*1669 FILLER_38_765
*1670 FILLER_38_777
*1671 FILLER_38_781
*1672 FILLER_38_783
*1673 FILLER_38_785
*1674 FILLER_38_797
*1675 FILLER_39_711
*1676 FILLER_39_723
*1677 FILLER_39_735
*1678 FILLER_39_747
*1679 FILLER_39_755
*1680 FILLER_39_757
*1681 FILLER_39_769
*1682 FILLER_39_781
*1683 FILLER_39_793
*1684 FILLER_3_105
*1685 FILLER_3_109
*1686 FILLER_3_111
*1687 FILLER_3_113
*1688 FILLER_3_125
*1689 FILLER_3_137
*1690 FILLER_3_149
*1691 FILLER_3_15
*1692 FILLER_3_161
*1693 FILLER_3_165
*1694 FILLER_3_167
*1695 FILLER_3_169
*1696 FILLER_3_181
*1697 FILLER_3_193
*1698 FILLER_3_205
*1699 FILLER_3_217
*1700 FILLER_3_221
*1701 FILLER_3_223
*1702 FILLER_3_225
*1703 FILLER_3_237
*1704 FILLER_3_249
*1705 FILLER_3_261
*1706 FILLER_3_265
*1707 FILLER_3_27
*1708 FILLER_3_287
*1709 FILLER_3_3
*1710 FILLER_3_337
*1711 FILLER_3_372
*1712 FILLER_3_379
*1713 FILLER_3_388
*1714 FILLER_3_39
*1715 FILLER_3_407
*1716 FILLER_3_415
*1717 FILLER_3_427
*1718 FILLER_3_435
*1719 FILLER_3_459
*1720 FILLER_3_463
*1721 FILLER_3_465
*1722 FILLER_3_484
*1723 FILLER_3_496
*1724 FILLER_3_505
*1725 FILLER_3_51
*1726 FILLER_3_517
*1727 FILLER_3_529
*1728 FILLER_3_541
*1729 FILLER_3_55
*1730 FILLER_3_553
*1731 FILLER_3_557
*1732 FILLER_3_559
*1733 FILLER_3_561
*1734 FILLER_3_57
*1735 FILLER_3_573
*1736 FILLER_3_585
*1737 FILLER_3_597
*1738 FILLER_3_599
*1739 FILLER_3_625
*1740 FILLER_3_629
*1741 FILLER_3_639
*1742 FILLER_3_649
*1743 FILLER_3_653
*1744 FILLER_3_657
*1745 FILLER_3_661
*1746 FILLER_3_665
*1747 FILLER_3_669
*1748 FILLER_3_671
*1749 FILLER_3_673
*1750 FILLER_3_677
*1751 FILLER_3_69
*1752 FILLER_3_707
*1753 FILLER_3_713
*1754 FILLER_3_717
*1755 FILLER_3_726
*1756 FILLER_3_729
*1757 FILLER_3_741
*1758 FILLER_3_753
*1759 FILLER_3_765
*1760 FILLER_3_777
*1761 FILLER_3_781
*1762 FILLER_3_783
*1763 FILLER_3_785
*1764 FILLER_3_797
*1765 FILLER_3_81
*1766 FILLER_3_93
*1767 FILLER_40_721
*1768 FILLER_40_725
*1769 FILLER_40_727
*1770 FILLER_40_729
*1771 FILLER_40_741
*1772 FILLER_40_753
*1773 FILLER_40_765
*1774 FILLER_40_777
*1775 FILLER_40_781
*1776 FILLER_40_783
*1777 FILLER_40_785
*1778 FILLER_40_797
*1779 FILLER_41_727
*1780 FILLER_41_739
*1781 FILLER_41_751
*1782 FILLER_41_755
*1783 FILLER_41_757
*1784 FILLER_41_769
*1785 FILLER_41_781
*1786 FILLER_41_793
*1787 FILLER_42_721
*1788 FILLER_42_725
*1789 FILLER_42_727
*1790 FILLER_42_729
*1791 FILLER_42_741
*1792 FILLER_42_753
*1793 FILLER_42_765
*1794 FILLER_42_777
*1795 FILLER_42_781
*1796 FILLER_42_783
*1797 FILLER_42_785
*1798 FILLER_42_797
*1799 FILLER_43_713
*1800 FILLER_43_725
*1801 FILLER_43_737
*1802 FILLER_43_749
*1803 FILLER_43_753
*1804 FILLER_43_755
*1805 FILLER_43_757
*1806 FILLER_43_769
*1807 FILLER_43_781
*1808 FILLER_43_793
*1809 FILLER_44_713
*1810 FILLER_44_725
*1811 FILLER_44_727
*1812 FILLER_44_729
*1813 FILLER_44_741
*1814 FILLER_44_753
*1815 FILLER_44_765
*1816 FILLER_44_777
*1817 FILLER_44_781
*1818 FILLER_44_783
*1819 FILLER_44_785
*1820 FILLER_44_797
*1821 FILLER_45_703
*1822 FILLER_45_715
*1823 FILLER_45_727
*1824 FILLER_45_739
*1825 FILLER_45_751
*1826 FILLER_45_755
*1827 FILLER_45_757
*1828 FILLER_45_769
*1829 FILLER_45_781
*1830 FILLER_45_793
*1831 FILLER_46_711
*1832 FILLER_46_723
*1833 FILLER_46_727
*1834 FILLER_46_729
*1835 FILLER_46_741
*1836 FILLER_46_753
*1837 FILLER_46_765
*1838 FILLER_46_777
*1839 FILLER_46_781
*1840 FILLER_46_783
*1841 FILLER_46_785
*1842 FILLER_46_797
*1843 FILLER_47_719
*1844 FILLER_47_731
*1845 FILLER_47_743
*1846 FILLER_47_755
*1847 FILLER_47_757
*1848 FILLER_47_769
*1849 FILLER_47_781
*1850 FILLER_47_793
*1851 FILLER_48_711
*1852 FILLER_48_723
*1853 FILLER_48_727
*1854 FILLER_48_729
*1855 FILLER_48_741
*1856 FILLER_48_753
*1857 FILLER_48_765
*1858 FILLER_48_777
*1859 FILLER_48_781
*1860 FILLER_48_783
*1861 FILLER_48_785
*1862 FILLER_48_797
*1863 FILLER_49_711
*1864 FILLER_49_723
*1865 FILLER_49_735
*1866 FILLER_49_747
*1867 FILLER_49_755
*1868 FILLER_49_757
*1869 FILLER_49_769
*1870 FILLER_49_781
*1871 FILLER_49_793
*1872 FILLER_4_109
*1873 FILLER_4_121
*1874 FILLER_4_133
*1875 FILLER_4_137
*1876 FILLER_4_139
*1877 FILLER_4_141
*1878 FILLER_4_15
*1879 FILLER_4_153
*1880 FILLER_4_165
*1881 FILLER_4_177
*1882 FILLER_4_189
*1883 FILLER_4_193
*1884 FILLER_4_195
*1885 FILLER_4_197
*1886 FILLER_4_209
*1887 FILLER_4_221
*1888 FILLER_4_233
*1889 FILLER_4_245
*1890 FILLER_4_249
*1891 FILLER_4_251
*1892 FILLER_4_253
*1893 FILLER_4_265
*1894 FILLER_4_269
*1895 FILLER_4_27
*1896 FILLER_4_271
*1897 FILLER_4_274
*1898 FILLER_4_278
*1899 FILLER_4_29
*1900 FILLER_4_3
*1901 FILLER_4_375
*1902 FILLER_4_391
*1903 FILLER_4_395
*1904 FILLER_4_397
*1905 FILLER_4_404
*1906 FILLER_4_41
*1907 FILLER_4_416
*1908 FILLER_4_421
*1909 FILLER_4_433
*1910 FILLER_4_443
*1911 FILLER_4_449
*1912 FILLER_4_461
*1913 FILLER_4_473
*1914 FILLER_4_475
*1915 FILLER_4_477
*1916 FILLER_4_489
*1917 FILLER_4_501
*1918 FILLER_4_515
*1919 FILLER_4_527
*1920 FILLER_4_53
*1921 FILLER_4_531
*1922 FILLER_4_533
*1923 FILLER_4_545
*1924 FILLER_4_549
*1925 FILLER_4_561
*1926 FILLER_4_573
*1927 FILLER_4_585
*1928 FILLER_4_587
*1929 FILLER_4_589
*1930 FILLER_4_597
*1931 FILLER_4_600
*1932 FILLER_4_614
*1933 FILLER_4_616
*1934 FILLER_4_619
*1935 FILLER_4_633
*1936 FILLER_4_641
*1937 FILLER_4_643
*1938 FILLER_4_645
*1939 FILLER_4_649
*1940 FILLER_4_65
*1941 FILLER_4_661
*1942 FILLER_4_665
*1943 FILLER_4_677
*1944 FILLER_4_689
*1945 FILLER_4_699
*1946 FILLER_4_701
*1947 FILLER_4_709
*1948 FILLER_4_713
*1949 FILLER_4_725
*1950 FILLER_4_737
*1951 FILLER_4_749
*1952 FILLER_4_753
*1953 FILLER_4_755
*1954 FILLER_4_757
*1955 FILLER_4_769
*1956 FILLER_4_77
*1957 FILLER_4_781
*1958 FILLER_4_793
*1959 FILLER_4_81
*1960 FILLER_4_83
*1961 FILLER_4_85
*1962 FILLER_4_97
*1963 FILLER_50_723
*1964 FILLER_50_727
*1965 FILLER_50_729
*1966 FILLER_50_741
*1967 FILLER_50_753
*1968 FILLER_50_765
*1969 FILLER_50_777
*1970 FILLER_50_781
*1971 FILLER_50_783
*1972 FILLER_50_785
*1973 FILLER_50_797
*1974 FILLER_51_705
*1975 FILLER_51_717
*1976 FILLER_51_729
*1977 FILLER_51_741
*1978 FILLER_51_753
*1979 FILLER_51_755
*1980 FILLER_51_757
*1981 FILLER_51_769
*1982 FILLER_51_781
*1983 FILLER_51_793
*1984 FILLER_52_711
*1985 FILLER_52_723
*1986 FILLER_52_727
*1987 FILLER_52_729
*1988 FILLER_52_741
*1989 FILLER_52_753
*1990 FILLER_52_765
*1991 FILLER_52_777
*1992 FILLER_52_781
*1993 FILLER_52_783
*1994 FILLER_52_785
*1995 FILLER_52_797
*1996 FILLER_53_703
*1997 FILLER_53_715
*1998 FILLER_53_727
*1999 FILLER_53_739
*2000 FILLER_53_751
*2001 FILLER_53_755
*2002 FILLER_53_757
*2003 FILLER_53_769
*2004 FILLER_53_781
*2005 FILLER_53_793
*2006 FILLER_54_711
*2007 FILLER_54_723
*2008 FILLER_54_727
*2009 FILLER_54_729
*2010 FILLER_54_741
*2011 FILLER_54_753
*2012 FILLER_54_765
*2013 FILLER_54_777
*2014 FILLER_54_781
*2015 FILLER_54_783
*2016 FILLER_54_785
*2017 FILLER_54_797
*2018 FILLER_55_703
*2019 FILLER_55_715
*2020 FILLER_55_727
*2021 FILLER_55_739
*2022 FILLER_55_751
*2023 FILLER_55_755
*2024 FILLER_55_757
*2025 FILLER_55_769
*2026 FILLER_55_781
*2027 FILLER_55_793
*2028 FILLER_56_711
*2029 FILLER_56_723
*2030 FILLER_56_727
*2031 FILLER_56_729
*2032 FILLER_56_741
*2033 FILLER_56_753
*2034 FILLER_56_765
*2035 FILLER_56_777
*2036 FILLER_56_781
*2037 FILLER_56_783
*2038 FILLER_56_785
*2039 FILLER_56_797
*2040 FILLER_57_703
*2041 FILLER_57_715
*2042 FILLER_57_727
*2043 FILLER_57_739
*2044 FILLER_57_751
*2045 FILLER_57_755
*2046 FILLER_57_757
*2047 FILLER_57_769
*2048 FILLER_57_781
*2049 FILLER_57_793
*2050 FILLER_58_711
*2051 FILLER_58_723
*2052 FILLER_58_727
*2053 FILLER_58_729
*2054 FILLER_58_741
*2055 FILLER_58_753
*2056 FILLER_58_765
*2057 FILLER_58_777
*2058 FILLER_58_781
*2059 FILLER_58_783
*2060 FILLER_58_785
*2061 FILLER_58_797
*2062 FILLER_59_703
*2063 FILLER_59_715
*2064 FILLER_59_727
*2065 FILLER_59_739
*2066 FILLER_59_751
*2067 FILLER_59_755
*2068 FILLER_59_757
*2069 FILLER_59_769
*2070 FILLER_59_781
*2071 FILLER_59_793
*2072 FILLER_5_105
*2073 FILLER_5_109
*2074 FILLER_5_111
*2075 FILLER_5_113
*2076 FILLER_5_125
*2077 FILLER_5_137
*2078 FILLER_5_149
*2079 FILLER_5_15
*2080 FILLER_5_161
*2081 FILLER_5_165
*2082 FILLER_5_167
*2083 FILLER_5_169
*2084 FILLER_5_181
*2085 FILLER_5_193
*2086 FILLER_5_205
*2087 FILLER_5_217
*2088 FILLER_5_221
*2089 FILLER_5_223
*2090 FILLER_5_225
*2091 FILLER_5_237
*2092 FILLER_5_249
*2093 FILLER_5_261
*2094 FILLER_5_27
*2095 FILLER_5_273
*2096 FILLER_5_277
*2097 FILLER_5_279
*2098 FILLER_5_281
*2099 FILLER_5_283
*2100 FILLER_5_298
*2101 FILLER_5_3
*2102 FILLER_5_337
*2103 FILLER_5_388
*2104 FILLER_5_39
*2105 FILLER_5_393
*2106 FILLER_5_405
*2107 FILLER_5_417
*2108 FILLER_5_425
*2109 FILLER_5_433
*2110 FILLER_5_445
*2111 FILLER_5_447
*2112 FILLER_5_449
*2113 FILLER_5_461
*2114 FILLER_5_473
*2115 FILLER_5_485
*2116 FILLER_5_493
*2117 FILLER_5_505
*2118 FILLER_5_509
*2119 FILLER_5_51
*2120 FILLER_5_521
*2121 FILLER_5_525
*2122 FILLER_5_527
*2123 FILLER_5_538
*2124 FILLER_5_546
*2125 FILLER_5_55
*2126 FILLER_5_555
*2127 FILLER_5_559
*2128 FILLER_5_561
*2129 FILLER_5_57
*2130 FILLER_5_572
*2131 FILLER_5_576
*2132 FILLER_5_578
*2133 FILLER_5_589
*2134 FILLER_5_597
*2135 FILLER_5_606
*2136 FILLER_5_614
*2137 FILLER_5_625
*2138 FILLER_5_629
*2139 FILLER_5_639
*2140 FILLER_5_655
*2141 FILLER_5_665
*2142 FILLER_5_669
*2143 FILLER_5_671
*2144 FILLER_5_673
*2145 FILLER_5_677
*2146 FILLER_5_687
*2147 FILLER_5_69
*2148 FILLER_5_699
*2149 FILLER_5_703
*2150 FILLER_5_713
*2151 FILLER_5_725
*2152 FILLER_5_729
*2153 FILLER_5_743
*2154 FILLER_5_755
*2155 FILLER_5_767
*2156 FILLER_5_779
*2157 FILLER_5_783
*2158 FILLER_5_785
*2159 FILLER_5_797
*2160 FILLER_5_81
*2161 FILLER_5_93
*2162 FILLER_60_711
*2163 FILLER_60_723
*2164 FILLER_60_727
*2165 FILLER_60_729
*2166 FILLER_60_741
*2167 FILLER_60_753
*2168 FILLER_60_765
*2169 FILLER_60_777
*2170 FILLER_60_781
*2171 FILLER_60_783
*2172 FILLER_60_785
*2173 FILLER_60_797
*2174 FILLER_61_711
*2175 FILLER_61_723
*2176 FILLER_61_735
*2177 FILLER_61_747
*2178 FILLER_61_755
*2179 FILLER_61_757
*2180 FILLER_61_769
*2181 FILLER_61_781
*2182 FILLER_61_793
*2183 FILLER_62_719
*2184 FILLER_62_727
*2185 FILLER_62_729
*2186 FILLER_62_741
*2187 FILLER_62_753
*2188 FILLER_62_765
*2189 FILLER_62_777
*2190 FILLER_62_781
*2191 FILLER_62_783
*2192 FILLER_62_785
*2193 FILLER_62_797
*2194 FILLER_63_723
*2195 FILLER_63_735
*2196 FILLER_63_747
*2197 FILLER_63_755
*2198 FILLER_63_757
*2199 FILLER_63_769
*2200 FILLER_63_781
*2201 FILLER_63_793
*2202 FILLER_64_711
*2203 FILLER_64_723
*2204 FILLER_64_727
*2205 FILLER_64_729
*2206 FILLER_64_741
*2207 FILLER_64_753
*2208 FILLER_64_765
*2209 FILLER_64_777
*2210 FILLER_64_781
*2211 FILLER_64_783
*2212 FILLER_64_785
*2213 FILLER_64_797
*2214 FILLER_65_703
*2215 FILLER_65_715
*2216 FILLER_65_727
*2217 FILLER_65_739
*2218 FILLER_65_751
*2219 FILLER_65_755
*2220 FILLER_65_757
*2221 FILLER_65_769
*2222 FILLER_65_781
*2223 FILLER_65_793
*2224 FILLER_66_703
*2225 FILLER_66_715
*2226 FILLER_66_727
*2227 FILLER_66_729
*2228 FILLER_66_741
*2229 FILLER_66_753
*2230 FILLER_66_765
*2231 FILLER_66_777
*2232 FILLER_66_781
*2233 FILLER_66_783
*2234 FILLER_66_785
*2235 FILLER_66_797
*2236 FILLER_67_711
*2237 FILLER_67_723
*2238 FILLER_67_735
*2239 FILLER_67_747
*2240 FILLER_67_755
*2241 FILLER_67_757
*2242 FILLER_67_769
*2243 FILLER_67_781
*2244 FILLER_67_793
*2245 FILLER_68_711
*2246 FILLER_68_723
*2247 FILLER_68_727
*2248 FILLER_68_729
*2249 FILLER_68_741
*2250 FILLER_68_753
*2251 FILLER_68_765
*2252 FILLER_68_777
*2253 FILLER_68_781
*2254 FILLER_68_783
*2255 FILLER_68_785
*2256 FILLER_68_797
*2257 FILLER_69_703
*2258 FILLER_69_715
*2259 FILLER_69_727
*2260 FILLER_69_739
*2261 FILLER_69_751
*2262 FILLER_69_755
*2263 FILLER_69_757
*2264 FILLER_69_769
*2265 FILLER_69_781
*2266 FILLER_69_793
*2267 FILLER_6_109
*2268 FILLER_6_121
*2269 FILLER_6_133
*2270 FILLER_6_137
*2271 FILLER_6_139
*2272 FILLER_6_141
*2273 FILLER_6_15
*2274 FILLER_6_153
*2275 FILLER_6_165
*2276 FILLER_6_177
*2277 FILLER_6_189
*2278 FILLER_6_193
*2279 FILLER_6_195
*2280 FILLER_6_197
*2281 FILLER_6_209
*2282 FILLER_6_221
*2283 FILLER_6_233
*2284 FILLER_6_245
*2285 FILLER_6_249
*2286 FILLER_6_251
*2287 FILLER_6_253
*2288 FILLER_6_265
*2289 FILLER_6_27
*2290 FILLER_6_277
*2291 FILLER_6_289
*2292 FILLER_6_29
*2293 FILLER_6_297
*2294 FILLER_6_3
*2295 FILLER_6_309
*2296 FILLER_6_333
*2297 FILLER_6_335
*2298 FILLER_6_344
*2299 FILLER_6_348
*2300 FILLER_6_360
*2301 FILLER_6_373
*2302 FILLER_6_385
*2303 FILLER_6_397
*2304 FILLER_6_409
*2305 FILLER_6_41
*2306 FILLER_6_417
*2307 FILLER_6_419
*2308 FILLER_6_421
*2309 FILLER_6_433
*2310 FILLER_6_445
*2311 FILLER_6_457
*2312 FILLER_6_469
*2313 FILLER_6_473
*2314 FILLER_6_475
*2315 FILLER_6_477
*2316 FILLER_6_481
*2317 FILLER_6_483
*2318 FILLER_6_500
*2319 FILLER_6_504
*2320 FILLER_6_521
*2321 FILLER_6_529
*2322 FILLER_6_53
*2323 FILLER_6_531
*2324 FILLER_6_533
*2325 FILLER_6_545
*2326 FILLER_6_557
*2327 FILLER_6_569
*2328 FILLER_6_581
*2329 FILLER_6_585
*2330 FILLER_6_587
*2331 FILLER_6_589
*2332 FILLER_6_601
*2333 FILLER_6_613
*2334 FILLER_6_619
*2335 FILLER_6_633
*2336 FILLER_6_641
*2337 FILLER_6_643
*2338 FILLER_6_645
*2339 FILLER_6_649
*2340 FILLER_6_65
*2341 FILLER_6_661
*2342 FILLER_6_671
*2343 FILLER_6_681
*2344 FILLER_6_693
*2345 FILLER_6_697
*2346 FILLER_6_699
*2347 FILLER_6_709
*2348 FILLER_6_719
*2349 FILLER_6_723
*2350 FILLER_6_725
*2351 FILLER_6_734
*2352 FILLER_6_738
*2353 FILLER_6_740
*2354 FILLER_6_749
*2355 FILLER_6_753
*2356 FILLER_6_755
*2357 FILLER_6_757
*2358 FILLER_6_769
*2359 FILLER_6_77
*2360 FILLER_6_781
*2361 FILLER_6_793
*2362 FILLER_6_81
*2363 FILLER_6_83
*2364 FILLER_6_85
*2365 FILLER_6_97
*2366 FILLER_70_711
*2367 FILLER_70_723
*2368 FILLER_70_727
*2369 FILLER_70_729
*2370 FILLER_70_741
*2371 FILLER_70_753
*2372 FILLER_70_765
*2373 FILLER_70_777
*2374 FILLER_70_781
*2375 FILLER_70_783
*2376 FILLER_70_785
*2377 FILLER_70_797
*2378 FILLER_71_703
*2379 FILLER_71_715
*2380 FILLER_71_727
*2381 FILLER_71_739
*2382 FILLER_71_751
*2383 FILLER_71_755
*2384 FILLER_71_757
*2385 FILLER_71_769
*2386 FILLER_71_781
*2387 FILLER_71_793
*2388 FILLER_72_703
*2389 FILLER_72_719
*2390 FILLER_72_727
*2391 FILLER_72_729
*2392 FILLER_72_741
*2393 FILLER_72_753
*2394 FILLER_72_765
*2395 FILLER_72_777
*2396 FILLER_72_781
*2397 FILLER_72_783
*2398 FILLER_72_785
*2399 FILLER_72_797
*2400 FILLER_73_703
*2401 FILLER_73_715
*2402 FILLER_73_727
*2403 FILLER_73_739
*2404 FILLER_73_751
*2405 FILLER_73_755
*2406 FILLER_73_757
*2407 FILLER_73_769
*2408 FILLER_73_781
*2409 FILLER_73_793
*2410 FILLER_74_703
*2411 FILLER_74_711
*2412 FILLER_74_713
*2413 FILLER_74_722
*2414 FILLER_74_726
*2415 FILLER_74_729
*2416 FILLER_74_741
*2417 FILLER_74_753
*2418 FILLER_74_765
*2419 FILLER_74_777
*2420 FILLER_74_781
*2421 FILLER_74_783
*2422 FILLER_74_785
*2423 FILLER_74_797
*2424 FILLER_75_703
*2425 FILLER_75_715
*2426 FILLER_75_727
*2427 FILLER_75_739
*2428 FILLER_75_751
*2429 FILLER_75_755
*2430 FILLER_75_757
*2431 FILLER_75_769
*2432 FILLER_75_781
*2433 FILLER_75_793
*2434 FILLER_76_706
*2435 FILLER_76_718
*2436 FILLER_76_726
*2437 FILLER_76_737
*2438 FILLER_76_749
*2439 FILLER_76_761
*2440 FILLER_76_773
*2441 FILLER_76_781
*2442 FILLER_76_783
*2443 FILLER_76_785
*2444 FILLER_76_797
*2445 FILLER_77_703
*2446 FILLER_77_715
*2447 FILLER_77_727
*2448 FILLER_77_739
*2449 FILLER_77_751
*2450 FILLER_77_755
*2451 FILLER_77_757
*2452 FILLER_77_769
*2453 FILLER_77_781
*2454 FILLER_77_793
*2455 FILLER_78_706
*2456 FILLER_78_718
*2457 FILLER_78_726
*2458 FILLER_78_729
*2459 FILLER_78_741
*2460 FILLER_78_753
*2461 FILLER_78_765
*2462 FILLER_78_777
*2463 FILLER_78_781
*2464 FILLER_78_783
*2465 FILLER_78_785
*2466 FILLER_78_797
*2467 FILLER_79_703
*2468 FILLER_79_715
*2469 FILLER_79_727
*2470 FILLER_79_739
*2471 FILLER_79_751
*2472 FILLER_79_755
*2473 FILLER_79_757
*2474 FILLER_79_769
*2475 FILLER_79_781
*2476 FILLER_79_793
*2477 FILLER_7_105
*2478 FILLER_7_109
*2479 FILLER_7_111
*2480 FILLER_7_113
*2481 FILLER_7_125
*2482 FILLER_7_137
*2483 FILLER_7_149
*2484 FILLER_7_15
*2485 FILLER_7_161
*2486 FILLER_7_165
*2487 FILLER_7_167
*2488 FILLER_7_169
*2489 FILLER_7_181
*2490 FILLER_7_193
*2491 FILLER_7_205
*2492 FILLER_7_217
*2493 FILLER_7_221
*2494 FILLER_7_223
*2495 FILLER_7_225
*2496 FILLER_7_237
*2497 FILLER_7_249
*2498 FILLER_7_261
*2499 FILLER_7_27
*2500 FILLER_7_273
*2501 FILLER_7_277
*2502 FILLER_7_279
*2503 FILLER_7_281
*2504 FILLER_7_293
*2505 FILLER_7_3
*2506 FILLER_7_305
*2507 FILLER_7_309
*2508 FILLER_7_312
*2509 FILLER_7_324
*2510 FILLER_7_327
*2511 FILLER_7_343
*2512 FILLER_7_355
*2513 FILLER_7_363
*2514 FILLER_7_367
*2515 FILLER_7_379
*2516 FILLER_7_39
*2517 FILLER_7_391
*2518 FILLER_7_393
*2519 FILLER_7_405
*2520 FILLER_7_417
*2521 FILLER_7_429
*2522 FILLER_7_441
*2523 FILLER_7_445
*2524 FILLER_7_447
*2525 FILLER_7_449
*2526 FILLER_7_461
*2527 FILLER_7_473
*2528 FILLER_7_51
*2529 FILLER_7_523
*2530 FILLER_7_535
*2531 FILLER_7_537
*2532 FILLER_7_546
*2533 FILLER_7_55
*2534 FILLER_7_558
*2535 FILLER_7_561
*2536 FILLER_7_57
*2537 FILLER_7_573
*2538 FILLER_7_577
*2539 FILLER_7_587
*2540 FILLER_7_599
*2541 FILLER_7_611
*2542 FILLER_7_615
*2543 FILLER_7_619
*2544 FILLER_7_633
*2545 FILLER_7_645
*2546 FILLER_7_649
*2547 FILLER_7_661
*2548 FILLER_7_665
*2549 FILLER_7_669
*2550 FILLER_7_671
*2551 FILLER_7_673
*2552 FILLER_7_677
*2553 FILLER_7_681
*2554 FILLER_7_69
*2555 FILLER_7_693
*2556 FILLER_7_705
*2557 FILLER_7_709
*2558 FILLER_7_713
*2559 FILLER_7_725
*2560 FILLER_7_727
*2561 FILLER_7_729
*2562 FILLER_7_741
*2563 FILLER_7_753
*2564 FILLER_7_765
*2565 FILLER_7_777
*2566 FILLER_7_781
*2567 FILLER_7_783
*2568 FILLER_7_785
*2569 FILLER_7_797
*2570 FILLER_7_81
*2571 FILLER_7_93
*2572 FILLER_80_703
*2573 FILLER_80_715
*2574 FILLER_80_727
*2575 FILLER_80_729
*2576 FILLER_80_741
*2577 FILLER_80_753
*2578 FILLER_80_765
*2579 FILLER_80_777
*2580 FILLER_80_781
*2581 FILLER_80_783
*2582 FILLER_80_785
*2583 FILLER_80_797
*2584 FILLER_81_703
*2585 FILLER_81_715
*2586 FILLER_81_727
*2587 FILLER_81_739
*2588 FILLER_81_751
*2589 FILLER_81_755
*2590 FILLER_81_757
*2591 FILLER_81_769
*2592 FILLER_81_781
*2593 FILLER_81_793
*2594 FILLER_82_703
*2595 FILLER_82_715
*2596 FILLER_82_727
*2597 FILLER_82_729
*2598 FILLER_82_741
*2599 FILLER_82_753
*2600 FILLER_82_765
*2601 FILLER_82_777
*2602 FILLER_82_781
*2603 FILLER_82_783
*2604 FILLER_82_785
*2605 FILLER_82_797
*2606 FILLER_83_703
*2607 FILLER_83_715
*2608 FILLER_83_727
*2609 FILLER_83_739
*2610 FILLER_83_751
*2611 FILLER_83_755
*2612 FILLER_83_757
*2613 FILLER_83_769
*2614 FILLER_83_781
*2615 FILLER_83_793
*2616 FILLER_84_709
*2617 FILLER_84_721
*2618 FILLER_84_725
*2619 FILLER_84_727
*2620 FILLER_84_729
*2621 FILLER_84_741
*2622 FILLER_84_753
*2623 FILLER_84_765
*2624 FILLER_84_777
*2625 FILLER_84_781
*2626 FILLER_84_783
*2627 FILLER_84_785
*2628 FILLER_84_797
*2629 FILLER_85_703
*2630 FILLER_85_715
*2631 FILLER_85_727
*2632 FILLER_85_739
*2633 FILLER_85_751
*2634 FILLER_85_755
*2635 FILLER_85_757
*2636 FILLER_85_769
*2637 FILLER_85_781
*2638 FILLER_85_793
*2639 FILLER_86_703
*2640 FILLER_86_715
*2641 FILLER_86_727
*2642 FILLER_86_729
*2643 FILLER_86_741
*2644 FILLER_86_753
*2645 FILLER_86_765
*2646 FILLER_86_777
*2647 FILLER_86_781
*2648 FILLER_86_783
*2649 FILLER_86_785
*2650 FILLER_86_797
*2651 FILLER_87_703
*2652 FILLER_87_715
*2653 FILLER_87_727
*2654 FILLER_87_739
*2655 FILLER_87_751
*2656 FILLER_87_755
*2657 FILLER_87_757
*2658 FILLER_87_769
*2659 FILLER_87_781
*2660 FILLER_87_793
*2661 FILLER_88_706
*2662 FILLER_88_718
*2663 FILLER_88_726
*2664 FILLER_88_729
*2665 FILLER_88_741
*2666 FILLER_88_753
*2667 FILLER_88_765
*2668 FILLER_88_777
*2669 FILLER_88_781
*2670 FILLER_88_783
*2671 FILLER_88_785
*2672 FILLER_88_797
*2673 FILLER_89_706
*2674 FILLER_89_718
*2675 FILLER_89_730
*2676 FILLER_89_742
*2677 FILLER_89_754
*2678 FILLER_89_757
*2679 FILLER_89_769
*2680 FILLER_89_781
*2681 FILLER_89_793
*2682 FILLER_8_109
*2683 FILLER_8_111
*2684 FILLER_8_113
*2685 FILLER_8_125
*2686 FILLER_8_137
*2687 FILLER_8_139
*2688 FILLER_8_141
*2689 FILLER_8_15
*2690 FILLER_8_153
*2691 FILLER_8_165
*2692 FILLER_8_167
*2693 FILLER_8_169
*2694 FILLER_8_181
*2695 FILLER_8_193
*2696 FILLER_8_195
*2697 FILLER_8_197
*2698 FILLER_8_209
*2699 FILLER_8_221
*2700 FILLER_8_223
*2701 FILLER_8_225
*2702 FILLER_8_237
*2703 FILLER_8_249
*2704 FILLER_8_251
*2705 FILLER_8_253
*2706 FILLER_8_265
*2707 FILLER_8_27
*2708 FILLER_8_277
*2709 FILLER_8_279
*2710 FILLER_8_281
*2711 FILLER_8_29
*2712 FILLER_8_293
*2713 FILLER_8_3
*2714 FILLER_8_305
*2715 FILLER_8_307
*2716 FILLER_8_309
*2717 FILLER_8_321
*2718 FILLER_8_333
*2719 FILLER_8_335
*2720 FILLER_8_337
*2721 FILLER_8_349
*2722 FILLER_8_361
*2723 FILLER_8_363
*2724 FILLER_8_365
*2725 FILLER_8_377
*2726 FILLER_8_389
*2727 FILLER_8_391
*2728 FILLER_8_393
*2729 FILLER_8_405
*2730 FILLER_8_41
*2731 FILLER_8_417
*2732 FILLER_8_419
*2733 FILLER_8_421
*2734 FILLER_8_433
*2735 FILLER_8_445
*2736 FILLER_8_447
*2737 FILLER_8_449
*2738 FILLER_8_457
*2739 FILLER_8_465
*2740 FILLER_8_467
*2741 FILLER_8_477
*2742 FILLER_8_479
*2743 FILLER_8_505
*2744 FILLER_8_517
*2745 FILLER_8_529
*2746 FILLER_8_53
*2747 FILLER_8_531
*2748 FILLER_8_55
*2749 FILLER_8_557
*2750 FILLER_8_559
*2751 FILLER_8_57
*2752 FILLER_8_587
*2753 FILLER_8_613
*2754 FILLER_8_615
*2755 FILLER_8_625
*2756 FILLER_8_629
*2757 FILLER_8_639
*2758 FILLER_8_643
*2759 FILLER_8_645
*2760 FILLER_8_655
*2761 FILLER_8_671
*2762 FILLER_8_673
*2763 FILLER_8_677
*2764 FILLER_8_685
*2765 FILLER_8_69
*2766 FILLER_8_697
*2767 FILLER_8_699
*2768 FILLER_8_701
*2769 FILLER_8_709
*2770 FILLER_8_713
*2771 FILLER_8_725
*2772 FILLER_8_727
*2773 FILLER_8_729
*2774 FILLER_8_741
*2775 FILLER_8_753
*2776 FILLER_8_755
*2777 FILLER_8_757
*2778 FILLER_8_769
*2779 FILLER_8_781
*2780 FILLER_8_783
*2781 FILLER_8_785
*2782 FILLER_8_797
*2783 FILLER_8_81
*2784 FILLER_8_83
*2785 FILLER_8_85
*2786 FILLER_8_97
*2787 FILLER_90_706
*2788 FILLER_90_718
*2789 FILLER_90_726
*2790 FILLER_90_729
*2791 FILLER_90_741
*2792 FILLER_90_753
*2793 FILLER_90_765
*2794 FILLER_90_777
*2795 FILLER_90_781
*2796 FILLER_90_783
*2797 FILLER_90_785
*2798 FILLER_90_797
*2799 FILLER_91_703
*2800 FILLER_91_715
*2801 FILLER_91_727
*2802 FILLER_91_739
*2803 FILLER_91_751
*2804 FILLER_91_755
*2805 FILLER_91_757
*2806 FILLER_91_769
*2807 FILLER_91_781
*2808 FILLER_91_793
*2809 FILLER_92_703
*2810 FILLER_92_715
*2811 FILLER_92_727
*2812 FILLER_92_729
*2813 FILLER_92_741
*2814 FILLER_92_753
*2815 FILLER_92_765
*2816 FILLER_92_777
*2817 FILLER_92_781
*2818 FILLER_92_783
*2819 FILLER_92_785
*2820 FILLER_92_797
*2821 FILLER_93_703
*2822 FILLER_93_715
*2823 FILLER_93_727
*2824 FILLER_93_739
*2825 FILLER_93_751
*2826 FILLER_93_755
*2827 FILLER_93_757
*2828 FILLER_93_769
*2829 FILLER_93_781
*2830 FILLER_93_793
*2831 FILLER_94_709
*2832 FILLER_94_721
*2833 FILLER_94_725
*2834 FILLER_94_727
*2835 FILLER_94_729
*2836 FILLER_94_741
*2837 FILLER_94_753
*2838 FILLER_94_765
*2839 FILLER_94_777
*2840 FILLER_94_781
*2841 FILLER_94_783
*2842 FILLER_94_785
*2843 FILLER_94_797
*2844 FILLER_95_703
*2845 FILLER_95_715
*2846 FILLER_95_727
*2847 FILLER_95_739
*2848 FILLER_95_751
*2849 FILLER_95_755
*2850 FILLER_95_757
*2851 FILLER_95_769
*2852 FILLER_95_781
*2853 FILLER_95_793
*2854 FILLER_96_703
*2855 FILLER_96_715
*2856 FILLER_96_727
*2857 FILLER_96_729
*2858 FILLER_96_741
*2859 FILLER_96_753
*2860 FILLER_96_765
*2861 FILLER_96_777
*2862 FILLER_96_781
*2863 FILLER_96_783
*2864 FILLER_96_785
*2865 FILLER_96_797
*2866 FILLER_97_703
*2867 FILLER_97_715
*2868 FILLER_97_727
*2869 FILLER_97_739
*2870 FILLER_97_751
*2871 FILLER_97_755
*2872 FILLER_97_757
*2873 FILLER_97_769
*2874 FILLER_97_781
*2875 FILLER_97_793
*2876 FILLER_98_703
*2877 FILLER_98_715
*2878 FILLER_98_727
*2879 FILLER_98_729
*2880 FILLER_98_741
*2881 FILLER_98_753
*2882 FILLER_98_765
*2883 FILLER_98_777
*2884 FILLER_98_781
*2885 FILLER_98_783
*2886 FILLER_98_785
*2887 FILLER_98_797
*2888 FILLER_99_703
*2889 FILLER_99_715
*2890 FILLER_99_727
*2891 FILLER_99_739
*2892 FILLER_99_751
*2893 FILLER_99_755
*2894 FILLER_99_757
*2895 FILLER_99_769
*2896 FILLER_99_781
*2897 FILLER_99_793
*2898 FILLER_9_703
*2899 FILLER_9_713
*2900 FILLER_9_725
*2901 FILLER_9_737
*2902 FILLER_9_749
*2903 FILLER_9_753
*2904 FILLER_9_755
*2905 FILLER_9_757
*2906 FILLER_9_769
*2907 FILLER_9_781
*2908 FILLER_9_793
*2909 PHY_EDGE_ROW_0_Left_0
*2910 PHY_EDGE_ROW_0_Right_9
*2911 PHY_EDGE_ROW_100_2_Left_255
*2912 PHY_EDGE_ROW_100_2_Right_108
*2913 PHY_EDGE_ROW_101_2_Left_256
*2914 PHY_EDGE_ROW_101_2_Right_109
*2915 PHY_EDGE_ROW_102_2_Left_257
*2916 PHY_EDGE_ROW_102_2_Right_110
*2917 PHY_EDGE_ROW_103_2_Left_258
*2918 PHY_EDGE_ROW_103_2_Right_111
*2919 PHY_EDGE_ROW_104_2_Left_259
*2920 PHY_EDGE_ROW_104_2_Right_112
*2921 PHY_EDGE_ROW_105_2_Left_260
*2922 PHY_EDGE_ROW_105_2_Right_113
*2923 PHY_EDGE_ROW_106_2_Left_261
*2924 PHY_EDGE_ROW_106_2_Right_114
*2925 PHY_EDGE_ROW_107_2_Left_262
*2926 PHY_EDGE_ROW_107_2_Right_115
*2927 PHY_EDGE_ROW_108_2_Left_263
*2928 PHY_EDGE_ROW_108_2_Right_116
*2929 PHY_EDGE_ROW_109_2_Left_264
*2930 PHY_EDGE_ROW_109_2_Right_117
*2931 PHY_EDGE_ROW_10_2_Left_165
*2932 PHY_EDGE_ROW_10_2_Right_18
*2933 PHY_EDGE_ROW_110_2_Left_265
*2934 PHY_EDGE_ROW_110_2_Right_118
*2935 PHY_EDGE_ROW_111_2_Left_266
*2936 PHY_EDGE_ROW_111_2_Right_119
*2937 PHY_EDGE_ROW_112_2_Left_267
*2938 PHY_EDGE_ROW_112_2_Right_120
*2939 PHY_EDGE_ROW_113_2_Left_268
*2940 PHY_EDGE_ROW_113_2_Right_121
*2941 PHY_EDGE_ROW_114_2_Left_269
*2942 PHY_EDGE_ROW_114_2_Right_122
*2943 PHY_EDGE_ROW_115_2_Left_270
*2944 PHY_EDGE_ROW_115_2_Right_123
*2945 PHY_EDGE_ROW_116_2_Left_271
*2946 PHY_EDGE_ROW_116_2_Right_124
*2947 PHY_EDGE_ROW_117_2_Left_272
*2948 PHY_EDGE_ROW_117_2_Right_125
*2949 PHY_EDGE_ROW_118_2_Left_273
*2950 PHY_EDGE_ROW_118_2_Right_126
*2951 PHY_EDGE_ROW_119_2_Left_274
*2952 PHY_EDGE_ROW_119_2_Right_127
*2953 PHY_EDGE_ROW_11_2_Left_166
*2954 PHY_EDGE_ROW_11_2_Right_19
*2955 PHY_EDGE_ROW_120_2_Left_275
*2956 PHY_EDGE_ROW_120_2_Right_128
*2957 PHY_EDGE_ROW_121_2_Left_276
*2958 PHY_EDGE_ROW_121_2_Right_129
*2959 PHY_EDGE_ROW_122_2_Left_277
*2960 PHY_EDGE_ROW_122_2_Right_130
*2961 PHY_EDGE_ROW_123_2_Left_278
*2962 PHY_EDGE_ROW_123_2_Right_131
*2963 PHY_EDGE_ROW_124_2_Left_279
*2964 PHY_EDGE_ROW_124_2_Right_132
*2965 PHY_EDGE_ROW_125_2_Left_280
*2966 PHY_EDGE_ROW_125_2_Right_133
*2967 PHY_EDGE_ROW_126_2_Left_281
*2968 PHY_EDGE_ROW_126_2_Right_134
*2969 PHY_EDGE_ROW_127_2_Left_282
*2970 PHY_EDGE_ROW_127_2_Right_135
*2971 PHY_EDGE_ROW_128_2_Left_283
*2972 PHY_EDGE_ROW_128_2_Right_136
*2973 PHY_EDGE_ROW_129_2_Left_284
*2974 PHY_EDGE_ROW_129_2_Right_137
*2975 PHY_EDGE_ROW_12_2_Left_167
*2976 PHY_EDGE_ROW_12_2_Right_20
*2977 PHY_EDGE_ROW_130_2_Left_285
*2978 PHY_EDGE_ROW_130_2_Right_138
*2979 PHY_EDGE_ROW_131_2_Left_286
*2980 PHY_EDGE_ROW_131_2_Right_139
*2981 PHY_EDGE_ROW_132_2_Left_287
*2982 PHY_EDGE_ROW_132_2_Right_140
*2983 PHY_EDGE_ROW_133_2_Left_288
*2984 PHY_EDGE_ROW_133_2_Right_141
*2985 PHY_EDGE_ROW_134_2_Left_289
*2986 PHY_EDGE_ROW_134_2_Right_142
*2987 PHY_EDGE_ROW_135_2_Left_290
*2988 PHY_EDGE_ROW_135_2_Right_143
*2989 PHY_EDGE_ROW_136_2_Left_291
*2990 PHY_EDGE_ROW_136_2_Right_144
*2991 PHY_EDGE_ROW_137_2_Left_292
*2992 PHY_EDGE_ROW_137_2_Right_145
*2993 PHY_EDGE_ROW_138_2_Left_293
*2994 PHY_EDGE_ROW_138_2_Right_146
*2995 PHY_EDGE_ROW_139_2_Left_294
*2996 PHY_EDGE_ROW_139_2_Right_147
*2997 PHY_EDGE_ROW_13_2_Left_168
*2998 PHY_EDGE_ROW_13_2_Right_21
*2999 PHY_EDGE_ROW_140_2_Left_295
*3000 PHY_EDGE_ROW_140_2_Right_148
*3001 PHY_EDGE_ROW_141_2_Left_296
*3002 PHY_EDGE_ROW_141_2_Right_149
*3003 PHY_EDGE_ROW_142_2_Left_297
*3004 PHY_EDGE_ROW_142_2_Right_150
*3005 PHY_EDGE_ROW_143_2_Left_298
*3006 PHY_EDGE_ROW_143_2_Right_151
*3007 PHY_EDGE_ROW_144_2_Left_299
*3008 PHY_EDGE_ROW_144_2_Right_152
*3009 PHY_EDGE_ROW_145_2_Left_300
*3010 PHY_EDGE_ROW_145_2_Right_153
*3011 PHY_EDGE_ROW_146_2_Left_301
*3012 PHY_EDGE_ROW_146_2_Right_154
*3013 PHY_EDGE_ROW_147_2_Left_302
*3014 PHY_EDGE_ROW_147_2_Right_155
*3015 PHY_EDGE_ROW_148_2_Left_303
*3016 PHY_EDGE_ROW_148_2_Right_156
*3017 PHY_EDGE_ROW_149_2_Left_304
*3018 PHY_EDGE_ROW_149_2_Right_157
*3019 PHY_EDGE_ROW_14_2_Left_169
*3020 PHY_EDGE_ROW_14_2_Right_22
*3021 PHY_EDGE_ROW_150_2_Left_305
*3022 PHY_EDGE_ROW_150_2_Right_158
*3023 PHY_EDGE_ROW_151_2_Left_306
*3024 PHY_EDGE_ROW_151_2_Right_159
*3025 PHY_EDGE_ROW_152_2_Left_307
*3026 PHY_EDGE_ROW_152_2_Right_160
*3027 PHY_EDGE_ROW_153_2_Left_308
*3028 PHY_EDGE_ROW_153_2_Right_161
*3029 PHY_EDGE_ROW_154_2_Left_309
*3030 PHY_EDGE_ROW_154_2_Right_162
*3031 PHY_EDGE_ROW_155_2_Left_310
*3032 PHY_EDGE_ROW_155_2_Right_163
*3033 PHY_EDGE_ROW_15_2_Left_170
*3034 PHY_EDGE_ROW_15_2_Right_23
*3035 PHY_EDGE_ROW_16_2_Left_171
*3036 PHY_EDGE_ROW_16_2_Right_24
*3037 PHY_EDGE_ROW_17_2_Left_172
*3038 PHY_EDGE_ROW_17_2_Right_25
*3039 PHY_EDGE_ROW_18_2_Left_173
*3040 PHY_EDGE_ROW_18_2_Right_26
*3041 PHY_EDGE_ROW_19_2_Left_174
*3042 PHY_EDGE_ROW_19_2_Right_27
*3043 PHY_EDGE_ROW_1_Left_1
*3044 PHY_EDGE_ROW_1_Right_10
*3045 PHY_EDGE_ROW_20_2_Left_175
*3046 PHY_EDGE_ROW_20_2_Right_28
*3047 PHY_EDGE_ROW_21_2_Left_176
*3048 PHY_EDGE_ROW_21_2_Right_29
*3049 PHY_EDGE_ROW_22_2_Left_177
*3050 PHY_EDGE_ROW_22_2_Right_30
*3051 PHY_EDGE_ROW_23_2_Left_178
*3052 PHY_EDGE_ROW_23_2_Right_31
*3053 PHY_EDGE_ROW_24_2_Left_179
*3054 PHY_EDGE_ROW_24_2_Right_32
*3055 PHY_EDGE_ROW_25_2_Left_180
*3056 PHY_EDGE_ROW_25_2_Right_33
*3057 PHY_EDGE_ROW_26_2_Left_181
*3058 PHY_EDGE_ROW_26_2_Right_34
*3059 PHY_EDGE_ROW_27_2_Left_182
*3060 PHY_EDGE_ROW_27_2_Right_35
*3061 PHY_EDGE_ROW_28_2_Left_183
*3062 PHY_EDGE_ROW_28_2_Right_36
*3063 PHY_EDGE_ROW_29_2_Left_184
*3064 PHY_EDGE_ROW_29_2_Right_37
*3065 PHY_EDGE_ROW_2_Left_2
*3066 PHY_EDGE_ROW_2_Right_11
*3067 PHY_EDGE_ROW_30_2_Left_185
*3068 PHY_EDGE_ROW_30_2_Right_38
*3069 PHY_EDGE_ROW_31_2_Left_186
*3070 PHY_EDGE_ROW_31_2_Right_39
*3071 PHY_EDGE_ROW_32_2_Left_187
*3072 PHY_EDGE_ROW_32_2_Right_40
*3073 PHY_EDGE_ROW_33_2_Left_188
*3074 PHY_EDGE_ROW_33_2_Right_41
*3075 PHY_EDGE_ROW_34_2_Left_189
*3076 PHY_EDGE_ROW_34_2_Right_42
*3077 PHY_EDGE_ROW_35_2_Left_190
*3078 PHY_EDGE_ROW_35_2_Right_43
*3079 PHY_EDGE_ROW_36_2_Left_191
*3080 PHY_EDGE_ROW_36_2_Right_44
*3081 PHY_EDGE_ROW_37_2_Left_192
*3082 PHY_EDGE_ROW_37_2_Right_45
*3083 PHY_EDGE_ROW_38_2_Left_193
*3084 PHY_EDGE_ROW_38_2_Right_46
*3085 PHY_EDGE_ROW_39_2_Left_194
*3086 PHY_EDGE_ROW_39_2_Right_47
*3087 PHY_EDGE_ROW_3_Left_3
*3088 PHY_EDGE_ROW_3_Right_12
*3089 PHY_EDGE_ROW_40_2_Left_195
*3090 PHY_EDGE_ROW_40_2_Right_48
*3091 PHY_EDGE_ROW_41_2_Left_196
*3092 PHY_EDGE_ROW_41_2_Right_49
*3093 PHY_EDGE_ROW_42_2_Left_197
*3094 PHY_EDGE_ROW_42_2_Right_50
*3095 PHY_EDGE_ROW_43_2_Left_198
*3096 PHY_EDGE_ROW_43_2_Right_51
*3097 PHY_EDGE_ROW_44_2_Left_199
*3098 PHY_EDGE_ROW_44_2_Right_52
*3099 PHY_EDGE_ROW_45_2_Left_200
*3100 PHY_EDGE_ROW_45_2_Right_53
*3101 PHY_EDGE_ROW_46_2_Left_201
*3102 PHY_EDGE_ROW_46_2_Right_54
*3103 PHY_EDGE_ROW_47_2_Left_202
*3104 PHY_EDGE_ROW_47_2_Right_55
*3105 PHY_EDGE_ROW_48_2_Left_203
*3106 PHY_EDGE_ROW_48_2_Right_56
*3107 PHY_EDGE_ROW_49_2_Left_204
*3108 PHY_EDGE_ROW_49_2_Right_57
*3109 PHY_EDGE_ROW_4_Left_4
*3110 PHY_EDGE_ROW_4_Right_13
*3111 PHY_EDGE_ROW_50_2_Left_205
*3112 PHY_EDGE_ROW_50_2_Right_58
*3113 PHY_EDGE_ROW_51_2_Left_206
*3114 PHY_EDGE_ROW_51_2_Right_59
*3115 PHY_EDGE_ROW_52_2_Left_207
*3116 PHY_EDGE_ROW_52_2_Right_60
*3117 PHY_EDGE_ROW_53_2_Left_208
*3118 PHY_EDGE_ROW_53_2_Right_61
*3119 PHY_EDGE_ROW_54_2_Left_209
*3120 PHY_EDGE_ROW_54_2_Right_62
*3121 PHY_EDGE_ROW_55_2_Left_210
*3122 PHY_EDGE_ROW_55_2_Right_63
*3123 PHY_EDGE_ROW_56_2_Left_211
*3124 PHY_EDGE_ROW_56_2_Right_64
*3125 PHY_EDGE_ROW_57_2_Left_212
*3126 PHY_EDGE_ROW_57_2_Right_65
*3127 PHY_EDGE_ROW_58_2_Left_213
*3128 PHY_EDGE_ROW_58_2_Right_66
*3129 PHY_EDGE_ROW_59_2_Left_214
*3130 PHY_EDGE_ROW_59_2_Right_67
*3131 PHY_EDGE_ROW_5_Left_5
*3132 PHY_EDGE_ROW_5_Right_14
*3133 PHY_EDGE_ROW_60_2_Left_215
*3134 PHY_EDGE_ROW_60_2_Right_68
*3135 PHY_EDGE_ROW_61_2_Left_216
*3136 PHY_EDGE_ROW_61_2_Right_69
*3137 PHY_EDGE_ROW_62_2_Left_217
*3138 PHY_EDGE_ROW_62_2_Right_70
*3139 PHY_EDGE_ROW_63_2_Left_218
*3140 PHY_EDGE_ROW_63_2_Right_71
*3141 PHY_EDGE_ROW_64_2_Left_219
*3142 PHY_EDGE_ROW_64_2_Right_72
*3143 PHY_EDGE_ROW_65_2_Left_220
*3144 PHY_EDGE_ROW_65_2_Right_73
*3145 PHY_EDGE_ROW_66_2_Left_221
*3146 PHY_EDGE_ROW_66_2_Right_74
*3147 PHY_EDGE_ROW_67_2_Left_222
*3148 PHY_EDGE_ROW_67_2_Right_75
*3149 PHY_EDGE_ROW_68_2_Left_223
*3150 PHY_EDGE_ROW_68_2_Right_76
*3151 PHY_EDGE_ROW_69_2_Left_224
*3152 PHY_EDGE_ROW_69_2_Right_77
*3153 PHY_EDGE_ROW_6_Left_6
*3154 PHY_EDGE_ROW_6_Right_15
*3155 PHY_EDGE_ROW_70_2_Left_225
*3156 PHY_EDGE_ROW_70_2_Right_78
*3157 PHY_EDGE_ROW_71_2_Left_226
*3158 PHY_EDGE_ROW_71_2_Right_79
*3159 PHY_EDGE_ROW_72_2_Left_227
*3160 PHY_EDGE_ROW_72_2_Right_80
*3161 PHY_EDGE_ROW_73_2_Left_228
*3162 PHY_EDGE_ROW_73_2_Right_81
*3163 PHY_EDGE_ROW_74_2_Left_229
*3164 PHY_EDGE_ROW_74_2_Right_82
*3165 PHY_EDGE_ROW_75_2_Left_230
*3166 PHY_EDGE_ROW_75_2_Right_83
*3167 PHY_EDGE_ROW_76_2_Left_231
*3168 PHY_EDGE_ROW_76_2_Right_84
*3169 PHY_EDGE_ROW_77_2_Left_232
*3170 PHY_EDGE_ROW_77_2_Right_85
*3171 PHY_EDGE_ROW_78_2_Left_233
*3172 PHY_EDGE_ROW_78_2_Right_86
*3173 PHY_EDGE_ROW_79_2_Left_234
*3174 PHY_EDGE_ROW_79_2_Right_87
*3175 PHY_EDGE_ROW_7_Left_7
*3176 PHY_EDGE_ROW_7_Right_16
*3177 PHY_EDGE_ROW_80_2_Left_235
*3178 PHY_EDGE_ROW_80_2_Right_88
*3179 PHY_EDGE_ROW_81_2_Left_236
*3180 PHY_EDGE_ROW_81_2_Right_89
*3181 PHY_EDGE_ROW_82_2_Left_237
*3182 PHY_EDGE_ROW_82_2_Right_90
*3183 PHY_EDGE_ROW_83_2_Left_238
*3184 PHY_EDGE_ROW_83_2_Right_91
*3185 PHY_EDGE_ROW_84_2_Left_239
*3186 PHY_EDGE_ROW_84_2_Right_92
*3187 PHY_EDGE_ROW_85_2_Left_240
*3188 PHY_EDGE_ROW_85_2_Right_93
*3189 PHY_EDGE_ROW_86_2_Left_241
*3190 PHY_EDGE_ROW_86_2_Right_94
*3191 PHY_EDGE_ROW_87_2_Left_242
*3192 PHY_EDGE_ROW_87_2_Right_95
*3193 PHY_EDGE_ROW_88_2_Left_243
*3194 PHY_EDGE_ROW_88_2_Right_96
*3195 PHY_EDGE_ROW_89_2_Left_244
*3196 PHY_EDGE_ROW_89_2_Right_97
*3197 PHY_EDGE_ROW_8_Left_8
*3198 PHY_EDGE_ROW_8_Right_17
*3199 PHY_EDGE_ROW_90_2_Left_245
*3200 PHY_EDGE_ROW_90_2_Right_98
*3201 PHY_EDGE_ROW_91_2_Left_246
*3202 PHY_EDGE_ROW_91_2_Right_99
*3203 PHY_EDGE_ROW_92_2_Left_247
*3204 PHY_EDGE_ROW_92_2_Right_100
*3205 PHY_EDGE_ROW_93_2_Left_248
*3206 PHY_EDGE_ROW_93_2_Right_101
*3207 PHY_EDGE_ROW_94_2_Left_249
*3208 PHY_EDGE_ROW_94_2_Right_102
*3209 PHY_EDGE_ROW_95_2_Left_250
*3210 PHY_EDGE_ROW_95_2_Right_103
*3211 PHY_EDGE_ROW_96_2_Left_251
*3212 PHY_EDGE_ROW_96_2_Right_104
*3213 PHY_EDGE_ROW_97_2_Left_252
*3214 PHY_EDGE_ROW_97_2_Right_105
*3215 PHY_EDGE_ROW_98_2_Left_253
*3216 PHY_EDGE_ROW_98_2_Right_106
*3217 PHY_EDGE_ROW_99_2_Left_254
*3218 PHY_EDGE_ROW_99_2_Right_107
*3219 PHY_EDGE_ROW_9_2_Left_311
*3220 PHY_EDGE_ROW_9_2_Right_164
*3221 TAP_TAPCELL_ROW_0_312
*3222 TAP_TAPCELL_ROW_0_313
*3223 TAP_TAPCELL_ROW_0_314
*3224 TAP_TAPCELL_ROW_0_315
*3225 TAP_TAPCELL_ROW_0_316
*3226 TAP_TAPCELL_ROW_0_317
*3227 TAP_TAPCELL_ROW_0_318
*3228 TAP_TAPCELL_ROW_0_319
*3229 TAP_TAPCELL_ROW_0_320
*3230 TAP_TAPCELL_ROW_0_321
*3231 TAP_TAPCELL_ROW_0_322
*3232 TAP_TAPCELL_ROW_0_323
*3233 TAP_TAPCELL_ROW_0_324
*3234 TAP_TAPCELL_ROW_0_325
*3235 TAP_TAPCELL_ROW_0_326
*3236 TAP_TAPCELL_ROW_0_327
*3237 TAP_TAPCELL_ROW_0_328
*3238 TAP_TAPCELL_ROW_0_329
*3239 TAP_TAPCELL_ROW_0_330
*3240 TAP_TAPCELL_ROW_0_331
*3241 TAP_TAPCELL_ROW_0_332
*3242 TAP_TAPCELL_ROW_0_333
*3243 TAP_TAPCELL_ROW_0_334
*3244 TAP_TAPCELL_ROW_0_335
*3245 TAP_TAPCELL_ROW_0_336
*3246 TAP_TAPCELL_ROW_0_337
*3247 TAP_TAPCELL_ROW_0_338
*3248 TAP_TAPCELL_ROW_0_339
*3249 TAP_TAPCELL_ROW_100_2_601
*3250 TAP_TAPCELL_ROW_100_2_602
*3251 TAP_TAPCELL_ROW_101_2_603
*3252 TAP_TAPCELL_ROW_102_2_604
*3253 TAP_TAPCELL_ROW_102_2_605
*3254 TAP_TAPCELL_ROW_103_2_606
*3255 TAP_TAPCELL_ROW_104_2_607
*3256 TAP_TAPCELL_ROW_104_2_608
*3257 TAP_TAPCELL_ROW_105_2_609
*3258 TAP_TAPCELL_ROW_106_2_610
*3259 TAP_TAPCELL_ROW_106_2_611
*3260 TAP_TAPCELL_ROW_107_2_612
*3261 TAP_TAPCELL_ROW_108_2_613
*3262 TAP_TAPCELL_ROW_108_2_614
*3263 TAP_TAPCELL_ROW_109_2_615
*3264 TAP_TAPCELL_ROW_10_2_466
*3265 TAP_TAPCELL_ROW_10_2_467
*3266 TAP_TAPCELL_ROW_110_2_616
*3267 TAP_TAPCELL_ROW_110_2_617
*3268 TAP_TAPCELL_ROW_111_2_618
*3269 TAP_TAPCELL_ROW_112_2_619
*3270 TAP_TAPCELL_ROW_112_2_620
*3271 TAP_TAPCELL_ROW_113_2_621
*3272 TAP_TAPCELL_ROW_114_2_622
*3273 TAP_TAPCELL_ROW_114_2_623
*3274 TAP_TAPCELL_ROW_115_2_624
*3275 TAP_TAPCELL_ROW_116_2_625
*3276 TAP_TAPCELL_ROW_116_2_626
*3277 TAP_TAPCELL_ROW_117_2_627
*3278 TAP_TAPCELL_ROW_118_2_628
*3279 TAP_TAPCELL_ROW_118_2_629
*3280 TAP_TAPCELL_ROW_119_2_630
*3281 TAP_TAPCELL_ROW_11_2_468
*3282 TAP_TAPCELL_ROW_120_2_631
*3283 TAP_TAPCELL_ROW_120_2_632
*3284 TAP_TAPCELL_ROW_121_2_633
*3285 TAP_TAPCELL_ROW_122_2_634
*3286 TAP_TAPCELL_ROW_122_2_635
*3287 TAP_TAPCELL_ROW_123_2_636
*3288 TAP_TAPCELL_ROW_124_2_637
*3289 TAP_TAPCELL_ROW_124_2_638
*3290 TAP_TAPCELL_ROW_125_2_639
*3291 TAP_TAPCELL_ROW_126_2_640
*3292 TAP_TAPCELL_ROW_126_2_641
*3293 TAP_TAPCELL_ROW_127_2_642
*3294 TAP_TAPCELL_ROW_128_2_643
*3295 TAP_TAPCELL_ROW_128_2_644
*3296 TAP_TAPCELL_ROW_129_2_645
*3297 TAP_TAPCELL_ROW_12_2_469
*3298 TAP_TAPCELL_ROW_12_2_470
*3299 TAP_TAPCELL_ROW_130_2_646
*3300 TAP_TAPCELL_ROW_130_2_647
*3301 TAP_TAPCELL_ROW_131_2_648
*3302 TAP_TAPCELL_ROW_132_2_649
*3303 TAP_TAPCELL_ROW_132_2_650
*3304 TAP_TAPCELL_ROW_133_2_651
*3305 TAP_TAPCELL_ROW_134_2_652
*3306 TAP_TAPCELL_ROW_134_2_653
*3307 TAP_TAPCELL_ROW_135_2_654
*3308 TAP_TAPCELL_ROW_136_2_655
*3309 TAP_TAPCELL_ROW_136_2_656
*3310 TAP_TAPCELL_ROW_137_2_657
*3311 TAP_TAPCELL_ROW_138_2_658
*3312 TAP_TAPCELL_ROW_138_2_659
*3313 TAP_TAPCELL_ROW_139_2_660
*3314 TAP_TAPCELL_ROW_13_2_471
*3315 TAP_TAPCELL_ROW_140_2_661
*3316 TAP_TAPCELL_ROW_140_2_662
*3317 TAP_TAPCELL_ROW_141_2_663
*3318 TAP_TAPCELL_ROW_142_2_664
*3319 TAP_TAPCELL_ROW_142_2_665
*3320 TAP_TAPCELL_ROW_143_2_666
*3321 TAP_TAPCELL_ROW_144_2_667
*3322 TAP_TAPCELL_ROW_144_2_668
*3323 TAP_TAPCELL_ROW_145_2_669
*3324 TAP_TAPCELL_ROW_146_2_670
*3325 TAP_TAPCELL_ROW_146_2_671
*3326 TAP_TAPCELL_ROW_147_2_672
*3327 TAP_TAPCELL_ROW_148_2_673
*3328 TAP_TAPCELL_ROW_148_2_674
*3329 TAP_TAPCELL_ROW_149_2_675
*3330 TAP_TAPCELL_ROW_14_2_472
*3331 TAP_TAPCELL_ROW_14_2_473
*3332 TAP_TAPCELL_ROW_150_2_676
*3333 TAP_TAPCELL_ROW_150_2_677
*3334 TAP_TAPCELL_ROW_151_2_678
*3335 TAP_TAPCELL_ROW_152_2_679
*3336 TAP_TAPCELL_ROW_152_2_680
*3337 TAP_TAPCELL_ROW_153_2_681
*3338 TAP_TAPCELL_ROW_154_2_682
*3339 TAP_TAPCELL_ROW_154_2_683
*3340 TAP_TAPCELL_ROW_155_2_684
*3341 TAP_TAPCELL_ROW_155_2_685
*3342 TAP_TAPCELL_ROW_155_2_686
*3343 TAP_TAPCELL_ROW_15_2_474
*3344 TAP_TAPCELL_ROW_16_2_475
*3345 TAP_TAPCELL_ROW_16_2_476
*3346 TAP_TAPCELL_ROW_17_2_477
*3347 TAP_TAPCELL_ROW_18_2_478
*3348 TAP_TAPCELL_ROW_18_2_479
*3349 TAP_TAPCELL_ROW_19_2_480
*3350 TAP_TAPCELL_ROW_1_340
*3351 TAP_TAPCELL_ROW_1_341
*3352 TAP_TAPCELL_ROW_1_342
*3353 TAP_TAPCELL_ROW_1_343
*3354 TAP_TAPCELL_ROW_1_344
*3355 TAP_TAPCELL_ROW_1_345
*3356 TAP_TAPCELL_ROW_1_346
*3357 TAP_TAPCELL_ROW_1_347
*3358 TAP_TAPCELL_ROW_1_348
*3359 TAP_TAPCELL_ROW_1_349
*3360 TAP_TAPCELL_ROW_1_350
*3361 TAP_TAPCELL_ROW_1_351
*3362 TAP_TAPCELL_ROW_1_352
*3363 TAP_TAPCELL_ROW_1_353
*3364 TAP_TAPCELL_ROW_20_2_481
*3365 TAP_TAPCELL_ROW_20_2_482
*3366 TAP_TAPCELL_ROW_21_2_483
*3367 TAP_TAPCELL_ROW_22_2_484
*3368 TAP_TAPCELL_ROW_22_2_485
*3369 TAP_TAPCELL_ROW_23_2_486
*3370 TAP_TAPCELL_ROW_24_2_487
*3371 TAP_TAPCELL_ROW_24_2_488
*3372 TAP_TAPCELL_ROW_25_2_489
*3373 TAP_TAPCELL_ROW_26_2_490
*3374 TAP_TAPCELL_ROW_26_2_491
*3375 TAP_TAPCELL_ROW_27_2_492
*3376 TAP_TAPCELL_ROW_28_2_493
*3377 TAP_TAPCELL_ROW_28_2_494
*3378 TAP_TAPCELL_ROW_29_2_495
*3379 TAP_TAPCELL_ROW_2_354
*3380 TAP_TAPCELL_ROW_2_355
*3381 TAP_TAPCELL_ROW_2_356
*3382 TAP_TAPCELL_ROW_2_357
*3383 TAP_TAPCELL_ROW_2_358
*3384 TAP_TAPCELL_ROW_2_359
*3385 TAP_TAPCELL_ROW_2_360
*3386 TAP_TAPCELL_ROW_2_361
*3387 TAP_TAPCELL_ROW_2_362
*3388 TAP_TAPCELL_ROW_2_363
*3389 TAP_TAPCELL_ROW_2_364
*3390 TAP_TAPCELL_ROW_2_365
*3391 TAP_TAPCELL_ROW_2_366
*3392 TAP_TAPCELL_ROW_2_367
*3393 TAP_TAPCELL_ROW_30_2_496
*3394 TAP_TAPCELL_ROW_30_2_497
*3395 TAP_TAPCELL_ROW_31_2_498
*3396 TAP_TAPCELL_ROW_32_2_499
*3397 TAP_TAPCELL_ROW_32_2_500
*3398 TAP_TAPCELL_ROW_33_2_501
*3399 TAP_TAPCELL_ROW_34_2_502
*3400 TAP_TAPCELL_ROW_34_2_503
*3401 TAP_TAPCELL_ROW_35_2_504
*3402 TAP_TAPCELL_ROW_36_2_505
*3403 TAP_TAPCELL_ROW_36_2_506
*3404 TAP_TAPCELL_ROW_37_2_507
*3405 TAP_TAPCELL_ROW_38_2_508
*3406 TAP_TAPCELL_ROW_38_2_509
*3407 TAP_TAPCELL_ROW_39_2_510
*3408 TAP_TAPCELL_ROW_3_368
*3409 TAP_TAPCELL_ROW_3_369
*3410 TAP_TAPCELL_ROW_3_370
*3411 TAP_TAPCELL_ROW_3_371
*3412 TAP_TAPCELL_ROW_3_372
*3413 TAP_TAPCELL_ROW_3_373
*3414 TAP_TAPCELL_ROW_3_374
*3415 TAP_TAPCELL_ROW_3_375
*3416 TAP_TAPCELL_ROW_3_376
*3417 TAP_TAPCELL_ROW_3_377
*3418 TAP_TAPCELL_ROW_3_378
*3419 TAP_TAPCELL_ROW_3_379
*3420 TAP_TAPCELL_ROW_3_380
*3421 TAP_TAPCELL_ROW_3_381
*3422 TAP_TAPCELL_ROW_40_2_511
*3423 TAP_TAPCELL_ROW_40_2_512
*3424 TAP_TAPCELL_ROW_41_2_513
*3425 TAP_TAPCELL_ROW_42_2_514
*3426 TAP_TAPCELL_ROW_42_2_515
*3427 TAP_TAPCELL_ROW_43_2_516
*3428 TAP_TAPCELL_ROW_44_2_517
*3429 TAP_TAPCELL_ROW_44_2_518
*3430 TAP_TAPCELL_ROW_45_2_519
*3431 TAP_TAPCELL_ROW_46_2_520
*3432 TAP_TAPCELL_ROW_46_2_521
*3433 TAP_TAPCELL_ROW_47_2_522
*3434 TAP_TAPCELL_ROW_48_2_523
*3435 TAP_TAPCELL_ROW_48_2_524
*3436 TAP_TAPCELL_ROW_49_2_525
*3437 TAP_TAPCELL_ROW_4_382
*3438 TAP_TAPCELL_ROW_4_383
*3439 TAP_TAPCELL_ROW_4_384
*3440 TAP_TAPCELL_ROW_4_385
*3441 TAP_TAPCELL_ROW_4_386
*3442 TAP_TAPCELL_ROW_4_387
*3443 TAP_TAPCELL_ROW_4_388
*3444 TAP_TAPCELL_ROW_4_389
*3445 TAP_TAPCELL_ROW_4_390
*3446 TAP_TAPCELL_ROW_4_391
*3447 TAP_TAPCELL_ROW_4_392
*3448 TAP_TAPCELL_ROW_4_393
*3449 TAP_TAPCELL_ROW_4_394
*3450 TAP_TAPCELL_ROW_4_395
*3451 TAP_TAPCELL_ROW_50_2_526
*3452 TAP_TAPCELL_ROW_50_2_527
*3453 TAP_TAPCELL_ROW_51_2_528
*3454 TAP_TAPCELL_ROW_52_2_529
*3455 TAP_TAPCELL_ROW_52_2_530
*3456 TAP_TAPCELL_ROW_53_2_531
*3457 TAP_TAPCELL_ROW_54_2_532
*3458 TAP_TAPCELL_ROW_54_2_533
*3459 TAP_TAPCELL_ROW_55_2_534
*3460 TAP_TAPCELL_ROW_56_2_535
*3461 TAP_TAPCELL_ROW_56_2_536
*3462 TAP_TAPCELL_ROW_57_2_537
*3463 TAP_TAPCELL_ROW_58_2_538
*3464 TAP_TAPCELL_ROW_58_2_539
*3465 TAP_TAPCELL_ROW_59_2_540
*3466 TAP_TAPCELL_ROW_5_396
*3467 TAP_TAPCELL_ROW_5_397
*3468 TAP_TAPCELL_ROW_5_398
*3469 TAP_TAPCELL_ROW_5_399
*3470 TAP_TAPCELL_ROW_5_400
*3471 TAP_TAPCELL_ROW_5_401
*3472 TAP_TAPCELL_ROW_5_402
*3473 TAP_TAPCELL_ROW_5_403
*3474 TAP_TAPCELL_ROW_5_404
*3475 TAP_TAPCELL_ROW_5_405
*3476 TAP_TAPCELL_ROW_5_406
*3477 TAP_TAPCELL_ROW_5_407
*3478 TAP_TAPCELL_ROW_5_408
*3479 TAP_TAPCELL_ROW_5_409
*3480 TAP_TAPCELL_ROW_60_2_541
*3481 TAP_TAPCELL_ROW_60_2_542
*3482 TAP_TAPCELL_ROW_61_2_543
*3483 TAP_TAPCELL_ROW_62_2_544
*3484 TAP_TAPCELL_ROW_62_2_545
*3485 TAP_TAPCELL_ROW_63_2_546
*3486 TAP_TAPCELL_ROW_64_2_547
*3487 TAP_TAPCELL_ROW_64_2_548
*3488 TAP_TAPCELL_ROW_65_2_549
*3489 TAP_TAPCELL_ROW_66_2_550
*3490 TAP_TAPCELL_ROW_66_2_551
*3491 TAP_TAPCELL_ROW_67_2_552
*3492 TAP_TAPCELL_ROW_68_2_553
*3493 TAP_TAPCELL_ROW_68_2_554
*3494 TAP_TAPCELL_ROW_69_2_555
*3495 TAP_TAPCELL_ROW_6_410
*3496 TAP_TAPCELL_ROW_6_411
*3497 TAP_TAPCELL_ROW_6_412
*3498 TAP_TAPCELL_ROW_6_413
*3499 TAP_TAPCELL_ROW_6_414
*3500 TAP_TAPCELL_ROW_6_415
*3501 TAP_TAPCELL_ROW_6_416
*3502 TAP_TAPCELL_ROW_6_417
*3503 TAP_TAPCELL_ROW_6_418
*3504 TAP_TAPCELL_ROW_6_419
*3505 TAP_TAPCELL_ROW_6_420
*3506 TAP_TAPCELL_ROW_6_421
*3507 TAP_TAPCELL_ROW_6_422
*3508 TAP_TAPCELL_ROW_6_423
*3509 TAP_TAPCELL_ROW_70_2_556
*3510 TAP_TAPCELL_ROW_70_2_557
*3511 TAP_TAPCELL_ROW_71_2_558
*3512 TAP_TAPCELL_ROW_72_2_559
*3513 TAP_TAPCELL_ROW_72_2_560
*3514 TAP_TAPCELL_ROW_73_2_561
*3515 TAP_TAPCELL_ROW_74_2_562
*3516 TAP_TAPCELL_ROW_74_2_563
*3517 TAP_TAPCELL_ROW_75_2_564
*3518 TAP_TAPCELL_ROW_76_2_565
*3519 TAP_TAPCELL_ROW_76_2_566
*3520 TAP_TAPCELL_ROW_77_2_567
*3521 TAP_TAPCELL_ROW_78_2_568
*3522 TAP_TAPCELL_ROW_78_2_569
*3523 TAP_TAPCELL_ROW_79_2_570
*3524 TAP_TAPCELL_ROW_7_424
*3525 TAP_TAPCELL_ROW_7_425
*3526 TAP_TAPCELL_ROW_7_426
*3527 TAP_TAPCELL_ROW_7_427
*3528 TAP_TAPCELL_ROW_7_428
*3529 TAP_TAPCELL_ROW_7_429
*3530 TAP_TAPCELL_ROW_7_430
*3531 TAP_TAPCELL_ROW_7_431
*3532 TAP_TAPCELL_ROW_7_432
*3533 TAP_TAPCELL_ROW_7_433
*3534 TAP_TAPCELL_ROW_7_434
*3535 TAP_TAPCELL_ROW_7_435
*3536 TAP_TAPCELL_ROW_7_436
*3537 TAP_TAPCELL_ROW_7_437
*3538 TAP_TAPCELL_ROW_80_2_571
*3539 TAP_TAPCELL_ROW_80_2_572
*3540 TAP_TAPCELL_ROW_81_2_573
*3541 TAP_TAPCELL_ROW_82_2_574
*3542 TAP_TAPCELL_ROW_82_2_575
*3543 TAP_TAPCELL_ROW_83_2_576
*3544 TAP_TAPCELL_ROW_84_2_577
*3545 TAP_TAPCELL_ROW_84_2_578
*3546 TAP_TAPCELL_ROW_85_2_579
*3547 TAP_TAPCELL_ROW_86_2_580
*3548 TAP_TAPCELL_ROW_86_2_581
*3549 TAP_TAPCELL_ROW_87_2_582
*3550 TAP_TAPCELL_ROW_88_2_583
*3551 TAP_TAPCELL_ROW_88_2_584
*3552 TAP_TAPCELL_ROW_89_2_585
*3553 TAP_TAPCELL_ROW_8_438
*3554 TAP_TAPCELL_ROW_8_439
*3555 TAP_TAPCELL_ROW_8_440
*3556 TAP_TAPCELL_ROW_8_441
*3557 TAP_TAPCELL_ROW_8_442
*3558 TAP_TAPCELL_ROW_8_443
*3559 TAP_TAPCELL_ROW_8_444
*3560 TAP_TAPCELL_ROW_8_445
*3561 TAP_TAPCELL_ROW_8_446
*3562 TAP_TAPCELL_ROW_8_447
*3563 TAP_TAPCELL_ROW_8_448
*3564 TAP_TAPCELL_ROW_8_449
*3565 TAP_TAPCELL_ROW_8_450
*3566 TAP_TAPCELL_ROW_8_451
*3567 TAP_TAPCELL_ROW_8_452
*3568 TAP_TAPCELL_ROW_8_453
*3569 TAP_TAPCELL_ROW_8_454
*3570 TAP_TAPCELL_ROW_8_455
*3571 TAP_TAPCELL_ROW_8_456
*3572 TAP_TAPCELL_ROW_8_457
*3573 TAP_TAPCELL_ROW_8_458
*3574 TAP_TAPCELL_ROW_8_459
*3575 TAP_TAPCELL_ROW_8_460
*3576 TAP_TAPCELL_ROW_8_461
*3577 TAP_TAPCELL_ROW_8_462
*3578 TAP_TAPCELL_ROW_8_463
*3579 TAP_TAPCELL_ROW_8_464
*3580 TAP_TAPCELL_ROW_8_465
*3581 TAP_TAPCELL_ROW_90_2_586
*3582 TAP_TAPCELL_ROW_90_2_587
*3583 TAP_TAPCELL_ROW_91_2_588
*3584 TAP_TAPCELL_ROW_92_2_589
*3585 TAP_TAPCELL_ROW_92_2_590
*3586 TAP_TAPCELL_ROW_93_2_591
*3587 TAP_TAPCELL_ROW_94_2_592
*3588 TAP_TAPCELL_ROW_94_2_593
*3589 TAP_TAPCELL_ROW_95_2_594
*3590 TAP_TAPCELL_ROW_96_2_595
*3591 TAP_TAPCELL_ROW_96_2_596
*3592 TAP_TAPCELL_ROW_97_2_597
*3593 TAP_TAPCELL_ROW_98_2_598
*3594 TAP_TAPCELL_ROW_98_2_599
*3595 TAP_TAPCELL_ROW_99_2_600
*3596 TAP_TAPCELL_ROW_9_2_687
*3597 _10_
*3598 _11_
*3599 _12_
*3600 _13_
*3601 _14_
*3602 _15_
*3603 _16_
*3604 _17_
*3605 _18_
*3606 _19_
*3607 _20_
*3608 _21_
*3609 _22_
*3610 _23_
*3611 _24_
*3612 _25_
*3613 _26_
*3614 _27_
*3615 _28_
*3616 _29_
*3617 _30_
*3618 _31_
*3619 _32_
*3620 _33_
*3621 _34_
*3622 _35_
*3623 _36_
*3624 _37_
*3625 _38_
*3626 _39_
*3627 _40_
*3628 _41_
*3629 _42_
*3630 _43_
*3631 _44_
*3632 _45_
*3633 clkbuf_0_wb_clk_i
*3634 clkbuf_1_0__f_wb_clk_i
*3635 clkbuf_1_1__f_wb_clk_i
*3636 clkload0
*3637 fanout84
*3638 fanout85
*3639 fanout86
*3640 fanout87
*3641 fanout88
*3642 fanout89
*3643 hold1
*3644 hold10
*3645 hold100
*3646 hold101
*3647 hold102
*3648 hold103
*3649 hold104
*3650 hold105
*3651 hold106
*3652 hold107
*3653 hold108
*3654 hold109
*3655 hold11
*3656 hold110
*3657 hold111
*3658 hold112
*3659 hold113
*3660 hold114
*3661 hold115
*3662 hold116
*3663 hold117
*3664 hold118
*3665 hold119
*3666 hold12
*3667 hold120
*3668 hold121
*3669 hold122
*3670 hold123
*3671 hold124
*3672 hold125
*3673 hold126
*3674 hold127
*3675 hold128
*3676 hold129
*3677 hold13
*3678 hold130
*3679 hold131
*3680 hold132
*3681 hold133
*3682 hold134
*3683 hold135
*3684 hold136
*3685 hold137
*3686 hold138
*3687 hold14
*3688 hold15
*3689 hold16
*3690 hold17
*3691 hold18
*3692 hold19
*3693 hold2
*3694 hold20
*3695 hold21
*3696 hold22
*3697 hold23
*3698 hold24
*3699 hold25
*3700 hold26
*3701 hold27
*3702 hold28
*3703 hold29
*3704 hold3
*3705 hold30
*3706 hold31
*3707 hold32
*3708 hold33
*3709 hold34
*3710 hold35
*3711 hold36
*3712 hold37
*3713 hold38
*3714 hold39
*3715 hold4
*3716 hold40
*3717 hold41
*3718 hold42
*3719 hold43
*3720 hold44
*3721 hold45
*3722 hold46
*3723 hold47
*3724 hold48
*3725 hold49
*3726 hold5
*3727 hold50
*3728 hold51
*3729 hold52
*3730 hold53
*3731 hold54
*3732 hold55
*3733 hold56
*3734 hold57
*3735 hold58
*3736 hold59
*3737 hold6
*3738 hold60
*3739 hold61
*3740 hold62
*3741 hold63
*3742 hold64
*3743 hold65
*3744 hold66
*3745 hold67
*3746 hold68
*3747 hold69
*3748 hold7
*3749 hold70
*3750 hold71
*3751 hold72
*3752 hold73
*3753 hold74
*3754 hold75
*3755 hold76
*3756 hold77
*3757 hold78
*3758 hold79
*3759 hold8
*3760 hold80
*3761 hold81
*3762 hold82
*3763 hold83
*3764 hold84
*3765 hold85
*3766 hold86
*3767 hold87
*3768 hold88
*3769 hold89
*3770 hold9
*3771 hold90
*3772 hold91
*3773 hold92
*3774 hold93
*3775 hold94
*3776 hold95
*3777 hold96
*3778 hold97
*3779 hold98
*3780 hold99
*3781 i_sram
*3782 i_sram_90
*3783 i_sram_91
*3784 i_sram_92
*3785 i_sram_93
*3786 i_sram_94
*3787 i_sram_95
*3788 i_sram_96
*3789 i_sram_97
*3790 i_sram_98
*3791 input1
*3792 input10
*3793 input11
*3794 input12
*3795 input13
*3796 input14
*3797 input15
*3798 input16
*3799 input17
*3800 input18
*3801 input19
*3802 input2
*3803 input20
*3804 input21
*3805 input22
*3806 input23
*3807 input24
*3808 input25
*3809 input26
*3810 input27
*3811 input28
*3812 input29
*3813 input3
*3814 input30
*3815 input31
*3816 input32
*3817 input33
*3818 input34
*3819 input35
*3820 input36
*3821 input37
*3822 input38
*3823 input39
*3824 input4
*3825 input40
*3826 input41
*3827 input42
*3828 input43
*3829 input44
*3830 input45
*3831 input46
*3832 input47
*3833 input48
*3834 input49
*3835 input5
*3836 input50
*3837 input6
*3838 input7
*3839 input8
*3840 input9
*3841 output51
*3842 output52
*3843 output53
*3844 output54
*3845 output55
*3846 output56
*3847 output57
*3848 output58
*3849 output59
*3850 output60
*3851 output61
*3852 output62
*3853 output63
*3854 output64
*3855 output65
*3856 output66
*3857 output67
*3858 output68
*3859 output69
*3860 output70
*3861 output71
*3862 output72
*3863 output73
*3864 output74
*3865 output75
*3866 output76
*3867 output77
*3868 output78
*3869 output79
*3870 output80
*3871 output81
*3872 output82
*3873 output83

*PORTS
wb_clk_i I
wb_rst_i I
wbs_ack_o O
wbs_adr_i[0] I
wbs_adr_i[10] I
wbs_adr_i[11] I
wbs_adr_i[12] I
wbs_adr_i[13] I
wbs_adr_i[14] I
wbs_adr_i[15] I
wbs_adr_i[16] I
wbs_adr_i[17] I
wbs_adr_i[18] I
wbs_adr_i[19] I
wbs_adr_i[1] I
wbs_adr_i[20] I
wbs_adr_i[21] I
wbs_adr_i[22] I
wbs_adr_i[23] I
wbs_adr_i[24] I
wbs_adr_i[25] I
wbs_adr_i[26] I
wbs_adr_i[27] I
wbs_adr_i[28] I
wbs_adr_i[29] I
wbs_adr_i[2] I
wbs_adr_i[30] I
wbs_adr_i[31] I
wbs_adr_i[3] I
wbs_adr_i[4] I
wbs_adr_i[5] I
wbs_adr_i[6] I
wbs_adr_i[7] I
wbs_adr_i[8] I
wbs_adr_i[9] I
wbs_cyc_i I
wbs_dat_i[0] I
wbs_dat_i[10] I
wbs_dat_i[11] I
wbs_dat_i[12] I
wbs_dat_i[13] I
wbs_dat_i[14] I
wbs_dat_i[15] I
wbs_dat_i[16] I
wbs_dat_i[17] I
wbs_dat_i[18] I
wbs_dat_i[19] I
wbs_dat_i[1] I
wbs_dat_i[20] I
wbs_dat_i[21] I
wbs_dat_i[22] I
wbs_dat_i[23] I
wbs_dat_i[24] I
wbs_dat_i[25] I
wbs_dat_i[26] I
wbs_dat_i[27] I
wbs_dat_i[28] I
wbs_dat_i[29] I
wbs_dat_i[2] I
wbs_dat_i[30] I
wbs_dat_i[31] I
wbs_dat_i[3] I
wbs_dat_i[4] I
wbs_dat_i[5] I
wbs_dat_i[6] I
wbs_dat_i[7] I
wbs_dat_i[8] I
wbs_dat_i[9] I
wbs_dat_o[0] O
wbs_dat_o[10] O
wbs_dat_o[11] O
wbs_dat_o[12] O
wbs_dat_o[13] O
wbs_dat_o[14] O
wbs_dat_o[15] O
wbs_dat_o[16] O
wbs_dat_o[17] O
wbs_dat_o[18] O
wbs_dat_o[19] O
wbs_dat_o[1] O
wbs_dat_o[20] O
wbs_dat_o[21] O
wbs_dat_o[22] O
wbs_dat_o[23] O
wbs_dat_o[24] O
wbs_dat_o[25] O
wbs_dat_o[26] O
wbs_dat_o[27] O
wbs_dat_o[28] O
wbs_dat_o[29] O
wbs_dat_o[2] O
wbs_dat_o[30] O
wbs_dat_o[31] O
wbs_dat_o[3] O
wbs_dat_o[4] O
wbs_dat_o[5] O
wbs_dat_o[6] O
wbs_dat_o[7] O
wbs_dat_o[8] O
wbs_dat_o[9] O
wbs_sel_i[0] I
wbs_sel_i[1] I
wbs_sel_i[2] I
wbs_sel_i[3] I
wbs_stb_i I
wbs_we_i I

*D_NET *3 0.0477518
*CONN
*P wb_clk_i I
*I *491:DIODE I *D sky130_fd_sc_hd__diode_2
*I *3633:A I *D sky130_fd_sc_hd__clkbuf_16
*CAP
1 wb_clk_i 0.000218002
2 *491:DIODE 4.46293e-05
3 *3633:A 0
4 *3:17 0.00324322
5 *3:15 0.00319859
6 *3:13 0.00958903
7 *3:11 0.00980703
8 *491:DIODE *190:16 0.000166976
9 *491:DIODE *234:10 0.000177227
10 *3:13 *28:17 0.00188898
11 *3:13 *335:30 0
12 *3:17 wbs_dat_o[27] 0.000547428
13 *3:17 *3668:A 0
14 *3:17 *3752:A 0.000174359
15 *3:17 *3754:A 0
16 *3:17 *3776:A 0.00165903
17 *3:17 *3861:A 0.000535124
18 *3:17 *110:12 0.000231739
19 *3:17 *134:48 0
20 *3:17 *170:88 0.000194348
21 *3:17 *190:16 0.00010326
22 *3:17 *219:50 1.09267e-05
23 *3:17 *234:10 0.00143634
24 *3:17 *292:22 0.000628678
25 *3:17 *325:68 7.51885e-05
26 *3:17 *325:70 0.0075504
27 *3:17 *327:77 0.000148903
28 *3:17 *327:83 5.41794e-05
29 *3:17 *328:50 0.00606823
*RES
1 wb_clk_i *3:11 9.32143 
2 *3:11 *3:13 190.286 
3 *3:13 *3:15 4.5 
4 *3:15 *3:17 126.714 
5 *3:17 *3633:A 13.8 
6 *3:17 *491:DIODE 16.05 
*END

*D_NET *4 0.000384532
*CONN
*P wb_rst_i I
*I *3791:A I *D sky130_fd_sc_hd__buf_1
*I *539:DIODE I *D sky130_fd_sc_hd__diode_2
*CAP
1 wb_rst_i 0.000118317
2 *3791:A 6.22458e-05
3 *539:DIODE 0
4 *4:7 0.000180563
5 *3791:A *147:26 2.34059e-05
6 *4:7 wbs_ack_o 0
*RES
1 wb_rst_i *4:7 6.53571 
2 *4:7 *539:DIODE 9.3 
3 *4:7 *3791:A 10.5679 
*END

*D_NET *5 0.000901584
*CONN
*P wbs_ack_o O
*I *3841:X O *D sky130_fd_sc_hd__buf_12
*CAP
1 wbs_ack_o 0.000320505
2 *3841:X 0.000320505
3 wbs_ack_o *38:9 0
4 wbs_ack_o *147:26 0.000260574
5 *4:7 wbs_ack_o 0
*RES
1 *3841:X wbs_ack_o 19.3357 
*END

*D_NET *7 0.0035853
*CONN
*P wbs_adr_i[10] I
*I *522:DIODE I *D sky130_fd_sc_hd__diode_2
*I *3678:A I *D sky130_fd_sc_hd__dlygate4sd3_1
*CAP
1 wbs_adr_i[10] 0.000772882
2 *522:DIODE 5.47766e-05
3 *3678:A 0
4 *7:21 0.000827659
5 *522:DIODE *117:59 4.58194e-05
6 *7:21 wbs_dat_o[10] 0
7 *7:21 wbs_dat_o[9] 0.000269422
8 *7:21 *3730:A 0.000139214
9 *7:21 *8:5 9.91086e-05
10 *7:21 *117:59 8.46325e-05
11 *7:21 *323:22 6.76823e-05
12 *7:21 *325:32 0.00061109
13 *7:21 *334:54 0.000613013
*RES
1 wbs_adr_i[10] *7:21 29.9107 
2 *7:21 *3678:A 9.3 
3 *7:21 *522:DIODE 10.2464 
*END

*D_NET *8 0.0023185
*CONN
*P wbs_adr_i[11] I
*I *521:DIODE I *D sky130_fd_sc_hd__diode_2
*I *3676:A I *D sky130_fd_sc_hd__dlygate4sd3_1
*CAP
1 wbs_adr_i[11] 0.000437337
2 *521:DIODE 0.000179889
3 *3676:A 3.16789e-05
4 *8:5 0.000648905
5 *521:DIODE *3726:A 8.11358e-05
6 *521:DIODE *3796:A 0
7 *521:DIODE *3873:A 0
8 *521:DIODE *40:13 0
9 *521:DIODE *111:14 0.000139913
10 *521:DIODE *148:16 4.88631e-05
11 *3676:A *159:10 0.000102207
12 *3676:A *339:16 0.000186669
13 *8:5 wbs_dat_o[10] 0
14 *8:5 *3730:A 0.000362795
15 *8:5 *41:13 0
16 *7:21 *8:5 9.91086e-05
*RES
1 wbs_adr_i[11] *8:5 7.5 
2 *8:5 *3676:A 15.5679 
3 *8:5 *521:DIODE 17.7107 
*END

*D_NET *28 0.00579946
*CONN
*P wbs_adr_i[2] I
*I *3686:A I *D sky130_fd_sc_hd__dlygate4sd3_1
*I *530:DIODE I *D sky130_fd_sc_hd__diode_2
*CAP
1 wbs_adr_i[2] 0.000997465
2 *3686:A 0.000171921
3 *530:DIODE 0.000465699
4 *28:17 0.00163508
5 *530:DIODE *147:26 0.000318119
6 *3686:A *39:9 0
7 *3686:A *107:7 0
8 *3686:A *108:13 0.000119625
9 *3686:A *330:28 1.65558e-05
10 *28:17 *39:9 0
11 *28:17 *61:11 0
12 *28:17 *108:13 0.000160362
13 *28:17 *330:28 2.56601e-05
14 *3:13 *28:17 0.00188898
*RES
1 wbs_adr_i[2] *28:17 35.9821 
2 *28:17 *530:DIODE 19.675 
3 *28:17 *3686:A 16.9607 
*END

*D_NET *31 0.00428462
*CONN
*P wbs_adr_i[3] I
*I *529:DIODE I *D sky130_fd_sc_hd__diode_2
*I *3685:A I *D sky130_fd_sc_hd__dlygate4sd3_1
*CAP
1 wbs_adr_i[3] 0.000404194
2 *529:DIODE 6.72008e-05
3 *3685:A 0.000355809
4 *31:9 0.000827204
5 *529:DIODE *3842:A 3.83485e-05
6 *529:DIODE *3864:A 9.41642e-05
7 *529:DIODE *324:18 0.000218907
8 *3685:A *436:DIODE 0.00010096
9 *3685:A *511:DIODE 0.000199598
10 *3685:A *3605:D 1.38323e-05
11 *3685:A *3632:RESET_B 8.43535e-06
12 *3685:A *3775:A 0.000314883
13 *3685:A *64:9 3.72472e-05
14 *3685:A *115:73 0.000478619
15 *3685:A *327:38 8.83452e-05
16 *3685:A *329:24 0.00073665
17 *3685:A *336:28 7.69776e-06
18 *3685:A *339:8 9.90367e-05
19 *31:9 wbs_dat_o[2] 0
20 *31:9 *3832:A 0
21 *31:9 *3833:A 0
22 *31:9 *3842:A 5.41609e-05
23 *31:9 *64:9 0
24 *31:9 *105:13 0
25 *31:9 *115:71 0
26 *31:9 *117:87 0
27 *31:9 *324:18 0.000139323
*RES
1 wbs_adr_i[3] *31:9 11.5357 
2 *31:9 *3685:A 30.6393 
3 *31:9 *529:DIODE 11.4786 
*END

*D_NET *32 0.00192785
*CONN
*P wbs_adr_i[4] I
*I *528:DIODE I *D sky130_fd_sc_hd__diode_2
*I *3684:A I *D sky130_fd_sc_hd__dlygate4sd3_1
*CAP
1 wbs_adr_i[4] 0.000118547
2 *528:DIODE 0.00017071
3 *3684:A 5.87408e-05
4 *32:7 0.000347998
5 *528:DIODE *65:5 0.000114111
6 *528:DIODE *323:14 0.000104523
7 *528:DIODE *325:24 0.000296829
8 *528:DIODE *334:34 0.000220448
9 *3684:A *3833:A 4.22908e-05
10 *3684:A *323:14 6.62783e-05
11 *3684:A *325:24 0.000240898
12 *32:7 *65:5 0
13 *32:7 *106:9 0
14 *32:7 *330:16 0.000146474
15 *32:7 *335:26 0
*RES
1 wbs_adr_i[4] *32:7 6.83929 
2 *32:7 *3684:A 11.9071 
3 *32:7 *528:DIODE 24.1571 
*END

*D_NET *33 0.00599037
*CONN
*P wbs_adr_i[5] I
*I *526:DIODE I *D sky130_fd_sc_hd__diode_2
*I *3682:A I *D sky130_fd_sc_hd__dlygate4sd3_1
*CAP
1 wbs_adr_i[5] 0.000105366
2 *526:DIODE 0.000189709
3 *3682:A 0.00159655
4 *33:9 0.00189162
5 *526:DIODE *66:5 0
6 *526:DIODE *323:14 6.57032e-05
7 *526:DIODE *325:24 7.20884e-05
8 *3682:A *534:DIODE 4.15914e-05
9 *3682:A *61:11 0.000125731
10 *3682:A *106:9 0.00134942
11 *3682:A *330:28 0.000137505
12 *3682:A *334:44 0.000354105
13 *3682:A *335:30 6.09804e-05
14 *33:9 wbs_dat_o[4] 0
15 *33:9 *66:5 0
*RES
1 wbs_adr_i[5] *33:9 1.78571 
2 *33:9 *3682:A 45.925 
3 *33:9 *526:DIODE 16.8 
*END

*D_NET *34 0.00231834
*CONN
*P wbs_adr_i[6] I
*I *3683:A I *D sky130_fd_sc_hd__dlygate4sd3_1
*I *527:DIODE I *D sky130_fd_sc_hd__diode_2
*CAP
1 wbs_adr_i[6] 0.000479332
2 *3683:A 0.000216243
3 *527:DIODE 0
4 *34:5 0.000695575
5 *3683:A *3756:A 0.00012465
6 *3683:A *3825:A 1.37429e-05
7 *3683:A *3826:A 0
8 *3683:A *3869:A 0
9 *3683:A *111:14 0.000309266
10 *3683:A *364:18 5.48376e-05
11 *3683:A *364:34 0.000309266
12 *34:5 wbs_dat_o[5] 0
13 *34:5 wbs_dat_o[6] 0
14 *34:5 *3708:A 1.59782e-05
15 *34:5 *3869:A 0
16 *34:5 *67:17 0
17 *34:5 *115:71 3.69697e-05
18 *34:5 *324:18 6.24791e-05
*RES
1 wbs_adr_i[6] *34:5 6.89286 
2 *34:5 *527:DIODE 13.8 
3 *34:5 *3683:A 19.9607 
*END

*D_NET *35 0.00296837
*CONN
*P wbs_adr_i[7] I
*I *525:DIODE I *D sky130_fd_sc_hd__diode_2
*I *3681:A I *D sky130_fd_sc_hd__dlygate4sd3_1
*CAP
1 wbs_adr_i[7] 0.000273746
2 *525:DIODE 0.000225353
3 *3681:A 9.03814e-05
4 *35:9 0.00058948
5 *525:DIODE *497:DIODE 0.000186662
6 *525:DIODE *3747:A 5.52302e-05
7 *525:DIODE *339:8 0.000117611
8 *525:DIODE *364:34 0.000233685
9 *3681:A wbs_dat_o[6] 0.000272371
10 *3681:A *3870:A 9.61455e-05
11 *3681:A *117:79 0.000446597
12 *35:9 wbs_dat_o[6] 0
13 *35:9 *68:9 0
14 *35:9 *325:24 7.6644e-05
15 *35:9 *364:34 0.000304464
*RES
1 wbs_adr_i[7] *35:9 5.42857 
2 *35:9 *3681:A 18.4607 
3 *35:9 *525:DIODE 19.55 
*END

*D_NET *36 0.00163147
*CONN
*P wbs_adr_i[8] I
*I *3680:A I *D sky130_fd_sc_hd__dlygate4sd3_1
*I *524:DIODE I *D sky130_fd_sc_hd__diode_2
*CAP
1 wbs_adr_i[8] 0.00050516
2 *3680:A 3.98834e-05
3 *524:DIODE 8.15236e-05
4 *36:9 0.000626567
5 *524:DIODE *323:22 3.04394e-05
6 *36:9 wbs_dat_o[7] 0.000142575
7 *36:9 *3745:A 0.000113496
8 *36:9 *323:22 9.18273e-05
*RES
1 wbs_adr_i[8] *36:9 11.5893 
2 *36:9 *524:DIODE 10.2464 
3 *36:9 *3680:A 10.0321 
*END

*D_NET *37 0.00381669
*CONN
*P wbs_adr_i[9] I
*I *523:DIODE I *D sky130_fd_sc_hd__diode_2
*I *3679:A I *D sky130_fd_sc_hd__dlygate4sd3_1
*CAP
1 wbs_adr_i[9] 0.000159335
2 *523:DIODE 0.0005505
3 *3679:A 0.000126308
4 *37:5 0.000836143
5 *523:DIODE *3649:A 2.71503e-05
6 *523:DIODE *69:9 0
7 *523:DIODE *324:26 0
8 *523:DIODE *339:8 9.77118e-05
9 *523:DIODE *339:16 0.000199336
10 *3679:A wbs_dat_o[8] 0.000317831
11 *3679:A wbs_dat_o[9] 0.000399169
12 *3679:A *70:9 6.24774e-05
13 *3679:A *323:22 0.000835606
14 *3679:A *326:14 0.000160191
15 *37:5 wbs_dat_o[9] 0
16 *37:5 *70:9 0
17 *37:5 *364:34 4.49313e-05
*RES
1 wbs_adr_i[9] *37:5 2.64286 
2 *37:5 *3679:A 21.7286 
3 *37:5 *523:DIODE 21.5857 
*END

*D_NET *38 0.00141416
*CONN
*P wbs_cyc_i I
*I *538:DIODE I *D sky130_fd_sc_hd__diode_2
*I *3794:A I *D sky130_fd_sc_hd__buf_2
*CAP
1 wbs_cyc_i 0.000425678
2 *538:DIODE 0.000117902
3 *3794:A 6.60587e-05
4 *38:9 0.000609638
5 *538:DIODE *107:7 2.41421e-05
6 *3794:A *3688:A 1.43643e-05
7 *3794:A *170:32 1.58163e-05
8 *38:9 *107:7 0.000140564
9 wbs_ack_o *38:9 0
*RES
1 wbs_cyc_i *38:9 6.75 
2 *38:9 *3794:A 14.7643 
3 *38:9 *538:DIODE 15.1393 
*END

*D_NET *39 0.00233497
*CONN
*P wbs_dat_i[0] I
*I *517:DIODE I *D sky130_fd_sc_hd__diode_2
*I *3672:A I *D sky130_fd_sc_hd__dlygate4sd3_1
*CAP
1 wbs_dat_i[0] 0.000539127
2 *517:DIODE 0.000222117
3 *3672:A 0
4 *39:9 0.000761243
5 *517:DIODE wbs_dat_o[0] 5.52302e-05
6 *517:DIODE *3795:A 0.000225307
7 *517:DIODE *103:11 4.06875e-05
8 *517:DIODE *327:38 1.48556e-05
9 *39:9 wbs_dat_o[0] 0
10 *39:9 *541:DIODE 0.000187147
11 *39:9 *108:13 0.000119738
12 *39:9 *327:18 9.60293e-05
13 *39:9 *327:38 7.34896e-05
14 *3686:A *39:9 0
15 *28:17 *39:9 0
*RES
1 wbs_dat_i[0] *39:9 13.7679 
2 *39:9 *3672:A 9.3 
3 *39:9 *517:DIODE 23.6214 
*END

*D_NET *40 0.00296677
*CONN
*P wbs_dat_i[10] I
*I *494:DIODE I *D sky130_fd_sc_hd__diode_2
*I *3647:A I *D sky130_fd_sc_hd__dlygate4sd3_1
*CAP
1 wbs_dat_i[10] 0.000875817
2 *494:DIODE 0.000274236
3 *3647:A 1.40355e-05
4 *40:13 0.00116409
5 *494:DIODE *3796:A 1.19191e-05
6 *3647:A *3796:A 5.52302e-05
7 *3647:A *111:14 2.89114e-05
8 *40:13 wbs_dat_o[10] 0.000378593
9 *40:13 *3796:A 6.86105e-05
10 *40:13 *3873:A 9.53291e-05
11 *521:DIODE *40:13 0
*RES
1 wbs_dat_i[10] *40:13 13.5893 
2 *40:13 *3647:A 14.3357 
3 *40:13 *494:DIODE 16.9607 
*END

*D_NET *41 0.00339953
*CONN
*P wbs_dat_i[11] I
*I *493:DIODE I *D sky130_fd_sc_hd__diode_2
*I *3646:A I *D sky130_fd_sc_hd__dlygate4sd3_1
*CAP
1 wbs_dat_i[11] 0.000613831
2 *493:DIODE 6.93665e-06
3 *3646:A 0
4 *41:13 0.000620768
5 *493:DIODE *321:16 4.38128e-05
6 *493:DIODE *336:36 3.18676e-05
7 *41:13 wbs_dat_o[11] 0.000306076
8 *41:13 *3769:A 0.000317997
9 *41:13 *3844:A 0.000116855
10 *41:13 *321:16 0.00121923
11 *41:13 *336:36 0.000122159
12 *8:5 *41:13 0
*RES
1 wbs_dat_i[11] *41:13 22.2679 
2 *41:13 *3646:A 9.3 
3 *41:13 *493:DIODE 9.83571 
*END

*D_NET *42 0.00287586
*CONN
*P wbs_dat_i[12] I
*I *3645:A I *D sky130_fd_sc_hd__dlygate4sd3_1
*I *492:DIODE I *D sky130_fd_sc_hd__diode_2
*CAP
1 wbs_dat_i[12] 0.000273863
2 *3645:A 0.000235797
3 *492:DIODE 0
4 *42:9 0.000509659
5 *3645:A wbs_dat_o[12] 0.000453501
6 *3645:A wbs_dat_o[13] 0.000358683
7 *3645:A *3701:A 0.000623073
8 *3645:A *117:59 0.000282802
9 *3645:A *325:40 8.87097e-05
10 *42:9 wbs_dat_o[12] 0
11 *42:9 *117:59 4.9773e-05
*RES
1 wbs_dat_i[12] *42:9 8.30357 
2 *42:9 *492:DIODE 9.3 
3 *42:9 *3645:A 21.1214 
*END

*D_NET *43 0.0013681
*CONN
*P wbs_dat_i[13] I
*I *3780:A I *D sky130_fd_sc_hd__dlygate4sd3_1
*I *537:DIODE I *D sky130_fd_sc_hd__diode_2
*CAP
1 wbs_dat_i[13] 0.000417073
2 *3780:A 0
3 *537:DIODE 0.000160343
4 *43:11 0.000577416
5 *537:DIODE *3701:A 0
6 *43:11 wbs_dat_o[13] 0
7 *43:11 *321:16 0.000213265
8 *43:11 *334:54 0
*RES
1 wbs_dat_i[13] *43:11 11.0536 
2 *43:11 *537:DIODE 20.2464 
3 *43:11 *3780:A 9.3 
*END

*D_NET *44 0.00122326
*CONN
*P wbs_dat_i[14] I
*I *3779:A I *D sky130_fd_sc_hd__dlygate4sd3_1
*I *536:DIODE I *D sky130_fd_sc_hd__diode_2
*CAP
1 wbs_dat_i[14] 0.00040885
2 *3779:A 6.1932e-05
3 *536:DIODE 0
4 *44:7 0.000470782
5 *3779:A *339:18 5.68722e-05
6 *44:7 wbs_dat_o[13] 0
7 *44:7 *3800:A 0
8 *44:7 *3846:A 0.000192212
9 *44:7 *236:22 3.26077e-05
*RES
1 wbs_dat_i[14] *44:7 11.3929 
2 *44:7 *536:DIODE 9.3 
3 *44:7 *3779:A 10.5679 
*END

*D_NET *45 0.0020212
*CONN
*P wbs_dat_i[15] I
*I *3778:A I *D sky130_fd_sc_hd__dlygate4sd3_1
*I *535:DIODE I *D sky130_fd_sc_hd__diode_2
*CAP
1 wbs_dat_i[15] 0.000417199
2 *3778:A 0.000252132
3 *535:DIODE 0
4 *45:17 0.000669331
5 *3778:A wbs_dat_o[15] 0
6 *3778:A *3848:A 4.9792e-05
7 *3778:A *46:7 0.000103416
8 *3778:A *340:22 0.000141729
9 *45:17 wbs_dat_o[14] 0
10 *45:17 wbs_dat_o[15] 0.000157933
11 *45:17 *3690:A 4.13595e-05
12 *45:17 *340:22 0.00018831
*RES
1 wbs_dat_i[15] *45:17 12.1786 
2 *45:17 *535:DIODE 9.3 
3 *45:17 *3778:A 22.8179 
*END

*D_NET *46 0.0019102
*CONN
*P wbs_dat_i[16] I
*I *505:DIODE I *D sky130_fd_sc_hd__diode_2
*I *3659:A I *D sky130_fd_sc_hd__dlygate4sd3_1
*CAP
1 wbs_dat_i[16] 0.000495219
2 *505:DIODE 4.7099e-05
3 *3659:A 0
4 *46:7 0.000542318
5 *505:DIODE *236:22 0.000361075
6 *505:DIODE *339:18 0.000361075
7 *46:7 wbs_dat_o[15] 0
8 *46:7 wbs_dat_o[16] 0
9 *46:7 *3803:A 0
10 *46:7 *3848:A 0
11 *3778:A *46:7 0.000103416
*RES
1 wbs_dat_i[16] *46:7 12 
2 *46:7 *3659:A 9.3 
3 *46:7 *505:DIODE 12.7107 
*END

*D_NET *47 0.00235313
*CONN
*P wbs_dat_i[17] I
*I *3656:A I *D sky130_fd_sc_hd__dlygate4sd3_1
*I *502:DIODE I *D sky130_fd_sc_hd__diode_2
*CAP
1 wbs_dat_i[17] 0.00061124
2 *3656:A 0.000167903
3 *502:DIODE 0
4 *47:9 0.000779143
5 *3656:A *225:14 0.000391722
6 *47:9 wbs_dat_o[16] 0
7 *47:9 wbs_dat_o[17] 0
8 *47:9 *3725:A 0
9 *47:9 *225:14 0.000403123
*RES
1 wbs_dat_i[17] *47:9 13.1964 
2 *47:9 *502:DIODE 9.3 
3 *47:9 *3656:A 13.4429 
*END

*D_NET *48 0.00224257
*CONN
*P wbs_dat_i[18] I
*I *499:DIODE I *D sky130_fd_sc_hd__diode_2
*I *3652:A I *D sky130_fd_sc_hd__dlygate4sd3_1
*CAP
1 wbs_dat_i[18] 0.000715762
2 *499:DIODE 6.35454e-05
3 *3652:A 3.99336e-05
4 *48:9 0.000819241
5 *499:DIODE wbs_dat_o[19] 5.52302e-05
6 *499:DIODE *342:20 1.55885e-05
7 *48:9 wbs_dat_o[17] 0.000313474
8 *48:9 *3714:A 0.000129595
9 *48:9 *342:20 9.02047e-05
*RES
1 wbs_dat_i[18] *48:9 14.4643 
2 *48:9 *3652:A 10.0321 
3 *48:9 *499:DIODE 10.2464 
*END

*D_NET *49 0.00217978
*CONN
*P wbs_dat_i[19] I
*I *503:DIODE I *D sky130_fd_sc_hd__diode_2
*I *3657:A I *D sky130_fd_sc_hd__dlygate4sd3_1
*CAP
1 wbs_dat_i[19] 0.000517501
2 *503:DIODE 0.000279139
3 *3657:A 3.16789e-05
4 *49:13 0.000828319
5 *503:DIODE *3696:A 0
6 *503:DIODE *270:22 0.000140719
7 *3657:A *225:14 0.000186669
8 *3657:A *259:16 0.000102207
9 *49:13 wbs_dat_o[18] 0
10 *49:13 wbs_dat_o[19] 9.3552e-05
*RES
1 wbs_dat_i[19] *49:13 8.01786 
2 *49:13 *3657:A 15.5679 
3 *49:13 *503:DIODE 17.1036 
*END

*D_NET *50 0.00258039
*CONN
*P wbs_dat_i[1] I
*I *3669:A I *D sky130_fd_sc_hd__dlygate4sd3_1
*I *514:DIODE I *D sky130_fd_sc_hd__diode_2
*CAP
1 wbs_dat_i[1] 0.000422308
2 *3669:A 0.000104276
3 *514:DIODE 0.000136654
4 *50:13 0.000663238
5 *514:DIODE *3774:A 0.000133238
6 *514:DIODE *108:13 4.68038e-05
7 *514:DIODE *147:26 4.79567e-05
8 *3669:A wbs_dat_o[0] 0.00017309
9 *50:13 wbs_dat_o[1] 0
10 *50:13 *3598:A 3.0285e-05
11 *50:13 *3772:A 0.000140933
12 *50:13 *3774:A 5.13005e-05
13 *50:13 *3775:A 0.00014285
14 *50:13 *103:11 0
15 *50:13 *105:13 0.00048746
*RES
1 wbs_dat_i[1] *50:13 14.3929 
2 *50:13 *514:DIODE 12.8536 
3 *50:13 *3669:A 20.55 
*END

*D_NET *51 0.00174035
*CONN
*P wbs_dat_i[20] I
*I *501:DIODE I *D sky130_fd_sc_hd__diode_2
*I *3654:A I *D sky130_fd_sc_hd__dlygate4sd3_1
*CAP
1 wbs_dat_i[20] 0.000254861
2 *501:DIODE 7.79675e-05
3 *3654:A 0
4 *51:9 0.000332829
5 *501:DIODE *3728:A 5.71472e-05
6 *501:DIODE *117:59 0.000193804
7 *501:DIODE *325:56 0.000154501
8 *51:9 wbs_dat_o[19] 0.000226867
9 *51:9 wbs_dat_o[20] 0
10 *51:9 *117:59 0.000263322
11 *51:9 *325:48 3.6337e-05
12 *51:9 *325:56 0.000142718
*RES
1 wbs_dat_i[20] *51:9 11.7857 
2 *51:9 *3654:A 9.3 
3 *51:9 *501:DIODE 12.7107 
*END

*D_NET *52 0.00296503
*CONN
*P wbs_dat_i[21] I
*I *506:DIODE I *D sky130_fd_sc_hd__diode_2
*I *3660:A I *D sky130_fd_sc_hd__dlygate4sd3_1
*CAP
1 wbs_dat_i[21] 0.000373678
2 *506:DIODE 0.000275203
3 *3660:A 0
4 *52:9 0.000648881
5 *506:DIODE *410:DIODE 8.10363e-06
6 *506:DIODE *53:9 0.000273929
7 *506:DIODE *115:55 0.000140933
8 *506:DIODE *292:16 0.000130419
9 *506:DIODE *339:18 1.21258e-05
10 *52:9 wbs_dat_o[20] 0
11 *52:9 wbs_dat_o[21] 0.000385738
12 *52:9 *115:55 0.000230475
13 *52:9 *292:16 0.000485543
*RES
1 wbs_dat_i[21] *52:9 14.2143 
2 *52:9 *3660:A 9.3 
3 *52:9 *506:DIODE 23.3714 
*END

*D_NET *53 0.0020355
*CONN
*P wbs_dat_i[22] I
*I *3658:A I *D sky130_fd_sc_hd__dlygate4sd3_1
*I *504:DIODE I *D sky130_fd_sc_hd__diode_2
*CAP
1 wbs_dat_i[22] 0.000430717
2 *3658:A 7.43985e-05
3 *504:DIODE 0
4 *53:9 0.000505115
5 *3658:A *259:44 0.000177963
6 *3658:A *281:42 5.98316e-05
7 *53:9 wbs_dat_o[21] 0
8 *53:9 wbs_dat_o[22] 0
9 *53:9 *410:DIODE 0
10 *53:9 *3728:A 0.0003656
11 *53:9 *259:44 5.33005e-05
12 *53:9 *281:42 4.58505e-05
13 *53:9 *339:18 4.87953e-05
14 *506:DIODE *53:9 0.000273929
*RES
1 wbs_dat_i[22] *53:9 13.875 
2 *53:9 *504:DIODE 9.3 
3 *53:9 *3658:A 11.4964 
*END

*D_NET *54 0.00239131
*CONN
*P wbs_dat_i[23] I
*I *508:DIODE I *D sky130_fd_sc_hd__diode_2
*I *3662:A I *D sky130_fd_sc_hd__dlygate4sd3_1
*CAP
1 wbs_dat_i[23] 0.000417006
2 *508:DIODE 6.53682e-05
3 *3662:A 0
4 *54:9 0.000482375
5 *508:DIODE *115:43 0.000255062
6 *508:DIODE *281:42 0.000314139
7 *54:9 wbs_dat_o[22] 0
8 *54:9 wbs_dat_o[23] 0
9 *54:9 *434:DIODE 0
10 *54:9 *3809:A 0
11 *54:9 *115:43 0.000490416
12 *54:9 *270:34 6.05161e-06
13 *54:9 *281:42 0.000360894
*RES
1 wbs_dat_i[23] *54:9 14.2143 
2 *54:9 *3662:A 9.3 
3 *54:9 *508:DIODE 12.3 
*END

*D_NET *55 0.00152718
*CONN
*P wbs_dat_i[24] I
*I *509:DIODE I *D sky130_fd_sc_hd__diode_2
*I *3663:A I *D sky130_fd_sc_hd__dlygate4sd3_1
*CAP
1 wbs_dat_i[24] 0.00018053
2 *509:DIODE 0.000306601
3 *3663:A 0
4 *55:9 0.000487131
5 *509:DIODE wbs_dat_o[24] 0
6 *509:DIODE *434:DIODE 0
7 *509:DIODE *3736:A 0.000116371
8 *509:DIODE *115:43 0.000150618
9 *509:DIODE *159:26 0.000175606
10 *509:DIODE *276:24 2.83284e-06
11 *509:DIODE *347:16 0
12 *509:DIODE *348:16 6.1205e-05
13 *55:9 wbs_dat_o[23] 0
14 *55:9 wbs_dat_o[24] 0
15 *55:9 *276:24 4.62891e-05
*RES
1 wbs_dat_i[24] *55:9 3.30357 
2 *55:9 *3663:A 13.8 
3 *55:9 *509:DIODE 20.6036 
*END

*D_NET *56 0.00352878
*CONN
*P wbs_dat_i[25] I
*I *3667:A I *D sky130_fd_sc_hd__dlygate4sd3_1
*I *512:DIODE I *D sky130_fd_sc_hd__diode_2
*CAP
1 wbs_dat_i[25] 0.00099399
2 *3667:A 0.000167978
3 *512:DIODE 0
4 *56:9 0.00116197
5 *3667:A *513:DIODE 0.000355606
6 *3667:A *115:43 0.000232317
7 *56:9 wbs_dat_o[25] 0
8 *56:9 *3857:A 0.000293124
9 *56:9 *115:43 0.000224692
10 *56:9 *325:56 9.91086e-05
*RES
1 wbs_dat_i[25] *56:9 18.1607 
2 *56:9 *512:DIODE 9.3 
3 *56:9 *3667:A 14.3893 
*END

*D_NET *57 0.00158368
*CONN
*P wbs_dat_i[26] I
*I *3671:A I *D sky130_fd_sc_hd__dlygate4sd3_1
*I *516:DIODE I *D sky130_fd_sc_hd__diode_2
*CAP
1 wbs_dat_i[26] 0.000661007
2 *3671:A 0
3 *516:DIODE 1.8141e-05
4 *57:9 0.000679148
5 *516:DIODE *317:44 5.71472e-05
6 *57:9 wbs_dat_o[24] 0.000110045
7 *57:9 wbs_dat_o[25] 0
8 *57:9 wbs_dat_o[26] 0
9 *57:9 *459:DIODE 0
10 *57:9 *117:57 1.63058e-05
11 *57:9 *132:49 0
12 *57:9 *132:51 0
13 *57:9 *317:44 4.18895e-05
*RES
1 wbs_dat_i[26] *57:9 14.9643 
2 *57:9 *516:DIODE 9.83571 
3 *57:9 *3671:A 9.3 
*END

*D_NET *58 0.00262662
*CONN
*P wbs_dat_i[27] I
*I *3668:A I *D sky130_fd_sc_hd__dlygate4sd3_1
*I *513:DIODE I *D sky130_fd_sc_hd__diode_2
*CAP
1 wbs_dat_i[27] 9.65926e-05
2 *3668:A 0.000176789
3 *513:DIODE 0.000473911
4 *58:5 0.000747292
5 *513:DIODE *59:9 5.52302e-05
6 *513:DIODE *115:43 0.000114893
7 *3668:A *3752:A 9.11286e-05
8 *3668:A *227:18 9.3171e-05
9 *3668:A *305:8 9.3171e-05
10 *3668:A *325:68 0.000227599
11 *58:5 *325:68 0.000101233
12 *3667:A *513:DIODE 0.000355606
13 *3:17 *3668:A 0
*RES
1 wbs_dat_i[27] *58:5 2.03571 
2 *58:5 *513:DIODE 20.4964 
3 *58:5 *3668:A 18.7286 
*END

*D_NET *59 0.00108312
*CONN
*P wbs_dat_i[28] I
*I *515:DIODE I *D sky130_fd_sc_hd__diode_2
*I *3670:A I *D sky130_fd_sc_hd__dlygate4sd3_1
*CAP
1 wbs_dat_i[28] 0.000336062
2 *515:DIODE 2.12324e-05
3 *3670:A 2.22847e-05
4 *59:9 0.000379579
5 *515:DIODE wbs_dat_o[28] 3.08664e-05
6 *59:9 wbs_dat_o[27] 0
7 *59:9 wbs_dat_o[28] 0.000125371
8 *59:9 *115:43 0.000102207
9 *59:9 *117:33 1.02821e-05
10 *513:DIODE *59:9 5.52302e-05
*RES
1 wbs_dat_i[28] *59:9 11.0714 
2 *59:9 *3670:A 9.72857 
3 *59:9 *515:DIODE 9.83571 
*END

*D_NET *60 0.00199452
*CONN
*P wbs_dat_i[29] I
*I *518:DIODE I *D sky130_fd_sc_hd__diode_2
*I *3673:A I *D sky130_fd_sc_hd__dlygate4sd3_1
*CAP
1 wbs_dat_i[29] 0.000645972
2 *518:DIODE 3.79836e-05
3 *3673:A 2.23854e-05
4 *60:11 0.000706341
5 *518:DIODE wbs_dat_o[30] 2.44318e-05
6 *518:DIODE *356:14 5.71472e-05
7 *60:11 wbs_dat_o[28] 0.000116625
8 *60:11 wbs_dat_o[30] 5.33433e-05
9 *60:11 *3692:A 0.000317082
10 *60:11 *353:14 1.32056e-05
*RES
1 wbs_dat_i[29] *60:11 16.125 
2 *60:11 *3673:A 9.72857 
3 *60:11 *518:DIODE 10.2464 
*END

*D_NET *61 0.00369101
*CONN
*P wbs_dat_i[2] I
*I *3664:A I *D sky130_fd_sc_hd__dlygate4sd3_1
*I *510:DIODE I *D sky130_fd_sc_hd__diode_2
*CAP
1 wbs_dat_i[2] 0.00085897
2 *3664:A 0
3 *510:DIODE 0.000412198
4 *61:11 0.00127117
5 *510:DIODE *3608:D 0
6 *510:DIODE *3637:A 6.78025e-05
7 *510:DIODE *3767:A 1.08847e-05
8 *510:DIODE *3831:A 0.000145477
9 *510:DIODE *3835:A 5.59461e-05
10 *510:DIODE *343:22 0.000230035
11 *510:DIODE *366:12 3.28838e-05
12 *61:11 wbs_dat_o[2] 0
13 *61:11 *534:DIODE 7.80714e-06
14 *61:11 *3763:A 0
15 *61:11 *3819:A 5.66469e-05
16 *61:11 *3832:A 0
17 *61:11 *144:31 0.000153665
18 *61:11 *300:14 4.69993e-05
19 *61:11 *312:32 5.33334e-05
20 *61:11 *329:24 0.000161463
21 *61:11 *343:22 0
22 *3682:A *61:11 0.000125731
23 *28:17 *61:11 0
*RES
1 wbs_dat_i[2] *61:11 19.9821 
2 *61:11 *510:DIODE 26.4607 
3 *61:11 *3664:A 9.3 
*END

*D_NET *62 0.00207847
*CONN
*P wbs_dat_i[30] I
*I *519:DIODE I *D sky130_fd_sc_hd__diode_2
*I *3674:A I *D sky130_fd_sc_hd__dlygate4sd3_1
*CAP
1 wbs_dat_i[30] 0.000290339
2 *519:DIODE 0.000205069
3 *3674:A 0.000227056
4 *62:5 0.000722464
5 *519:DIODE *3692:A 0
6 *519:DIODE *3818:A 9.76767e-05
7 *519:DIODE *311:10 0
8 *519:DIODE *356:14 0
9 *3674:A *3818:A 0.00053587
10 *62:5 wbs_dat_o[29] 0
11 *62:5 wbs_dat_o[30] 0
12 *62:5 *3692:A 0
13 *62:5 *356:14 0
*RES
1 wbs_dat_i[30] *62:5 5.07143 
2 *62:5 *3674:A 19.2643 
3 *62:5 *519:DIODE 16.9964 
*END

*D_NET *63 0.00196792
*CONN
*P wbs_dat_i[31] I
*I *3675:A I *D sky130_fd_sc_hd__dlygate4sd3_1
*I *520:DIODE I *D sky130_fd_sc_hd__diode_2
*CAP
1 wbs_dat_i[31] 0.000519997
2 *3675:A 0
3 *520:DIODE 0.000320711
4 *63:9 0.000840707
5 *520:DIODE *3821:A 0.000144773
6 *63:9 wbs_dat_o[30] 0.000141734
*RES
1 wbs_dat_i[31] *63:9 13.0179 
2 *63:9 *520:DIODE 13.4429 
3 *63:9 *3675:A 9.3 
*END

*D_NET *64 0.00538466
*CONN
*P wbs_dat_i[3] I
*I *3665:A I *D sky130_fd_sc_hd__dlygate4sd3_1
*I *511:DIODE I *D sky130_fd_sc_hd__diode_2
*CAP
1 wbs_dat_i[3] 0.000699697
2 *3665:A 0.000796394
3 *511:DIODE 0.000206675
4 *64:9 0.00170276
5 *511:DIODE *3605:D 9.63157e-05
6 *511:DIODE *339:8 0.000139975
7 *3665:A *483:DIODE 0.000160428
8 *3665:A *3600:B 1.02532e-05
9 *3665:A *3750:A 5.05056e-05
10 *3665:A *3758:A 7.71459e-05
11 *3665:A *3837:A 5.79582e-06
12 *3665:A *142:37 0.000183055
13 *3665:A *315:26 1.2103e-05
14 *3665:A *316:24 4.11173e-05
15 *3665:A *329:46 0.000205015
16 *3665:A *331:24 8.6229e-06
17 *3665:A *339:8 0.000385905
18 *3665:A *364:18 0.000366042
19 *3685:A *511:DIODE 0.000199598
20 *3685:A *64:9 3.72472e-05
21 *31:9 *64:9 0
*RES
1 wbs_dat_i[3] *64:9 11.9286 
2 *64:9 *511:DIODE 13.2643 
3 *64:9 *3665:A 32.5679 
*END

*D_NET *65 0.00366936
*CONN
*P wbs_dat_i[4] I
*I *3661:A I *D sky130_fd_sc_hd__dlygate4sd3_1
*I *507:DIODE I *D sky130_fd_sc_hd__diode_2
*CAP
1 wbs_dat_i[4] 0.000332936
2 *3661:A 0.000188764
3 *507:DIODE 8.75763e-05
4 *65:5 0.000609276
5 *507:DIODE *3632:RESET_B 8.43535e-06
6 *507:DIODE *145:28 0.000135028
7 *507:DIODE *330:16 5.33005e-05
8 *507:DIODE *333:20 1.98839e-05
9 *507:DIODE *364:18 0.000257619
10 *3661:A *397:DIODE 9.54798e-06
11 *3661:A *3823:A 7.84535e-05
12 *3661:A *3864:A 0.000266479
13 *3661:A *3867:A 0.000207253
14 *3661:A *335:26 1.04707e-05
15 *3661:A *362:22 0.000222666
16 *65:5 wbs_dat_o[4] 0
17 *65:5 *3867:A 0.000315201
18 *65:5 *334:34 4.15384e-05
19 *65:5 *335:26 0.000710822
20 *528:DIODE *65:5 0.000114111
21 *32:7 *65:5 0
*RES
1 wbs_dat_i[4] *65:5 9.625 
2 *65:5 *507:DIODE 16.3893 
3 *65:5 *3661:A 19.2464 
*END

*D_NET *66 0.00184997
*CONN
*P wbs_dat_i[5] I
*I *3653:A I *D sky130_fd_sc_hd__dlygate4sd3_1
*I *500:DIODE I *D sky130_fd_sc_hd__diode_2
*CAP
1 wbs_dat_i[5] 0.000416638
2 *3653:A 0.000115433
3 *500:DIODE 0
4 *66:5 0.000532071
5 *3653:A *3712:A 5.33005e-05
6 *3653:A *3825:A 6.87574e-05
7 *3653:A *3838:A 0.000185401
8 *3653:A *3869:A 0
9 *3653:A *336:28 4.15526e-05
10 *3653:A *339:8 0.000138947
11 *3653:A *362:22 6.4264e-05
12 *66:5 wbs_dat_o[5] 0
13 *66:5 *3869:A 0
14 *66:5 *117:79 4.42631e-05
15 *66:5 *336:28 7.44888e-05
16 *66:5 *362:22 0.000114854
17 *526:DIODE *66:5 0
18 *33:9 *66:5 0
*RES
1 wbs_dat_i[5] *66:5 6.89286 
2 *66:5 *500:DIODE 13.8 
3 *66:5 *3653:A 17.8357 
*END

*D_NET *67 0.0019121
*CONN
*P wbs_dat_i[6] I
*I *3651:A I *D sky130_fd_sc_hd__dlygate4sd3_1
*I *498:DIODE I *D sky130_fd_sc_hd__diode_2
*CAP
1 wbs_dat_i[6] 0.000339313
2 *3651:A 0
3 *498:DIODE 1.88005e-05
4 *67:17 0.000358114
5 *498:DIODE *323:14 5.45307e-05
6 *498:DIODE *325:24 5.45307e-05
7 *67:17 wbs_dat_o[5] 0.000411264
8 *67:17 wbs_dat_o[6] 0
9 *67:17 *323:14 0.000295644
10 *67:17 *323:22 0.000249439
11 *67:17 *325:24 0.000130469
12 *34:5 *67:17 0
*RES
1 wbs_dat_i[6] *67:17 14.9464 
2 *67:17 *498:DIODE 10.2464 
3 *67:17 *3651:A 9.3 
*END

*D_NET *68 0.00220894
*CONN
*P wbs_dat_i[7] I
*I *3650:A I *D sky130_fd_sc_hd__dlygate4sd3_1
*I *497:DIODE I *D sky130_fd_sc_hd__diode_2
*CAP
1 wbs_dat_i[7] 0.0004768
2 *3650:A 0.000175031
3 *497:DIODE 0.000161823
4 *68:9 0.000813654
5 *497:DIODE *3840:A 5.65955e-05
6 *497:DIODE *339:8 5.61411e-05
7 *3650:A *3840:A 1.32056e-05
8 *3650:A *339:8 0.00010645
9 *68:9 wbs_dat_o[7] 0
10 *68:9 *3871:A 0
11 *68:9 *364:34 0.000162575
12 *525:DIODE *497:DIODE 0.000186662
13 *35:9 *68:9 0
*RES
1 wbs_dat_i[7] *68:9 12.7321 
2 *68:9 *497:DIODE 12.7107 
3 *68:9 *3650:A 12.7286 
*END

*D_NET *69 0.00254165
*CONN
*P wbs_dat_i[8] I
*I *496:DIODE I *D sky130_fd_sc_hd__diode_2
*I *3649:A I *D sky130_fd_sc_hd__dlygate4sd3_1
*CAP
1 wbs_dat_i[8] 0.000663342
2 *496:DIODE 0
3 *3649:A 0.000149605
4 *69:9 0.000812948
5 *3649:A *3697:A 5.71472e-05
6 *3649:A *117:79 0.000166485
7 *3649:A *336:36 0.000353619
8 *69:9 wbs_dat_o[7] 0
9 *69:9 wbs_dat_o[8] 0
10 *69:9 *3745:A 0
11 *69:9 *339:8 0.000311351
12 *523:DIODE *3649:A 2.71503e-05
13 *523:DIODE *69:9 0
*RES
1 wbs_dat_i[8] *69:9 14.3929 
2 *69:9 *3649:A 23.3536 
3 *69:9 *496:DIODE 9.3 
*END

*D_NET *70 0.00275961
*CONN
*P wbs_dat_i[9] I
*I *495:DIODE I *D sky130_fd_sc_hd__diode_2
*I *3648:A I *D sky130_fd_sc_hd__dlygate4sd3_1
*CAP
1 wbs_dat_i[9] 0.000511777
2 *495:DIODE 0.000101357
3 *3648:A 0.000295546
4 *70:9 0.00090868
5 *495:DIODE wbs_dat_o[9] 0.000135028
6 *3648:A wbs_dat_o[9] 0
7 *3648:A *3843:A 0.000135028
8 *3648:A *3844:A 0.000152641
9 *70:9 wbs_dat_o[8] 9.87672e-05
10 *70:9 wbs_dat_o[9] 0.000358306
11 *3679:A *70:9 6.24774e-05
12 *37:5 *70:9 0
*RES
1 wbs_dat_i[9] *70:9 12 
2 *70:9 *3648:A 22.8179 
3 *70:9 *495:DIODE 10.6571 
*END

*D_NET *71 0.00139098
*CONN
*P wbs_dat_o[0] O
*I *3842:X O *D sky130_fd_sc_hd__buf_12
*CAP
1 wbs_dat_o[0] 0.000422533
2 *3842:X 0.000422533
3 wbs_dat_o[0] *3772:A 4.75428e-05
4 wbs_dat_o[0] *3795:A 9.35962e-05
5 wbs_dat_o[0] *103:11 0
6 wbs_dat_o[0] *147:26 3.92757e-05
7 wbs_dat_o[0] *327:38 0.000137179
8 *517:DIODE wbs_dat_o[0] 5.52302e-05
9 *3669:A wbs_dat_o[0] 0.00017309
10 *39:9 wbs_dat_o[0] 0
*RES
1 *3842:X wbs_dat_o[0] 22.3536 
*END

*D_NET *72 0.00154503
*CONN
*P wbs_dat_o[10] O
*I *3843:X O *D sky130_fd_sc_hd__buf_12
*CAP
1 wbs_dat_o[10] 0.000273351
2 *3843:X 0.000273351
3 wbs_dat_o[10] *3843:A 5.33005e-05
4 wbs_dat_o[10] *3844:A 0.000265453
5 wbs_dat_o[10] *3873:A 0.000189483
6 wbs_dat_o[10] *336:36 0.000111501
7 *7:21 wbs_dat_o[10] 0
8 *8:5 wbs_dat_o[10] 0
9 *40:13 wbs_dat_o[10] 0.000378593
*RES
1 *3843:X wbs_dat_o[10] 21.4607 
*END

*D_NET *73 0.00146494
*CONN
*P wbs_dat_o[11] O
*I *3844:X O *D sky130_fd_sc_hd__buf_12
*CAP
1 wbs_dat_o[11] 0.000411992
2 *3844:X 0.000411992
3 wbs_dat_o[11] *3769:A 0.000178425
4 wbs_dat_o[11] *3844:A 9.83442e-05
5 wbs_dat_o[11] *323:22 4.29573e-05
6 wbs_dat_o[11] *336:36 1.51489e-05
7 *41:13 wbs_dat_o[11] 0.000306076
*RES
1 *3844:X wbs_dat_o[11] 21.8714 
*END

*D_NET *74 0.00146053
*CONN
*P wbs_dat_o[12] O
*I *3845:X O *D sky130_fd_sc_hd__buf_12
*CAP
1 wbs_dat_o[12] 0.000224975
2 *3845:X 0.000224975
3 wbs_dat_o[12] *325:32 7.83659e-05
4 wbs_dat_o[12] *325:40 0.000443654
5 wbs_dat_o[12] *334:54 3.50559e-05
6 *3645:A wbs_dat_o[12] 0.000453501
7 *42:9 wbs_dat_o[12] 0
*RES
1 *3845:X wbs_dat_o[12] 20.7821 
*END

*D_NET *75 0.00229041
*CONN
*P wbs_dat_o[13] O
*I *3846:X O *D sky130_fd_sc_hd__buf_12
*CAP
1 wbs_dat_o[13] 0.000323189
2 *3846:X 0.000323189
3 wbs_dat_o[13] *3690:A 0.000142856
4 wbs_dat_o[13] *3800:A 0.000314139
5 wbs_dat_o[13] *117:59 8.66821e-05
6 wbs_dat_o[13] *325:40 0.000741672
7 *3645:A wbs_dat_o[13] 0.000358683
8 *43:11 wbs_dat_o[13] 0
9 *44:7 wbs_dat_o[13] 0
*RES
1 *3846:X wbs_dat_o[13] 24.8893 
*END

*D_NET *76 0.0012918
*CONN
*P wbs_dat_o[14] O
*I *3847:X O *D sky130_fd_sc_hd__buf_12
*CAP
1 wbs_dat_o[14] 0.000296128
2 *3847:X 0.000296128
3 wbs_dat_o[14] *3690:A 6.73197e-05
4 wbs_dat_o[14] *3800:A 0.000192055
5 wbs_dat_o[14] *3846:A 0
6 wbs_dat_o[14] *214:16 0.000100625
7 wbs_dat_o[14] *225:14 0.000271352
8 wbs_dat_o[14] *325:40 3.92757e-05
9 wbs_dat_o[14] *336:36 2.89114e-05
10 *45:17 wbs_dat_o[14] 0
*RES
1 *3847:X wbs_dat_o[14] 21.4607 
*END

*D_NET *77 0.00196201
*CONN
*P wbs_dat_o[15] O
*I *3848:X O *D sky130_fd_sc_hd__buf_12
*CAP
1 wbs_dat_o[15] 0.000287881
2 *3848:X 0.000287881
3 wbs_dat_o[15] *3690:A 0.000139907
4 wbs_dat_o[15] *3803:A 5.33005e-05
5 wbs_dat_o[15] *3848:A 0.000182605
6 wbs_dat_o[15] *117:59 0.000649848
7 wbs_dat_o[15] *340:22 0.000202658
8 *3778:A wbs_dat_o[15] 0
9 *45:17 wbs_dat_o[15] 0.000157933
10 *46:7 wbs_dat_o[15] 0
*RES
1 *3848:X wbs_dat_o[15] 23.0321 
*END

*D_NET *78 0.00132318
*CONN
*P wbs_dat_o[16] O
*I *3849:X O *D sky130_fd_sc_hd__buf_12
*CAP
1 wbs_dat_o[16] 0.000305101
2 *3849:X 0.000305101
3 wbs_dat_o[16] *3725:A 0.000110358
4 wbs_dat_o[16] *3803:A 0.000189625
5 wbs_dat_o[16] *225:14 0.000269428
6 wbs_dat_o[16] *259:16 0.000143566
7 *46:7 wbs_dat_o[16] 0
8 *47:9 wbs_dat_o[16] 0
*RES
1 *3849:X wbs_dat_o[16] 21.4607 
*END

*D_NET *79 0.0015654
*CONN
*P wbs_dat_o[17] O
*I *3850:X O *D sky130_fd_sc_hd__buf_12
*CAP
1 wbs_dat_o[17] 0.000472943
2 *3850:X 0.000472943
3 wbs_dat_o[17] *117:59 1.10868e-05
4 wbs_dat_o[17] *340:22 7.72745e-05
5 wbs_dat_o[17] *342:20 0.00021768
6 *47:9 wbs_dat_o[17] 0
7 *48:9 wbs_dat_o[17] 0.000313474
*RES
1 *3850:X wbs_dat_o[17] 24.9607 
*END

*D_NET *80 0.00123564
*CONN
*P wbs_dat_o[18] O
*I *3851:X O *D sky130_fd_sc_hd__buf_12
*CAP
1 wbs_dat_o[18] 0.000370941
2 *3851:X 0.000370941
3 wbs_dat_o[18] *3714:A 5.55213e-05
4 wbs_dat_o[18] *159:18 2.03519e-05
5 wbs_dat_o[18] *225:14 0.000271352
6 wbs_dat_o[18] *259:16 0.000146533
7 *49:13 wbs_dat_o[18] 0
*RES
1 *3851:X wbs_dat_o[18] 21.4607 
*END

*D_NET *81 0.00147361
*CONN
*P wbs_dat_o[19] O
*I *3852:X O *D sky130_fd_sc_hd__buf_12
*CAP
1 wbs_dat_o[19] 0.000376354
2 *3852:X 0.000376354
3 wbs_dat_o[19] *117:59 7.85284e-05
4 wbs_dat_o[19] *325:56 0.000140088
5 wbs_dat_o[19] *342:20 0.000126639
6 *499:DIODE wbs_dat_o[19] 5.52302e-05
7 *49:13 wbs_dat_o[19] 9.3552e-05
8 *51:9 wbs_dat_o[19] 0.000226867
*RES
1 *3852:X wbs_dat_o[19] 22.425 
*END

*D_NET *82 0.000592014
*CONN
*P wbs_dat_o[1] O
*I *3853:X O *D sky130_fd_sc_hd__buf_12
*CAP
1 wbs_dat_o[1] 0.000174985
2 *3853:X 0.000174985
3 wbs_dat_o[1] *3598:A 4.78056e-05
4 wbs_dat_o[1] *3775:A 9.71197e-05
5 wbs_dat_o[1] *105:13 9.71197e-05
6 *50:13 wbs_dat_o[1] 0
*RES
1 *3853:X wbs_dat_o[1] 17.0857 
*END

*D_NET *83 0.00117022
*CONN
*P wbs_dat_o[20] O
*I *3854:X O *D sky130_fd_sc_hd__buf_12
*CAP
1 wbs_dat_o[20] 0.000411233
2 *3854:X 0.000411233
3 wbs_dat_o[20] *3696:A 0
4 wbs_dat_o[20] *3854:A 5.49544e-05
5 wbs_dat_o[20] *292:16 0.000273026
6 wbs_dat_o[20] *325:48 1.9774e-05
7 *51:9 wbs_dat_o[20] 0
8 *52:9 wbs_dat_o[20] 0
*RES
1 *3854:X wbs_dat_o[20] 21.4607 
*END

*D_NET *84 0.00155782
*CONN
*P wbs_dat_o[21] O
*I *3855:X O *D sky130_fd_sc_hd__buf_12
*CAP
1 wbs_dat_o[21] 0.000496975
2 *3855:X 0.000496975
3 wbs_dat_o[21] *410:DIODE 0
4 wbs_dat_o[21] *115:55 6.76699e-05
5 wbs_dat_o[21] *270:22 5.52302e-05
6 wbs_dat_o[21] *339:18 5.52302e-05
7 *52:9 wbs_dat_o[21] 0.000385738
8 *53:9 wbs_dat_o[21] 0
*RES
1 *3855:X wbs_dat_o[21] 24.8893 
*END

*D_NET *85 0.00291284
*CONN
*P wbs_dat_o[22] O
*I *3856:X O *D sky130_fd_sc_hd__buf_12
*CAP
1 wbs_dat_o[22] 0.000658803
2 *3856:X 0.000658803
3 wbs_dat_o[22] *422:DIODE 5.15282e-05
4 wbs_dat_o[22] *3728:A 0
5 wbs_dat_o[22] *3732:A 5.40681e-05
6 wbs_dat_o[22] *3808:A 0
7 wbs_dat_o[22] *3809:A 0.000273443
8 wbs_dat_o[22] *129:47 3.0725e-05
9 wbs_dat_o[22] *129:49 4.91698e-05
10 wbs_dat_o[22] *148:30 0.000229456
11 wbs_dat_o[22] *259:44 7.14469e-05
12 wbs_dat_o[22] *306:28 0.000110185
13 wbs_dat_o[22] *317:44 0.000705686
14 wbs_dat_o[22] *339:40 1.95266e-05
15 *53:9 wbs_dat_o[22] 0
16 *54:9 wbs_dat_o[22] 0
*RES
1 *3856:X wbs_dat_o[22] 30.425 
*END

*D_NET *86 0.00467728
*CONN
*P wbs_dat_o[23] O
*I *3857:X O *D sky130_fd_sc_hd__buf_12
*CAP
1 wbs_dat_o[23] 0.00161015
2 *3857:X 0.00161015
3 wbs_dat_o[23] wbs_dat_o[26] 9.83704e-05
4 wbs_dat_o[23] *276:24 0.000354511
5 wbs_dat_o[23] *325:68 0.00100411
6 *54:9 wbs_dat_o[23] 0
7 *55:9 wbs_dat_o[23] 0
*RES
1 *3857:X wbs_dat_o[23] 44.6929 
*END

*D_NET *87 0.00361784
*CONN
*P wbs_dat_o[24] O
*I *3858:X O *D sky130_fd_sc_hd__buf_12
*CAP
1 wbs_dat_o[24] 0.000801499
2 *3858:X 0.000801499
3 wbs_dat_o[24] wbs_dat_o[25] 0.000357054
4 wbs_dat_o[24] *459:DIODE 4.59798e-05
5 wbs_dat_o[24] *3812:A 5.76121e-05
6 wbs_dat_o[24] *115:43 5.03787e-05
7 wbs_dat_o[24] *132:51 6.59077e-05
8 wbs_dat_o[24] *276:24 0.000143625
9 wbs_dat_o[24] *281:42 0.000191774
10 wbs_dat_o[24] *292:20 0.000181803
11 wbs_dat_o[24] *305:8 0.000620829
12 wbs_dat_o[24] *347:16 0.000189832
13 *509:DIODE wbs_dat_o[24] 0
14 *55:9 wbs_dat_o[24] 0
15 *57:9 wbs_dat_o[24] 0.000110045
*RES
1 *3858:X wbs_dat_o[24] 42.0679 
*END

*D_NET *88 0.00162528
*CONN
*P wbs_dat_o[25] O
*I *3859:X O *D sky130_fd_sc_hd__buf_12
*CAP
1 wbs_dat_o[25] 0.000518088
2 *3859:X 0.000518088
3 wbs_dat_o[25] *449:DIODE 0
4 wbs_dat_o[25] *3859:A 0.00014183
5 wbs_dat_o[25] *117:57 0
6 wbs_dat_o[25] *276:24 0
7 wbs_dat_o[25] *305:8 9.02232e-05
8 wbs_dat_o[24] wbs_dat_o[25] 0.000357054
9 *56:9 wbs_dat_o[25] 0
10 *57:9 wbs_dat_o[25] 0
*RES
1 *3859:X wbs_dat_o[25] 23.925 
*END

*D_NET *89 0.00192936
*CONN
*P wbs_dat_o[26] O
*I *3860:X O *D sky130_fd_sc_hd__buf_12
*CAP
1 wbs_dat_o[26] 0.000823756
2 *3860:X 0.000823756
3 wbs_dat_o[26] *227:18 0
4 wbs_dat_o[26] *317:44 0.000183477
5 wbs_dat_o[26] *325:68 0
6 wbs_dat_o[23] wbs_dat_o[26] 9.83704e-05
7 *57:9 wbs_dat_o[26] 0
*RES
1 *3860:X wbs_dat_o[26] 28.4429 
*END

*D_NET *90 0.00240154
*CONN
*P wbs_dat_o[27] O
*I *3861:X O *D sky130_fd_sc_hd__buf_12
*CAP
1 wbs_dat_o[27] 0.000725661
2 *3861:X 0.000725661
3 wbs_dat_o[27] *474:DIODE 0
4 wbs_dat_o[27] *3861:A 0.00040279
5 *3:17 wbs_dat_o[27] 0.000547428
6 *59:9 wbs_dat_o[27] 0
*RES
1 *3861:X wbs_dat_o[27] 27.6036 
*END

*D_NET *91 0.00134434
*CONN
*P wbs_dat_o[28] O
*I *3862:X O *D sky130_fd_sc_hd__buf_12
*CAP
1 wbs_dat_o[28] 0.000425637
2 *3862:X 0.000425637
3 wbs_dat_o[28] *3655:A 1.3142e-05
4 wbs_dat_o[28] *115:31 9.25014e-06
5 wbs_dat_o[28] *117:33 0.000142856
6 wbs_dat_o[28] *353:14 5.49544e-05
7 *515:DIODE wbs_dat_o[28] 3.08664e-05
8 *59:9 wbs_dat_o[28] 0.000125371
9 *60:11 wbs_dat_o[28] 0.000116625
*RES
1 *3862:X wbs_dat_o[28] 23.0321 
*END

*D_NET *92 0.000942766
*CONN
*P wbs_dat_o[29] O
*I *3863:X O *D sky130_fd_sc_hd__buf_12
*CAP
1 wbs_dat_o[29] 0.000452302
2 *3863:X 0.000452302
3 wbs_dat_o[29] *3692:A 0
4 wbs_dat_o[29] *3863:A 2.89114e-05
5 wbs_dat_o[29] *309:10 9.25014e-06
6 *62:5 wbs_dat_o[29] 0
*RES
1 *3863:X wbs_dat_o[29] 21.4607 
*END

*D_NET *93 0.00110072
*CONN
*P wbs_dat_o[2] O
*I *3864:X O *D sky130_fd_sc_hd__buf_12
*CAP
1 wbs_dat_o[2] 0.000314412
2 *3864:X 0.000314412
3 wbs_dat_o[2] *3832:A 0.000197984
4 wbs_dat_o[2] *3842:A 0.000136958
5 wbs_dat_o[2] *105:13 0
6 wbs_dat_o[2] *170:32 0.000136958
7 *31:9 wbs_dat_o[2] 0
8 *61:11 wbs_dat_o[2] 0
*RES
1 *3864:X wbs_dat_o[2] 20.2286 
*END

*D_NET *94 0.00128954
*CONN
*P wbs_dat_o[30] O
*I *3865:X O *D sky130_fd_sc_hd__buf_12
*CAP
1 wbs_dat_o[30] 0.000413949
2 *3865:X 0.000413949
3 wbs_dat_o[30] *356:14 0.000242137
4 *518:DIODE wbs_dat_o[30] 2.44318e-05
5 *60:11 wbs_dat_o[30] 5.33433e-05
6 *62:5 wbs_dat_o[30] 0
7 *63:9 wbs_dat_o[30] 0.000141734
*RES
1 *3865:X wbs_dat_o[30] 22.2107 
*END

*D_NET *95 0.00092944
*CONN
*P wbs_dat_o[31] O
*I *3866:X O *D sky130_fd_sc_hd__buf_12
*CAP
1 wbs_dat_o[31] 0.00046472
2 *3866:X 0.00046472
*RES
1 *3866:X wbs_dat_o[31] 21.4607 
*END

*D_NET *96 0.0012734
*CONN
*P wbs_dat_o[3] O
*I *3867:X O *D sky130_fd_sc_hd__buf_12
*CAP
1 wbs_dat_o[3] 0.000444981
2 *3867:X 0.000444981
3 wbs_dat_o[3] *3750:A 0.000104461
4 wbs_dat_o[3] *3842:A 0.000139491
5 wbs_dat_o[3] *3864:A 0.000139491
*RES
1 *3867:X wbs_dat_o[3] 20.2286 
*END

*D_NET *97 0.00126402
*CONN
*P wbs_dat_o[4] O
*I *3868:X O *D sky130_fd_sc_hd__buf_12
*CAP
1 wbs_dat_o[4] 0.000425895
2 *3868:X 0.000425895
3 wbs_dat_o[4] *3868:A 6.81786e-05
4 wbs_dat_o[4] *115:71 0.00012783
5 wbs_dat_o[4] *324:18 3.63775e-05
6 wbs_dat_o[4] *326:14 2.11419e-05
7 wbs_dat_o[4] *334:34 0.0001587
8 *33:9 wbs_dat_o[4] 0
9 *65:5 wbs_dat_o[4] 0
*RES
1 *3868:X wbs_dat_o[4] 21.4607 
*END

*D_NET *98 0.00138823
*CONN
*P wbs_dat_o[5] O
*I *3869:X O *D sky130_fd_sc_hd__buf_12
*CAP
1 wbs_dat_o[5] 0.000233319
2 *3869:X 0.000233319
3 wbs_dat_o[5] *323:22 2.28598e-05
4 wbs_dat_o[5] *325:24 0.000487473
5 *34:5 wbs_dat_o[5] 0
6 *66:5 wbs_dat_o[5] 0
7 *67:17 wbs_dat_o[5] 0.000411264
*RES
1 *3869:X wbs_dat_o[5] 20.7821 
*END

*D_NET *99 0.00147699
*CONN
*P wbs_dat_o[6] O
*I *3870:X O *D sky130_fd_sc_hd__buf_12
*CAP
1 wbs_dat_o[6] 0.00042012
2 *3870:X 0.00042012
3 wbs_dat_o[6] *3870:A 0.000186669
4 wbs_dat_o[6] *117:79 6.59074e-05
5 wbs_dat_o[6] *324:18 0
6 wbs_dat_o[6] *336:36 0.000111805
7 *3681:A wbs_dat_o[6] 0.000272371
8 *34:5 wbs_dat_o[6] 0
9 *35:9 wbs_dat_o[6] 0
10 *67:17 wbs_dat_o[6] 0
*RES
1 *3870:X wbs_dat_o[6] 22.6929 
*END

*D_NET *100 0.0012409
*CONN
*P wbs_dat_o[7] O
*I *3871:X O *D sky130_fd_sc_hd__buf_12
*CAP
1 wbs_dat_o[7] 0.000407628
2 *3871:X 0.000407628
3 wbs_dat_o[7] *3745:A 0.000188311
4 wbs_dat_o[7] *323:22 9.47613e-05
5 *36:9 wbs_dat_o[7] 0.000142575
6 *68:9 wbs_dat_o[7] 0
7 *69:9 wbs_dat_o[7] 0
*RES
1 *3871:X wbs_dat_o[7] 20.7464 
*END

*D_NET *101 0.00131526
*CONN
*P wbs_dat_o[8] O
*I *3872:X O *D sky130_fd_sc_hd__buf_12
*CAP
1 wbs_dat_o[8] 0.000362673
2 *3872:X 0.000362673
3 wbs_dat_o[8] *323:22 0.000113083
4 wbs_dat_o[8] *364:34 6.02288e-05
5 *3679:A wbs_dat_o[8] 0.000317831
6 *69:9 wbs_dat_o[8] 0
7 *70:9 wbs_dat_o[8] 9.87672e-05
*RES
1 *3872:X wbs_dat_o[8] 21.1929 
*END

*D_NET *102 0.00263385
*CONN
*P wbs_dat_o[9] O
*I *3873:X O *D sky130_fd_sc_hd__buf_12
*CAP
1 wbs_dat_o[9] 0.000496279
2 *3873:X 0.000496279
3 wbs_dat_o[9] *3730:A 0.000271345
4 wbs_dat_o[9] *323:22 0.000208023
5 *495:DIODE wbs_dat_o[9] 0.000135028
6 *3648:A wbs_dat_o[9] 0
7 *3679:A wbs_dat_o[9] 0.000399169
8 *7:21 wbs_dat_o[9] 0.000269422
9 *37:5 wbs_dat_o[9] 0
10 *70:9 wbs_dat_o[9] 0.000358306
*RES
1 *3873:X wbs_dat_o[9] 26.5321 
*END

*D_NET *103 0.00253431
*CONN
*P wbs_sel_i[0] I
*I *3771:A I *D sky130_fd_sc_hd__dlygate4sd3_1
*I *532:DIODE I *D sky130_fd_sc_hd__diode_2
*CAP
1 wbs_sel_i[0] 0.000562413
2 *3771:A 0.000139545
3 *532:DIODE 0
4 *103:11 0.000701958
5 *3771:A *300:14 0.000170964
6 *103:11 *3761:A 0
7 *103:11 *3768:A 0.000103267
8 *103:11 *3772:A 0.000427395
9 *103:11 *3777:A 0.000147474
10 *103:11 *3830:A 0.000217182
11 *103:11 *147:26 2.34204e-05
12 *103:11 *317:24 0
13 wbs_dat_o[0] *103:11 0
14 *517:DIODE *103:11 4.06875e-05
15 *50:13 *103:11 0
*RES
1 wbs_sel_i[0] *103:11 17.5179 
2 *103:11 *532:DIODE 9.3 
3 *103:11 *3771:A 12.3 
*END

*D_NET *104 0.00406266
*CONN
*P wbs_sel_i[1] I
*I *3767:A I *D sky130_fd_sc_hd__dlygate4sd3_1
*I *531:DIODE I *D sky130_fd_sc_hd__diode_2
*CAP
1 wbs_sel_i[1] 0.000354581
2 *3767:A 0.000670687
3 *531:DIODE 0.000101569
4 *104:9 0.00112684
5 *531:DIODE *329:24 0.000138571
6 *3767:A *3765:A 0.000144074
7 *3767:A *3775:A 0.000133274
8 *3767:A *3824:A 0.000102197
9 *3767:A *3831:A 0.000623187
10 *3767:A *3835:A 0.00028692
11 *104:9 *3775:A 0.000257776
12 *104:9 *3831:A 5.05056e-05
13 *104:9 *343:22 6.15978e-05
14 *510:DIODE *3767:A 1.08847e-05
*RES
1 wbs_sel_i[1] *104:9 6.64286 
2 *104:9 *531:DIODE 15.1571 
3 *104:9 *3767:A 28.7286 
*END

*D_NET *105 0.00471449
*CONN
*P wbs_sel_i[2] I
*I *533:DIODE I *D sky130_fd_sc_hd__diode_2
*I *3774:A I *D sky130_fd_sc_hd__dlygate4sd3_1
*CAP
1 wbs_sel_i[2] 0.00112611
2 *533:DIODE 0
3 *3774:A 0.000159185
4 *105:13 0.00128529
5 *3774:A *3772:A 0.000142856
6 *3774:A *147:26 0.000360293
7 *105:13 *3750:A 0.000228558
8 *105:13 *3775:A 0.000264628
9 *105:13 *3833:A 7.77652e-05
10 *105:13 *323:14 0.000244093
11 *105:13 *343:22 5.65955e-05
12 wbs_dat_o[1] *105:13 9.71197e-05
13 wbs_dat_o[2] *105:13 0
14 *514:DIODE *3774:A 0.000133238
15 *31:9 *105:13 0
16 *50:13 *3774:A 5.13005e-05
17 *50:13 *105:13 0.00048746
*RES
1 wbs_sel_i[2] *105:13 24.3571 
2 *105:13 *3774:A 14.5143 
3 *105:13 *533:DIODE 9.3 
*END

*D_NET *106 0.00627597
*CONN
*P wbs_sel_i[3] I
*I *534:DIODE I *D sky130_fd_sc_hd__diode_2
*I *3777:A I *D sky130_fd_sc_hd__dlygate4sd3_1
*CAP
1 wbs_sel_i[3] 0.000299928
2 *534:DIODE 6.51712e-05
3 *3777:A 0.000453377
4 *106:9 0.000818476
5 *3777:A *147:26 0.000534229
6 *3777:A *330:28 0.00113479
7 *106:9 *330:28 0.00142371
8 *3682:A *534:DIODE 4.15914e-05
9 *3682:A *106:9 0.00134942
10 *32:7 *106:9 0
11 *61:11 *534:DIODE 7.80714e-06
12 *103:11 *3777:A 0.000147474
*RES
1 wbs_sel_i[3] *106:9 19 
2 *106:9 *3777:A 31.05 
3 *106:9 *534:DIODE 19.6393 
*END

*D_NET *107 0.0010331
*CONN
*P wbs_stb_i I
*I *3834:A I *D sky130_fd_sc_hd__buf_2
*I *540:DIODE I *D sky130_fd_sc_hd__diode_2
*CAP
1 wbs_stb_i 0.000348831
2 *3834:A 7.36216e-05
3 *540:DIODE 0
4 *107:7 0.000422453
5 *107:7 *108:13 0
6 *107:7 *327:18 2.34858e-05
7 *538:DIODE *107:7 2.41421e-05
8 *3686:A *107:7 0
9 *38:9 *107:7 0.000140564
*RES
1 wbs_stb_i *107:7 11.3929 
2 *107:7 *540:DIODE 9.3 
3 *107:7 *3834:A 10.5679 
*END

*D_NET *108 0.00348305
*CONN
*P wbs_we_i I
*I *541:DIODE I *D sky130_fd_sc_hd__diode_2
*I *3836:A I *D sky130_fd_sc_hd__buf_2
*CAP
1 wbs_we_i 0.000529654
2 *541:DIODE 0.000343517
3 *3836:A 0.000105935
4 *108:13 0.000979106
5 *541:DIODE *3770:A 0.000119048
6 *541:DIODE *3807:A 7.76132e-05
7 *3836:A *3761:A 0.000347598
8 *3836:A *170:32 0.00026855
9 *108:13 *147:26 7.83543e-05
10 *514:DIODE *108:13 4.68038e-05
11 *3686:A *108:13 0.000119625
12 *28:17 *108:13 0.000160362
13 *39:9 *541:DIODE 0.000187147
14 *39:9 *108:13 0.000119738
15 *107:7 *108:13 0
*RES
1 wbs_we_i *108:13 18.0179 
2 *108:13 *3836:A 17.7643 
3 *108:13 *541:DIODE 20.6036 
*END

*D_NET *109 0.00583003
*CONN
*I *3632:RESET_B I *D sky130_fd_sc_hd__dfrtp_1
*I *3598:Y O *D sky130_fd_sc_hd__inv_2
*CAP
1 *3632:RESET_B 0.00144821
2 *3598:Y 0.00144821
3 *3632:RESET_B *389:DIODE 0.0001384
4 *3632:RESET_B *390:DIODE 4.39995e-05
5 *3632:RESET_B *3603:D 9.71197e-05
6 *3632:RESET_B *3750:A 9.76435e-06
7 *3632:RESET_B *3763:A 0.000440239
8 *3632:RESET_B *3775:A 0.000438359
9 *3632:RESET_B *3825:A 5.33005e-05
10 *3632:RESET_B *3838:A 0.000386359
11 *3632:RESET_B *3864:A 1.95625e-05
12 *3632:RESET_B *144:31 0.000479658
13 *3632:RESET_B *145:28 4.50774e-05
14 *3632:RESET_B *327:38 6.10463e-05
15 *3632:RESET_B *329:24 0.00042912
16 *3632:RESET_B *330:16 0.000144452
17 *3632:RESET_B *333:20 0.00013029
18 *507:DIODE *3632:RESET_B 8.43535e-06
19 *3685:A *3632:RESET_B 8.43535e-06
*RES
1 *3598:Y *3632:RESET_B 44.7375 
*END

*D_NET *110 0.0469063
*CONN
*I *3635:A I *D sky130_fd_sc_hd__clkbuf_16
*I *3634:A I *D sky130_fd_sc_hd__clkbuf_16
*I *3633:X O *D sky130_fd_sc_hd__clkbuf_16
*CAP
1 *3635:A 0
2 *3634:A 0.000235246
3 *3633:X 0.000424327
4 *110:35 0.000740731
5 *110:16 0.00311748
6 *110:14 0.00288223
7 *110:12 0.00228581
8 *110:10 0.00255074
9 *110:6 0.00142999
10 *3634:A *3709:A 0.000145194
11 *110:12 *3776:A 0.00137419
12 *110:12 *133:25 0.000429428
13 *110:12 *190:16 0.000202835
14 *110:12 *195:16 0.000413377
15 *110:12 *244:44 3.42552e-05
16 *110:12 *317:68 0.0041189
17 *110:12 *317:83 0.000242594
18 *110:12 *325:70 0.00728802
19 *110:12 *361:54 0.00197961
20 *110:12 *361:56 7.99721e-05
21 *110:16 *114:21 0.000603088
22 *110:16 *144:21 0.00158932
23 *110:16 *146:14 0.000477562
24 *110:16 *153:20 1.51489e-05
25 *110:16 *166:14 0.00417257
26 *110:16 *171:18 0.00426524
27 *110:16 *308:14 0.000224348
28 *110:35 *3781:vpwrpc 0.000396192
29 *110:35 *112:8 8.80543e-05
30 *110:35 *212:10 0.00052484
31 *110:35 *219:50 0.00188177
32 *110:35 *226:10 0.00244402
33 *110:35 *239:8 1.74766e-05
34 *3:17 *110:12 0.000231739
*RES
1 *3633:X *110:6 13.5321 
2 *110:6 *110:10 7.08929 
3 *110:10 *110:12 100.911 
4 *110:12 *110:14 4.5 
5 *110:14 *110:16 82.2679 
6 *110:16 *3634:A 22.3714 
7 *110:6 *110:35 41.8571 
8 *110:35 *3635:A 9.3 
*END

*D_NET *111 0.012236
*CONN
*I *3636:A I *D sky130_fd_sc_hd__clkinv_16
*I *3632:CLK I *D sky130_fd_sc_hd__dfrtp_1
*I *3634:X O *D sky130_fd_sc_hd__clkbuf_16
*CAP
1 *3636:A 0.000203727
2 *3632:CLK 3.85478e-05
3 *3634:X 1.64323e-05
4 *111:14 0.00123971
5 *111:12 0.00187087
6 *111:8 0.000889864
7 *3632:CLK *3838:A 0
8 *3632:CLK *331:24 2.71149e-05
9 *3636:A *192:28 0
10 *3636:A *316:26 4.96254e-05
11 *111:8 *327:73 9.90431e-05
12 *111:8 *329:80 9.90431e-05
13 *111:12 *3689:A 0
14 *111:12 *3710:A 4.05401e-05
15 *111:12 *3769:A 0
16 *111:12 *164:22 0.000169463
17 *111:12 *192:16 0
18 *111:12 *192:28 0
19 *111:12 *258:18 6.09762e-05
20 *111:14 *3710:A 5.47257e-05
21 *111:14 *3796:A 3.82242e-05
22 *111:14 *3797:A 5.5671e-05
23 *111:14 *3802:A 2.59355e-05
24 *111:14 *3844:A 0.00131358
25 *111:14 *145:24 0.000226271
26 *111:14 *148:16 0.000194265
27 *111:14 *181:46 0.000333485
28 *111:14 *192:16 0.00128597
29 *111:14 *306:8 0.000139907
30 *111:14 *317:42 0.00247441
31 *111:14 *333:20 1.21289e-05
32 *111:14 *350:14 0.00013886
33 *111:14 *364:18 0.000398297
34 *111:14 *364:34 0.000261236
35 *521:DIODE *111:14 0.000139913
36 *3647:A *111:14 2.89114e-05
37 *3683:A *111:14 0.000309266
*RES
1 *3634:X *111:8 14.7464 
2 *111:8 *111:12 14.6429 
3 *111:12 *111:14 45.7143 
4 *111:14 *3632:CLK 19.0321 
5 *111:8 *3636:A 7.9375 
*END

*D_NET *112 0.0184338
*CONN
*I *3781:CLKin I *D CF_SRAM_1024x32
*I *3635:X O *D sky130_fd_sc_hd__clkbuf_16
*CAP
1 *3781:CLKin 0.000310641
2 *3635:X 0.00106856
3 *112:10 0.00169899
4 *112:8 0.00245691
5 *3781:CLKin *3781:BEN[17] 0
6 *3781:CLKin *3781:DI[17] 0
7 *112:8 *3781:DI[3] 9.7616e-05
8 *112:10 *3781:DI[17] 0.00311754
9 *112:10 *123:21 0.00121396
10 *112:10 *124:11 0.00188979
11 *112:10 *132:11 0.00624604
12 *112:10 *155:10 0
13 *112:10 *164:52 0.000245749
14 *110:35 *112:8 8.80543e-05
*RES
1 *3635:X *112:8 26.6571 
2 *112:8 *112:10 77.5357 
3 *112:10 *3781:CLKin 9.67857 
*END

*D_NET *113 0.0798046
*CONN
*I *384:DIODE I *D sky130_fd_sc_hd__diode_2
*I *3626:D I *D sky130_fd_sc_hd__and4b_1
*I *403:DIODE I *D sky130_fd_sc_hd__diode_2
*I *3781:DO[0] O *D CF_SRAM_1024x32
*CAP
1 *384:DIODE 0
2 *3626:D 0.000137971
3 *403:DIODE 0.000382967
4 *3781:DO[0] 0.0020046
5 *113:43 0.00274847
6 *113:31 0.00729806
7 *113:29 0.00507053
8 *113:27 0.00189654
9 *113:11 0.00550974
10 *113:9 0.0056178
11 *403:DIODE *3628:A_N 6.39932e-05
12 *403:DIODE *3825:A 7.61586e-05
13 *403:DIODE *124:25 3.06466e-05
14 *403:DIODE *141:19 6.71885e-05
15 *403:DIODE *145:24 0.000263402
16 *403:DIODE *181:28 6.90187e-05
17 *403:DIODE *181:46 9.54798e-06
18 *403:DIODE *317:24 4.81936e-05
19 *403:DIODE *331:24 0
20 *403:DIODE *350:14 0.000164936
21 *3626:D *124:25 0.000187316
22 *3626:D *312:32 0.000102312
23 *3626:D *312:40 1.98839e-05
24 *3626:D *366:145 0.000166445
25 *113:9 *3781:ScanInDL 0
26 *113:9 *3781:ScanInCC 0
27 *113:9 *3781:DI[0] 2.52026e-05
28 *113:11 *120:18 0.0138387
29 *113:11 *121:22 7.31533e-05
30 *113:11 *135:21 0.00248789
31 *113:11 *137:13 0
32 *113:11 *141:11 0.000248
33 *113:11 *157:16 0.0125059
34 *113:27 *3752:A 0.000774105
35 *113:27 *121:34 0.00243817
36 *113:27 *129:45 4.99113e-05
37 *113:27 *141:19 0.00235439
38 *113:27 *258:30 0
39 *113:27 *361:46 4.31358e-05
40 *113:27 *372:14 0.00240061
41 *113:31 *120:56 0.000519388
42 *113:31 *135:29 0.000599487
43 *113:31 *320:22 0.00316218
44 *113:31 *341:18 0.000859212
45 *113:31 *361:34 0.00204237
46 *113:43 *135:29 0.000124728
47 *113:43 *145:24 2.14757e-05
48 *113:43 *312:40 0.000110633
49 *113:43 *318:8 0.0030008
50 *113:43 *367:49 0.000189527
*RES
1 *3781:DO[0] *113:9 31.9375 
2 *113:9 *113:11 176.804 
3 *113:11 *113:27 47.0258 
4 *113:27 *113:29 4.5 
5 *113:29 *113:31 72 
6 *113:31 *113:43 41.9286 
7 *113:43 *403:DIODE 29.94 
8 *113:43 *3626:D 13.2688 
9 *113:43 *384:DIODE 9.3 
*END

*D_NET *114 0.065378
*CONN
*I *414:DIODE I *D sky130_fd_sc_hd__diode_2
*I *3604:D I *D sky130_fd_sc_hd__and4b_1
*I *3781:DO[10] O *D CF_SRAM_1024x32
*CAP
1 *414:DIODE 0
2 *3604:D 0.000189163
3 *3781:DO[10] 0.00221888
4 *114:21 0.00877134
5 *114:13 0.00982046
6 *114:11 0.00345716
7 *3604:D *116:23 0
8 *3604:D *170:42 0.000137336
9 *3604:D *300:22 0.00025494
10 *3604:D *327:63 1.90936e-05
11 *3604:D *337:20 0.000189147
12 *3604:D *369:24 0.000190547
13 *114:11 *3781:BEN[9] 0
14 *114:11 *3781:DI[10] 4.28927e-06
15 *114:13 *311:10 0.00545739
16 *114:13 *314:10 0.00545739
17 *114:21 *116:23 0
18 *114:21 *118:13 0.000104613
19 *114:21 *139:19 0.0163769
20 *114:21 *143:59 7.51746e-05
21 *114:21 *144:21 0.000231426
22 *114:21 *146:14 0.0104674
23 *114:21 *153:20 0.000111763
24 *114:21 *157:14 0.000496533
25 *114:21 *171:18 0.000442876
26 *114:21 *300:22 0.000104974
27 *114:21 *316:26 0.000196171
28 *114:21 *327:63 0
29 *114:21 *371:31 0
30 *110:16 *114:21 0.000603088
*RES
1 *3781:DO[10] *114:11 34.6161 
2 *114:11 *114:13 68.5804 
3 *114:13 *114:21 41.2708 
4 *114:21 *3604:D 19.1437 
5 *114:21 *414:DIODE 13.8 
*END

*D_NET *115 0.0587513
*CONN
*I *3605:D I *D sky130_fd_sc_hd__and4b_1
*I *425:DIODE I *D sky130_fd_sc_hd__diode_2
*I *436:DIODE I *D sky130_fd_sc_hd__diode_2
*I *3781:DO[11] O *D CF_SRAM_1024x32
*CAP
1 *3605:D 0.000293272
2 *425:DIODE 0
3 *436:DIODE 1.31014e-05
4 *3781:DO[11] 0.00238072
5 *115:73 0.000178508
6 *115:71 0.00234059
7 *115:57 0.00862347
8 *115:55 0.00720776
9 *115:43 0.00164946
10 *115:31 0.00272274
11 *115:25 0.0039202
12 *436:DIODE *327:38 9.91033e-05
13 *3605:D *3603:B 1.14548e-05
14 *3605:D *3603:D 6.79842e-05
15 *3605:D *3605:C 1.02504e-05
16 *3605:D *3822:A 2.3541e-05
17 *3605:D *170:42 0.000102897
18 *3605:D *336:28 1.71615e-05
19 *115:25 *3781:DI[12] 0.000116612
20 *115:25 *3781:DI[11] 0.000234554
21 *115:25 *3781:vpwrpc 0.00169382
22 *115:25 *3781:vpwrac 0.00169817
23 *115:25 *116:11 0.000261849
24 *115:25 *130:33 0.000384332
25 *115:25 *219:50 0.0002652
26 *115:25 *241:98 0.000310332
27 *115:25 *241:126 4.3588e-05
28 *115:25 *244:46 0.000113059
29 *115:31 *3655:A 0.000512054
30 *115:31 *3746:A 0.000333765
31 *115:31 *117:33 0.000394307
32 *115:31 *134:11 0.00151527
33 *115:31 *305:12 0.00050657
34 *115:31 *305:14 0.00150403
35 *115:31 *306:38 9.32491e-05
36 *115:31 *308:16 0.000172717
37 *115:43 *449:DIODE 0.000137561
38 *115:43 *3857:A 0.000630671
39 *115:43 *117:33 0.000534216
40 *115:43 *117:57 0.00107489
41 *115:43 *270:34 6.25878e-05
42 *115:43 *276:24 0.000175892
43 *115:43 *325:56 3.30237e-05
44 *115:55 *410:DIODE 0
45 *115:55 *270:34 0.000853981
46 *115:55 *292:16 0.000235449
47 *115:57 *117:59 0.00747613
48 *115:57 *323:14 7.86048e-05
49 *115:57 *323:22 0.000185349
50 *115:57 *324:26 0.00221617
51 *115:57 *326:14 0.00024142
52 *115:71 *3607:D 3.22304e-05
53 *115:71 *3708:A 7.6644e-05
54 *115:71 *3842:A 0.000819443
55 *115:71 *3864:A 8.18783e-05
56 *115:71 *117:79 0.000437091
57 *115:71 *117:87 0.000188068
58 *115:71 *170:42 0.000137475
59 *115:71 *324:18 5.1005e-05
60 *115:73 *327:38 0.000252368
61 wbs_dat_o[21] *115:55 6.76699e-05
62 wbs_dat_o[24] *115:43 5.03787e-05
63 wbs_dat_o[28] *115:31 9.25014e-06
64 wbs_dat_o[4] *115:71 0.00012783
65 *506:DIODE *115:55 0.000140933
66 *508:DIODE *115:43 0.000255062
67 *509:DIODE *115:43 0.000150618
68 *511:DIODE *3605:D 9.63157e-05
69 *513:DIODE *115:43 0.000114893
70 *3667:A *115:43 0.000232317
71 *3685:A *436:DIODE 0.00010096
72 *3685:A *3605:D 1.38323e-05
73 *3685:A *115:73 0.000478619
74 *31:9 *115:71 0
75 *34:5 *115:71 3.69697e-05
76 *52:9 *115:55 0.000230475
77 *54:9 *115:43 0.000490416
78 *56:9 *115:43 0.000224692
79 *59:9 *115:43 0.000102207
*RES
1 *3781:DO[11] *115:25 44.7941 
2 *115:25 *115:31 47.0804 
3 *115:31 *115:43 49.7857 
4 *115:43 *115:55 21.375 
5 *115:55 *115:57 96.6429 
6 *115:57 *115:71 43.7857 
7 *115:71 *115:73 4.64286 
8 *115:73 *436:DIODE 10.2464 
9 *115:73 *425:DIODE 9.3 
10 *115:71 *3605:D 23.483 
*END

*D_NET *116 0.0459887
*CONN
*I *458:DIODE I *D sky130_fd_sc_hd__diode_2
*I *3606:D I *D sky130_fd_sc_hd__and4b_2
*I *447:DIODE I *D sky130_fd_sc_hd__diode_2
*I *3781:DO[12] O *D CF_SRAM_1024x32
*CAP
1 *458:DIODE 0
2 *3606:D 3.90716e-05
3 *447:DIODE 0.000274799
4 *3781:DO[12] 0.000560773
5 *116:27 0.00038569
6 *116:23 0.000627209
7 *116:15 0.00389437
8 *116:13 0.00333898
9 *116:11 0.00101116
10 *116:9 0.00157193
11 *447:DIODE *3603:B 0
12 *447:DIODE *3607:A_N 0.000171375
13 *447:DIODE *3832:A 5.52238e-05
14 *447:DIODE *278:22 0.000198827
15 *447:DIODE *327:38 0.000471022
16 *447:DIODE *370:38 4.98055e-06
17 *447:DIODE *370:44 6.8646e-06
18 *3606:D *336:28 9.60939e-05
19 *3606:D *366:42 9.80173e-05
20 *3606:D *370:38 4.11173e-05
21 *116:9 *3781:DI[12] 0
22 *116:11 *3781:DI[12] 0.000642238
23 *116:11 *118:11 0.00218653
24 *116:11 *129:19 4.11401e-05
25 *116:11 *130:33 0.000260433
26 *116:11 *143:49 0.00300365
27 *116:11 *182:32 0.000321063
28 *116:15 *118:13 0.0161646
29 *116:15 *124:25 0.000593663
30 *116:15 *139:19 0.00162783
31 *116:15 *145:61 0.000377034
32 *116:15 *145:63 0.00236736
33 *116:15 *162:20 0.00396442
34 *116:15 *303:32 0.000211746
35 *116:15 *361:46 0.000555474
36 *116:23 *3604:A_N 2.03997e-05
37 *116:23 *3608:D 0
38 *116:23 *3609:C 5.33005e-05
39 *116:23 *143:59 0
40 *116:23 *144:25 0
41 *116:23 *327:38 4.98686e-05
42 *116:23 *327:63 6.2589e-06
43 *116:23 *337:20 1.21258e-05
44 *116:23 *368:10 9.7632e-05
45 *116:23 *368:14 2.95642e-05
46 *116:23 *369:12 0.000138916
47 *116:27 *327:38 6.98101e-05
48 *116:27 *368:14 7.14469e-05
49 *116:27 *370:38 1.28443e-05
50 *3604:D *116:23 0
51 *114:21 *116:23 0
52 *115:25 *116:11 0.000261849
*RES
1 *3781:DO[12] *116:9 12.3125 
2 *116:9 *116:11 46.875 
3 *116:11 *116:13 4.5 
4 *116:13 *116:15 152.911 
5 *116:15 *116:23 19.1786 
6 *116:23 *116:27 5.99107 
7 *116:27 *447:DIODE 21.8625 
8 *116:27 *3606:D 15.3268 
9 *116:23 *458:DIODE 9.3 
*END

*D_NET *117 0.0530299
*CONN
*I *3607:D I *D sky130_fd_sc_hd__and4b_2
*I *469:DIODE I *D sky130_fd_sc_hd__diode_2
*I *3781:DO[13] O *D CF_SRAM_1024x32
*CAP
1 *3607:D 0.000242885
2 *469:DIODE 0
3 *3781:DO[13] 0.00161959
4 *117:87 0.00172421
5 *117:79 0.0030437
6 *117:59 0.0030931
7 *117:57 0.00433955
8 *117:33 0.00417492
9 *117:25 0.00205796
10 *117:17 0.00231146
11 *3607:D *3605:A_N 0.000171375
12 *3607:D *3607:C 5.52238e-05
13 *3607:D *3832:A 4.92349e-05
14 *3607:D *170:42 9.10033e-05
15 *3607:D *327:38 0
16 *3607:D *370:38 1.76135e-05
17 *3607:D *370:44 8.68665e-05
18 *117:17 *3751:A 0.000143652
19 *117:17 *3781:DI[14] 1.41029e-05
20 *117:17 *3781:DI[13] 0
21 *117:17 *258:52 5.01876e-06
22 *117:17 *258:56 0.00144077
23 *117:17 *281:70 3.57366e-05
24 *117:17 *281:72 0.00142904
25 *117:25 *3751:A 0.0001973
26 *117:25 *119:13 0.000970838
27 *117:25 *281:70 0.000900334
28 *117:25 *301:18 0.000224174
29 *117:25 *302:20 2.44318e-05
30 *117:25 *304:18 3.01408e-05
31 *117:33 *270:36 0.0018415
32 *117:33 *308:16 0.000517846
33 *117:33 *353:14 0
34 *117:57 *410:DIODE 8.93462e-05
35 *117:57 *434:DIODE 2.89114e-05
36 *117:57 *459:DIODE 1.95005e-05
37 *117:57 *3728:A 8.76251e-05
38 *117:57 *3732:A 0.000416683
39 *117:57 *325:56 8.63704e-05
40 *117:59 *3690:A 5.65028e-05
41 *117:59 *3701:A 0.000621156
42 *117:59 *3728:A 6.97409e-05
43 *117:59 *3800:A 0.000313007
44 *117:59 *3803:A 0.000235242
45 *117:59 *323:22 0.00124213
46 *117:59 *326:14 0.000388803
47 *117:59 *340:22 0.000379502
48 *117:59 *342:20 0.0011712
49 *117:79 *3697:A 5.71472e-05
50 *117:79 *3739:A 0.000121248
51 *117:79 *3828:A 5.17614e-05
52 *117:79 *3843:A 0.000187004
53 *117:79 *3844:A 4.13122e-06
54 *117:79 *3870:A 0.000345089
55 *117:79 *321:16 0.00113665
56 *117:79 *324:18 9.35794e-06
57 *117:79 *336:36 0.000287791
58 *117:87 *3833:A 0.000120177
59 *117:87 *323:14 0.0018743
60 wbs_dat_o[13] *117:59 8.66821e-05
61 wbs_dat_o[15] *117:59 0.000649848
62 wbs_dat_o[17] *117:59 1.10868e-05
63 wbs_dat_o[19] *117:59 7.85284e-05
64 wbs_dat_o[25] *117:57 0
65 wbs_dat_o[28] *117:33 0.000142856
66 wbs_dat_o[6] *117:79 6.59074e-05
67 *501:DIODE *117:59 0.000193804
68 *522:DIODE *117:59 4.58194e-05
69 *3645:A *117:59 0.000282802
70 *3649:A *117:79 0.000166485
71 *3681:A *117:79 0.000446597
72 *7:21 *117:59 8.46325e-05
73 *31:9 *117:87 0
74 *42:9 *117:59 4.9773e-05
75 *51:9 *117:59 0.000263322
76 *57:9 *117:57 1.63058e-05
77 *59:9 *117:33 1.02821e-05
78 *66:5 *117:79 4.42631e-05
79 *115:31 *117:33 0.000394307
80 *115:43 *117:33 0.000534216
81 *115:43 *117:57 0.00107489
82 *115:57 *117:59 0.00747613
83 *115:71 *3607:D 3.22304e-05
84 *115:71 *117:79 0.000437091
85 *115:71 *117:87 0.000188068
*RES
1 *3781:DO[13] *117:17 47.5446 
2 *117:17 *117:25 26.3214 
3 *117:25 *117:33 39.6786 
4 *117:33 *117:57 48.625 
5 *117:57 *117:59 73.6429 
6 *117:59 *117:79 46.875 
7 *117:79 *117:87 30.6607 
8 *117:87 *469:DIODE 13.8 
9 *117:87 *3607:D 19.6214 
*END

*D_NET *118 0.0485839
*CONN
*I *3608:D I *D sky130_fd_sc_hd__and4b_2
*I *3781:DO[14] O *D CF_SRAM_1024x32
*CAP
1 *3608:D 0.000460832
2 *3781:DO[14] 0.00118592
3 *118:13 0.00280924
4 *118:11 0.00353433
5 *3608:D *144:25 0.00018423
6 *3608:D *366:12 3.78949e-05
7 *3608:D *370:10 0.000217477
8 *3608:D *370:14 3.37708e-05
9 *118:11 *3781:DI[12] 0.000125593
10 *118:11 *3781:DI[14] 0.000746189
11 *118:11 *171:32 0.000165767
12 *118:11 *177:44 6.19639e-06
13 *118:11 *182:32 1.0033e-05
14 *118:11 *182:44 0.00157053
15 *118:11 *244:44 1.65923e-05
16 *118:11 *361:56 0
17 *118:13 *139:19 0.00253863
18 *118:13 *144:21 0.0164638
19 *118:13 *361:46 2.12005e-05
20 *510:DIODE *3608:D 0
21 *114:21 *118:13 0.000104613
22 *116:11 *118:11 0.00218653
23 *116:15 *118:13 0.0161646
24 *116:23 *3608:D 0
*RES
1 *3781:DO[14] *118:11 44.8125 
2 *118:11 *118:13 157.018 
3 *118:13 *3608:D 28.7464 
*END

*D_NET *119 0.0449503
*CONN
*I *3609:D I *D sky130_fd_sc_hd__and4b_2
*I *3781:DO[15] O *D CF_SRAM_1024x32
*CAP
1 *3609:D 0
2 *3781:DO[15] 0.00134237
3 *119:55 0.00274268
4 *119:41 0.00534501
5 *119:29 0.00515427
6 *119:19 0.00406522
7 *119:13 0.00285564
8 *119:13 *3781:DI[14] 0.00117966
9 *119:13 *3781:DI[15] 0
10 *119:13 *3781:vpwrpc 0.000245429
11 *119:13 *241:52 1.90303e-05
12 *119:13 *281:70 3.19513e-05
13 *119:13 *304:18 5.21453e-05
14 *119:19 *3781:BEN[15] 0.00079209
15 *119:19 *3781:DI[15] 0.000122494
16 *119:19 *3781:vpwrpc 0.000108085
17 *119:19 *130:43 0.000256388
18 *119:19 *143:53 7.66118e-05
19 *119:19 *143:55 6.87944e-05
20 *119:19 *159:30 0.00236824
21 *119:19 *164:38 4.22135e-06
22 *119:19 *199:12 0
23 *119:19 *304:18 1.65169e-05
24 *119:19 *306:38 0.00163224
25 *119:19 *328:44 0
26 *119:29 *123:27 1.73191e-05
27 *119:29 *177:14 0.0021313
28 *119:29 *241:18 0.000267797
29 *119:29 *244:20 0.000344225
30 *119:29 *244:28 0.00063949
31 *119:29 *322:26 9.54536e-05
32 *119:29 *371:102 2.95642e-05
33 *119:41 *3689:A 0.000778197
34 *119:41 *164:22 0.000990171
35 *119:41 *164:26 0.00170157
36 *119:41 *244:20 0.00113915
37 *119:41 *324:36 2.1806e-05
38 *119:41 *337:44 9.64227e-05
39 *119:41 *371:102 5.33005e-05
40 *119:55 *3627:B 5.47001e-05
41 *119:55 *3630:A_N 0.00022105
42 *119:55 *3637:A 0.00108202
43 *119:55 *3689:A 0.00127581
44 *119:55 *144:25 6.74751e-05
45 *119:55 *170:52 4.7856e-05
46 *119:55 *328:18 0.00046184
47 *119:55 *329:60 5.25955e-05
48 *119:55 *332:20 0.000992123
49 *119:55 *337:20 3.20942e-05
50 *119:55 *367:31 0.000109073
51 *119:55 *368:166 1.98839e-05
52 *119:55 *370:10 6.95627e-05
53 *119:55 *371:31 0.000134869
54 *119:55 *371:54 0.00257362
55 *117:25 *119:13 0.000970838
*RES
1 *3781:DO[15] *119:13 37.873 
2 *119:13 *119:19 46.0714 
3 *119:19 *119:29 49.875 
4 *119:29 *119:41 47.7589 
5 *119:41 *119:55 45.6259 
6 *119:55 *3609:D 13.8 
*END

*D_NET *120 0.0699613
*CONN
*I *3610:D I *D sky130_fd_sc_hd__and4b_1
*I *480:DIODE I *D sky130_fd_sc_hd__diode_2
*I *3781:DO[16] O *D CF_SRAM_1024x32
*CAP
1 *3610:D 6.62786e-05
2 *480:DIODE 0
3 *3781:DO[16] 0.00145729
4 *120:56 0.000721229
5 *120:48 0.00185118
6 *120:28 0.00297273
7 *120:18 0.00628512
8 *120:16 0.00596077
9 *120:4 5.12883e-06
10 *3610:D *3713:A 0.000278334
11 *3610:D *312:54 2.12087e-05
12 *3610:D *367:74 0.000219267
13 *120:16 *3781:ScanInDR 0.000590615
14 *120:16 *3781:DI[16] 0.000795416
15 *120:18 *121:22 0.0163951
16 *120:18 *135:21 0.00269143
17 *120:18 *137:13 0
18 *120:28 *462:DIODE 6.34779e-05
19 *120:28 *463:DIODE 1.83053e-05
20 *120:28 *476:DIODE 7.31322e-05
21 *120:28 *3621:A_N 0.00081491
22 *120:28 *3621:C 1.51489e-05
23 *120:28 *3621:D 0.000195203
24 *120:28 *3859:A 0.000980558
25 *120:28 *3861:A 0.000686487
26 *120:28 *159:26 4.6109e-05
27 *120:28 *301:18 9.20464e-06
28 *120:28 *348:16 2.51133e-05
29 *120:28 *369:153 0.00010985
30 *120:48 *3808:A 0.000315158
31 *120:48 *121:54 0.00116967
32 *120:48 *125:25 0.00147283
33 *120:48 *128:43 0
34 *120:48 *135:29 0.00147298
35 *120:48 *148:48 1.38323e-05
36 *120:48 *258:30 0.000142856
37 *120:48 *301:8 0.000618899
38 *120:48 *347:16 8.19176e-05
39 *120:48 *361:34 0.00144878
40 *120:56 *3709:A 0
41 *120:56 *141:19 0.000349009
42 *120:56 *320:22 0.00144166
43 *120:56 *324:36 0
44 *120:56 *341:18 0.000687152
45 *120:56 *361:22 0.00289825
46 *120:56 *361:34 0.000141729
47 *113:11 *120:18 0.0138387
48 *113:31 *120:56 0.000519388
*RES
1 *3781:DO[16] *120:4 0.142857 
2 *3781:DO[16] *120:16 31.875 
3 *120:16 *120:18 206.857 
4 *120:18 *120:28 49.3475 
5 *120:28 *120:48 45.2721 
6 *120:48 *120:56 40.2321 
7 *120:56 *480:DIODE 9.3 
8 *120:56 *3610:D 12.5545 
*END

*D_NET *121 0.0707569
*CONN
*I *394:DIODE I *D sky130_fd_sc_hd__diode_2
*I *3611:D I *D sky130_fd_sc_hd__and4b_1
*I *385:DIODE I *D sky130_fd_sc_hd__diode_2
*I *3781:DO[17] O *D CF_SRAM_1024x32
*CAP
1 *394:DIODE 0
2 *3611:D 3.54733e-05
3 *385:DIODE 1.71845e-05
4 *3781:DO[17] 0.00146275
5 *121:60 0.000244014
6 *121:54 0.00251709
7 *121:52 0.00374122
8 *121:34 0.00354909
9 *121:22 0.00674784
10 *121:20 0.00606859
11 *121:4 8.39453e-06
12 *385:DIODE *367:74 5.71472e-05
13 *385:DIODE *367:95 5.52238e-05
14 *385:DIODE *371:70 9.90367e-05
15 *3611:D *367:95 0.000157995
16 *3611:D *371:70 9.90431e-05
17 *3611:D *371:79 9.65886e-05
18 *121:20 *3781:WLBI 0.000697104
19 *121:20 *3781:TM 0.000955214
20 *121:20 *3781:DI[17] 3.30237e-05
21 *121:22 *3625:C 0
22 *121:22 *131:11 0.0162135
23 *121:22 *135:21 0.00239803
24 *121:22 *137:13 0
25 *121:22 *186:26 0
26 *121:22 *309:10 0
27 *121:34 *440:DIODE 0.000219289
28 *121:34 *465:DIODE 5.49489e-05
29 *121:34 *3752:A 2.28499e-05
30 *121:34 *258:30 0.000198648
31 *121:34 *301:8 0.000272355
32 *121:34 *306:28 0
33 *121:34 *347:16 4.13496e-05
34 *121:52 *3616:D 2.49963e-05
35 *121:52 *3617:D 0.000198574
36 *121:52 *3618:D 5.33005e-05
37 *121:52 *3854:A 0.000206693
38 *121:52 *3855:A 0.000174736
39 *121:52 *3856:A 9.58126e-05
40 *121:52 *125:25 0.000118413
41 *121:52 *129:43 9.60227e-05
42 *121:52 *129:45 9.54798e-06
43 *121:52 *135:29 0.000121926
44 *121:52 *148:48 9.45051e-05
45 *121:52 *236:38 0
46 *121:52 *301:8 0.000238208
47 *121:52 *361:34 0.000227258
48 *121:52 *367:140 0.000218989
49 *121:52 *367:147 0.000524735
50 *121:52 *367:156 0.000225091
51 *121:52 *367:163 1.51489e-05
52 *121:52 *369:132 0.000108024
53 *121:54 *141:19 0.000152412
54 *121:54 *337:44 0.000534222
55 *121:54 *361:22 0.000894077
56 *121:54 *361:34 6.37907e-05
57 *121:60 *337:44 1.37292e-05
58 *121:60 *338:18 0.000207536
59 *113:11 *121:22 7.31533e-05
60 *113:27 *121:34 0.00243817
61 *120:18 *121:22 0.0163951
62 *120:48 *121:54 0.00116967
*RES
1 *3781:DO[17] *121:4 0.160714 
2 *3781:DO[17] *121:20 32.0179 
3 *121:20 *121:22 218.696 
4 *121:22 *121:34 47.5893 
5 *121:34 *121:52 49.5357 
6 *121:52 *121:54 32.5714 
7 *121:54 *121:60 12.4643 
8 *121:60 *385:DIODE 10.2464 
9 *121:60 *3611:D 11.1795 
10 *121:54 *394:DIODE 9.3 
*END

*D_NET *122 0.0637713
*CONN
*I *3612:D I *D sky130_fd_sc_hd__and4b_1
*I *395:DIODE I *D sky130_fd_sc_hd__diode_2
*I *3781:DO[18] O *D CF_SRAM_1024x32
*CAP
1 *3612:D 7.48761e-06
2 *395:DIODE 0.00026399
3 *3781:DO[18] 0.000620094
4 *122:27 0.0026557
5 *122:21 0.0100971
6 *122:17 0.00833299
7 *395:DIODE *320:22 0
8 *395:DIODE *367:95 1.59373e-05
9 *395:DIODE *367:99 0.000228508
10 *395:DIODE *369:72 4.3588e-05
11 *3612:D *369:83 2.3541e-05
12 *3612:D *371:86 2.3541e-05
13 *122:17 *3781:DI[18] 0
14 *122:17 *248:39 0.000115656
15 *122:21 *123:21 0.0180564
16 *122:21 *125:21 1.49122e-05
17 *122:21 *130:33 0.00170912
18 *122:21 *130:43 0.000309422
19 *122:21 *132:23 0.000249777
20 *122:21 *133:11 0.00189357
21 *122:21 *142:13 0.00054376
22 *122:21 *143:33 0.000888822
23 *122:21 *143:41 0.000306172
24 *122:21 *146:16 0.00319803
25 *122:27 *123:27 0.00625794
26 *122:27 *124:25 0.00683745
27 *122:27 *139:19 6.8057e-05
28 *122:27 *145:63 0.000101601
29 *122:27 *162:20 4.6988e-05
30 *122:27 *188:10 0
31 *122:27 *199:10 0
32 *122:27 *199:12 0.00086112
33 *122:27 *320:22 0
34 *122:27 *321:26 0
*RES
1 *3781:DO[18] *122:17 16.2206 
2 *122:17 *122:21 40.6371 
3 *122:21 *122:27 25.349 
4 *122:27 *395:DIODE 17.7286 
5 *122:27 *3612:D 14.0366 
*END

*D_NET *123 0.0675891
*CONN
*I *3613:D I *D sky130_fd_sc_hd__and4b_1
*I *396:DIODE I *D sky130_fd_sc_hd__diode_2
*I *3781:DO[19] O *D CF_SRAM_1024x32
*CAP
1 *3613:D 8.33804e-05
2 *396:DIODE 0.000102219
3 *3781:DO[19] 0.000404818
4 *123:27 0.00298869
5 *123:21 0.0066756
6 *123:17 0.00427734
7 *396:DIODE *321:26 4.62832e-05
8 *396:DIODE *322:26 1.37292e-05
9 *396:DIODE *341:18 4.80553e-05
10 *3613:D *3613:A_N 0
11 *3613:D *3613:C 4.18895e-05
12 *3613:D *367:112 0.000205552
13 *3613:D *369:83 9.90431e-05
14 *123:17 *3781:DI[19] 2.72859e-05
15 *123:17 *248:51 1.94879e-05
16 *123:21 *125:21 0.000154405
17 *123:21 *126:21 0.0187311
18 *123:21 *128:11 0.000108549
19 *123:21 *132:11 0.00325093
20 *123:21 *133:11 0.000158472
21 *123:21 *138:19 0.00133275
22 *123:21 *138:29 0.000606464
23 *123:21 *142:29 0.000451449
24 *123:27 *3781:DI[15] 0.000569832
25 *123:27 *126:27 0
26 *123:27 *162:20 0.00118643
27 *123:27 *188:10 0
28 *123:27 *241:18 4.53834e-05
29 *123:27 *321:26 0.000132631
30 *123:27 *322:26 9.22587e-05
31 *123:27 *328:36 6.39829e-05
32 *123:27 *369:97 1.0562e-05
33 *123:27 *371:102 0.000114854
34 *112:10 *123:21 0.00121396
35 *119:29 *123:27 1.73191e-05
36 *122:21 *123:21 0.0180564
37 *122:27 *123:27 0.00625794
*RES
1 *3781:DO[19] *123:17 13.8622 
2 *123:17 *123:21 42.5547 
3 *123:21 *123:27 25.4822 
4 *123:27 *396:DIODE 15.7464 
5 *123:27 *3613:D 16.108 
*END

*D_NET *124 0.068277
*CONN
*I *397:DIODE I *D sky130_fd_sc_hd__diode_2
*I *387:DIODE I *D sky130_fd_sc_hd__diode_2
*I *3627:D I *D sky130_fd_sc_hd__and4b_1
*I *3781:DO[1] O *D CF_SRAM_1024x32
*CAP
1 *397:DIODE 0.000238465
2 *387:DIODE 5.83208e-05
3 *3627:D 6.42987e-05
4 *3781:DO[1] 0.000185973
5 *124:44 0.000395826
6 *124:29 0.000255001
7 *124:25 0.00507209
8 *124:11 0.00748708
9 *124:9 0.00269262
10 *387:DIODE *3864:A 9.41642e-05
11 *387:DIODE *365:8 6.57032e-05
12 *397:DIODE *3823:A 8.6229e-06
13 *397:DIODE *3867:A 1.34355e-05
14 *397:DIODE *3869:A 0.000601168
15 *397:DIODE *141:19 0.000599337
16 *397:DIODE *329:46 1.03101e-05
17 *3627:D *366:134 2.73212e-06
18 *3627:D *366:145 1.54209e-05
19 *124:9 *3781:DI[1] 0.000308092
20 *124:11 *126:21 0.00248232
21 *124:11 *132:11 0.000176579
22 *124:11 *138:19 0.00688742
23 *124:11 *138:29 1.4396e-05
24 *124:11 *142:29 0.00291915
25 *124:11 *151:26 0.0115661
26 *124:11 *164:52 0.000467131
27 *124:11 *303:32 0.000146533
28 *124:25 *478:DIODE 0.000137413
29 *124:25 *3626:B 0
30 *124:25 *3628:A_N 7.53309e-05
31 *124:25 *3630:A_N 0.000159533
32 *124:25 *3825:A 0
33 *124:25 *138:39 0.000100427
34 *124:25 *139:19 0.0140299
35 *124:25 *145:61 0.000137471
36 *124:25 *162:20 0.000640159
37 *124:25 *315:32 4.40142e-05
38 *124:25 *331:24 1.789e-05
39 *124:25 *366:145 4.82765e-06
40 *124:25 *371:31 0
41 *124:29 *3627:A_N 5.33005e-05
42 *124:29 *3627:B 5.65955e-05
43 *124:29 *331:24 9.85141e-05
44 *124:29 *366:145 8.23811e-05
45 *124:44 *3628:B 6.12391e-06
46 *124:44 *3868:A 0.000139414
47 *124:44 *331:24 0.000116971
48 *403:DIODE *124:25 3.06466e-05
49 *3626:D *124:25 0.000187316
50 *3661:A *397:DIODE 9.54798e-06
51 *112:10 *124:11 0.00188979
52 *116:15 *124:25 0.000593663
53 *122:27 *124:25 0.00683745
*RES
1 *3781:DO[1] *124:9 8.50893 
2 *124:9 *124:11 154.188 
3 *124:11 *124:25 48.7325 
4 *124:25 *124:29 3.01786 
5 *124:29 *3627:D 10.3759 
6 *124:29 *124:44 6.98214 
7 *124:44 *387:DIODE 15.1571 
8 *124:44 *397:DIODE 22.1842 
*END

*D_NET *125 0.0672966
*CONN
*I *398:DIODE I *D sky130_fd_sc_hd__diode_2
*I *3614:D I *D sky130_fd_sc_hd__and4b_1
*I *3781:DO[20] O *D CF_SRAM_1024x32
*CAP
1 *398:DIODE 0.000186851
2 *3614:D 5.73584e-05
3 *3781:DO[20] 0.000283539
4 *125:25 0.00280344
5 *125:21 0.00708958
6 *125:17 0.00481389
7 *398:DIODE *367:112 3.08664e-05
8 *398:DIODE *367:121 7.35137e-05
9 *3614:D *3711:A 2.0449e-05
10 *3614:D *214:32 0
11 *3614:D *367:121 2.3541e-05
12 *125:17 *3781:DI[20] 0
13 *125:17 *248:63 1.94879e-05
14 *125:21 *3781:BEN[8] 0.000154703
15 *125:21 *126:21 0.019493
16 *125:21 *127:21 0.0207503
17 *125:21 *128:23 0.000205251
18 *125:21 *138:17 0.000134892
19 *125:21 *142:25 0.000344852
20 *125:21 *155:10 0.000232063
21 *125:21 *164:50 0.000175197
22 *125:21 *164:52 0.00245452
23 *125:21 *241:52 0.00012384
24 *125:21 *241:64 0.000108889
25 *125:21 *241:138 0.0001326
26 *125:21 *244:62 0.000129366
27 *125:21 *244:74 0.000179097
28 *125:25 *127:25 0.00352712
29 *125:25 *135:29 0.00194887
30 *125:25 *148:48 3.89689e-05
31 *120:48 *125:25 0.00147283
32 *121:52 *125:25 0.000118413
33 *122:21 *125:21 1.49122e-05
34 *123:21 *125:21 0.000154405
*RES
1 *3781:DO[20] *125:17 14.199 
2 *125:17 *125:21 46.3899 
3 *125:21 *125:25 11.5645 
4 *125:25 *3614:D 14.9205 
5 *125:25 *398:DIODE 16.3893 
*END

*D_NET *126 0.0685187
*CONN
*I *3615:D I *D sky130_fd_sc_hd__and4b_1
*I *399:DIODE I *D sky130_fd_sc_hd__diode_2
*I *3781:DO[21] O *D CF_SRAM_1024x32
*CAP
1 *3615:D 1.51386e-05
2 *399:DIODE 0.00030307
3 *3781:DO[21] 0.00034215
4 *126:27 0.0029565
5 *126:21 0.00677719
6 *126:17 0.00448104
7 *399:DIODE *3696:A 2.4461e-05
8 *399:DIODE *3854:A 0.000315158
9 *3615:D *3854:A 8.7131e-05
10 *3615:D *367:140 8.7131e-05
11 *126:17 *3781:DI[21] 0
12 *126:17 *248:75 1.94879e-05
13 *126:21 *3781:DI[17] 0.000642823
14 *126:21 *127:21 0.000465553
15 *126:21 *151:26 0.00222511
16 *126:21 *155:10 0.00110383
17 *126:27 *3696:A 0.000245941
18 *126:27 *3781:BEN[15] 0.00216453
19 *126:27 *3781:DI[15] 0.000622849
20 *126:27 *3781:vpwrpc 0.00213554
21 *126:27 *3781:vpwrac 6.34565e-05
22 *126:27 *138:31 0.000214478
23 *126:27 *140:15 0.000417444
24 *126:27 *142:31 0.000851822
25 *126:27 *143:55 0.000953238
26 *126:27 *171:10 0
27 *126:27 *177:14 3.12484e-05
28 *126:27 *188:18 0.000246879
29 *126:27 *328:36 1.90936e-05
30 *123:21 *126:21 0.0187311
31 *123:27 *126:27 0
32 *124:11 *126:21 0.00248232
33 *125:21 *126:21 0.019493
*RES
1 *3781:DO[21] *126:17 14.3609 
2 *126:17 *126:21 45.2181 
3 *126:21 *126:27 26.0983 
4 *126:27 *399:DIODE 18.0679 
5 *126:27 *3615:D 14.6348 
*END

*D_NET *127 0.0652094
*CONN
*I *3616:D I *D sky130_fd_sc_hd__and4b_1
*I *400:DIODE I *D sky130_fd_sc_hd__diode_2
*I *3781:DO[22] O *D CF_SRAM_1024x32
*CAP
1 *3616:D 1.55235e-05
2 *400:DIODE 0.000145588
3 *3781:DO[22] 0.000201217
4 *127:25 0.00169187
5 *127:21 0.0130392
6 *127:17 0.0117097
7 *400:DIODE *3856:A 0.000117235
8 *400:DIODE *236:38 6.86905e-05
9 *400:DIODE *367:140 5.97217e-06
10 *3616:D *236:38 4.2313e-06
11 *3616:D *367:140 2.77624e-05
12 *3616:D *369:117 8.6229e-06
13 *127:17 *3781:BEN[22] 1.94879e-05
14 *127:17 *3781:DI[22] 0
15 *127:21 *3781:BEN[15] 0.000103262
16 *127:21 *3781:BEN[0] 0.000358195
17 *127:21 *3781:BEN[2] 0.000358195
18 *127:21 *3781:DI[15] 0.000397713
19 *127:21 *128:11 0.00409871
20 *127:21 *140:11 0.00157584
21 *127:21 *188:28 0.00348807
22 *127:21 *241:126 0.000418105
23 *127:21 *248:51 0.000206726
24 *127:25 *148:48 0.00206789
25 *127:25 *367:147 0.000106944
26 *127:25 *367:156 0.000101623
27 *127:25 *367:163 0.000105136
28 *121:52 *3616:D 2.49963e-05
29 *125:21 *127:21 0.0207503
30 *125:25 *127:25 0.00352712
31 *126:21 *127:21 0.000465553
*RES
1 *3781:DO[22] *127:17 14.0905 
2 *127:17 *127:21 49.6925 
3 *127:21 *127:25 9.1863 
4 *127:25 *400:DIODE 16.4339 
5 *127:25 *3616:D 14.3134 
*END

*D_NET *128 0.0644703
*CONN
*I *409:DIODE I *D sky130_fd_sc_hd__diode_2
*I *411:DIODE I *D sky130_fd_sc_hd__diode_2
*I *412:DIODE I *D sky130_fd_sc_hd__diode_2
*I *407:DIODE I *D sky130_fd_sc_hd__diode_2
*I *405:DIODE I *D sky130_fd_sc_hd__diode_2
*I *402:DIODE I *D sky130_fd_sc_hd__diode_2
*I *3617:D I *D sky130_fd_sc_hd__and4b_1
*I *401:DIODE I *D sky130_fd_sc_hd__diode_2
*I *404:DIODE I *D sky130_fd_sc_hd__diode_2
*I *406:DIODE I *D sky130_fd_sc_hd__diode_2
*I *408:DIODE I *D sky130_fd_sc_hd__diode_2
*I *410:DIODE I *D sky130_fd_sc_hd__diode_2
*I *3781:DO[23] O *D CF_SRAM_1024x32
*CAP
1 *409:DIODE 0
2 *411:DIODE 0
3 *412:DIODE 6.1601e-05
4 *407:DIODE 0
5 *405:DIODE 0
6 *402:DIODE 0
7 *3617:D 2.73959e-05
8 *401:DIODE 0
9 *404:DIODE 0
10 *406:DIODE 0
11 *408:DIODE 0
12 *410:DIODE 0.00041219
13 *3781:DO[23] 0.000185854
14 *128:124 0.000126835
15 *128:122 6.5234e-05
16 *128:49 0.000535213
17 *128:47 0.000171408
18 *128:45 0.000189559
19 *128:43 0.000420879
20 *128:37 0.000455542
21 *128:35 0.000453331
22 *128:33 0.000370811
23 *128:29 0.000364458
24 *128:23 0.00203049
25 *128:11 0.0068024
26 *128:9 0.0052563
27 *410:DIODE *3728:A 5.62995e-05
28 *410:DIODE *259:44 9.54798e-06
29 *410:DIODE *270:22 4.6025e-06
30 *412:DIODE *153:16 0.00010096
31 *3617:D *367:156 0.000198574
32 *128:9 *3781:BEN[23] 0
33 *128:9 *3781:DI[23] 0
34 *128:11 *3781:BEN[22] 0.000790201
35 *128:11 *3781:BEN[23] 8.58217e-05
36 *128:11 *3781:WLOFF 9.77731e-05
37 *128:11 *3781:BEN[12] 0.000676164
38 *128:11 *3781:BEN[8] 0.000782563
39 *128:11 *3781:BEN[0] 0.000798579
40 *128:11 *3781:BEN[2] 0.000445982
41 *128:11 *3781:BEN[4] 0.000830326
42 *128:11 *138:17 0.000603565
43 *128:11 *140:11 0.00793924
44 *128:11 *142:25 0.00158552
45 *128:11 *143:33 0.000317286
46 *128:11 *151:26 1.09232e-05
47 *128:11 *155:10 0.00961596
48 *128:11 *164:52 0.00114768
49 *128:11 *241:52 0.000553777
50 *128:11 *241:64 0.000676111
51 *128:11 *241:126 1.94879e-05
52 *128:11 *241:138 0.000683056
53 *128:11 *244:62 0.000574542
54 *128:11 *244:74 0.000789336
55 *128:11 *244:102 0.000296624
56 *128:11 *244:130 0.000573557
57 *128:11 *248:27 0.000603969
58 *128:11 *248:39 0.000737583
59 *128:11 *248:51 0.000872283
60 *128:11 *248:63 0.00072292
61 *128:11 *248:75 0.00079134
62 *128:23 *140:11 9.34059e-06
63 *128:23 *146:14 0.00264013
64 *128:23 *151:26 0.00144565
65 *128:23 *157:14 0.0012772
66 *128:23 *164:50 0.00141073
67 *128:23 *184:36 0.000271445
68 *128:29 *3781:BEN[15] 0
69 *128:29 *173:12 0.000272371
70 *128:35 *182:12 5.03543e-05
71 *128:43 *3808:A 1.01075e-05
72 *128:43 *148:48 1.02504e-05
73 *128:43 *347:16 0
74 *128:45 *3808:A 3.41196e-05
75 *128:45 *148:48 0.000117662
76 *128:47 *3808:A 4.15914e-05
77 *128:49 *3808:A 5.80706e-06
78 *128:49 *259:44 0.000109271
79 *128:49 *270:22 4.83969e-05
80 *128:49 *339:40 0
81 *128:124 *153:16 8.57023e-05
82 wbs_dat_o[21] *410:DIODE 0
83 *506:DIODE *410:DIODE 8.10363e-06
84 *53:9 *410:DIODE 0
85 *115:55 *410:DIODE 0
86 *117:57 *410:DIODE 8.93462e-05
87 *120:48 *128:43 0
88 *121:52 *3617:D 0.000198574
89 *123:21 *128:11 0.000108549
90 *125:21 *128:23 0.000205251
91 *127:21 *128:11 0.00409871
*RES
1 *3781:DO[23] *128:9 7.75 
2 *128:9 *128:11 246.17 
3 *128:11 *128:23 31.2886 
4 *128:23 *128:29 8.73214 
5 *128:29 *128:33 5.53571 
6 *128:33 *128:35 4.07143 
7 *128:35 *128:37 1.94643 
8 *128:37 *128:43 3.82143 
9 *128:43 *128:45 2.55357 
10 *128:45 *128:47 1.03571 
11 *128:47 *128:49 2.55357 
12 *128:49 *410:DIODE 19.3893 
13 *128:49 *408:DIODE 13.8 
14 *128:47 *406:DIODE 13.8 
15 *128:45 *404:DIODE 13.8 
16 *128:43 *401:DIODE 13.8 
17 *128:37 *3617:D 15.6795 
18 *128:35 *402:DIODE 13.8 
19 *128:33 *405:DIODE 13.8 
20 *128:29 *407:DIODE 9.3 
21 *128:23 *128:122 4.5 
22 *128:122 *128:124 0.946429 
23 *128:124 *412:DIODE 10.2464 
24 *128:124 *411:DIODE 9.3 
25 *128:122 *409:DIODE 9.3 
*END

*D_NET *129 0.0613072
*CONN
*I *421:DIODE I *D sky130_fd_sc_hd__diode_2
*I *423:DIODE I *D sky130_fd_sc_hd__diode_2
*I *424:DIODE I *D sky130_fd_sc_hd__diode_2
*I *419:DIODE I *D sky130_fd_sc_hd__diode_2
*I *417:DIODE I *D sky130_fd_sc_hd__diode_2
*I *415:DIODE I *D sky130_fd_sc_hd__diode_2
*I *3618:D I *D sky130_fd_sc_hd__and4b_1
*I *413:DIODE I *D sky130_fd_sc_hd__diode_2
*I *416:DIODE I *D sky130_fd_sc_hd__diode_2
*I *418:DIODE I *D sky130_fd_sc_hd__diode_2
*I *420:DIODE I *D sky130_fd_sc_hd__diode_2
*I *422:DIODE I *D sky130_fd_sc_hd__diode_2
*I *3781:DO[24] O *D CF_SRAM_1024x32
*CAP
1 *421:DIODE 0
2 *423:DIODE 0
3 *424:DIODE 0
4 *419:DIODE 0
5 *417:DIODE 0
6 *415:DIODE 0
7 *3618:D 7.42432e-05
8 *413:DIODE 0
9 *416:DIODE 0
10 *418:DIODE 0
11 *420:DIODE 0
12 *422:DIODE 0.000106253
13 *3781:DO[24] 0.0003134
14 *129:49 0.000208824
15 *129:47 0.000164984
16 *129:45 0.000288709
17 *129:43 0.000319641
18 *129:41 0.000310213
19 *129:39 0.000398388
20 *129:37 0.000312291
21 *129:33 0.000127492
22 *129:31 0.000135419
23 *129:29 0.000118654
24 *129:27 0.00117301
25 *129:19 0.00249704
26 *129:17 0.00141913
27 *129:11 0.00486295
28 *129:9 0.00513545
29 *422:DIODE *3809:A 0.000187952
30 *3618:D *367:163 0.00019521
31 *129:9 *3781:DI[24] 0.000240663
32 *129:11 *3781:DI[9] 0.000164383
33 *129:11 *130:11 0.0170639
34 *129:11 *133:11 0
35 *129:11 *143:33 0.000908885
36 *129:11 *162:24 0.000117843
37 *129:11 *182:62 0.00157399
38 *129:11 *190:18 0.00769089
39 *129:11 *206:10 0.00109565
40 *129:17 *130:33 8.29108e-05
41 *129:19 *130:33 0.00105439
42 *129:19 *132:23 0.00154706
43 *129:19 *132:29 0.000537169
44 *129:19 *143:49 0.00300127
45 *129:19 *162:24 1.69233e-05
46 *129:19 *182:32 0.000607838
47 *129:19 *182:52 0.00256894
48 *129:27 *441:DIODE 9.66977e-05
49 *129:27 *131:27 0.000301438
50 *129:27 *131:29 9.71197e-05
51 *129:27 *131:44 9.71197e-05
52 *129:27 *173:12 0.0010052
53 *129:27 *173:16 8.5318e-05
54 *129:27 *184:40 0.00109679
55 *129:27 *186:24 0.000553756
56 *129:29 *173:12 0.00010096
57 *129:31 *173:12 9.60939e-05
58 *129:33 *173:12 9.66977e-05
59 *129:37 *3781:BEN[15] 3.63281e-05
60 *129:39 *3781:BEN[15] 3.72222e-05
61 *129:39 *164:38 0.000190452
62 *129:41 *148:48 1.80748e-05
63 *129:43 *148:48 8.44271e-06
64 *129:45 *3809:A 3.19834e-05
65 *129:45 *148:48 4.2993e-05
66 *129:47 *3809:A 0.000122868
67 *129:49 *3809:A 0.000188358
68 wbs_dat_o[22] *422:DIODE 5.15282e-05
69 wbs_dat_o[22] *129:47 3.0725e-05
70 wbs_dat_o[22] *129:49 4.91698e-05
71 *113:27 *129:45 4.99113e-05
72 *116:11 *129:19 4.11401e-05
73 *121:52 *3618:D 5.33005e-05
74 *121:52 *129:43 9.60227e-05
75 *121:52 *129:45 9.54798e-06
*RES
1 *3781:DO[24] *129:9 11.375 
2 *129:9 *129:11 215.054 
3 *129:11 *129:17 10.0357 
4 *129:17 *129:19 61.1429 
5 *129:19 *129:27 27.3571 
6 *129:27 *129:29 0.946429 
7 *129:29 *129:31 0.946429 
8 *129:31 *129:33 0.946429 
9 *129:33 *129:37 5.53571 
10 *129:37 *129:39 4.07143 
11 *129:39 *129:41 1.94643 
12 *129:41 *129:43 1.64286 
13 *129:43 *129:45 3.46429 
14 *129:45 *129:47 1.64286 
15 *129:47 *129:49 2.55357 
16 *129:49 *422:DIODE 16.3536 
17 *129:49 *420:DIODE 13.8 
18 *129:47 *418:DIODE 13.8 
19 *129:45 *416:DIODE 13.8 
20 *129:43 *413:DIODE 13.8 
21 *129:41 *3618:D 15.6795 
22 *129:39 *415:DIODE 13.8 
23 *129:37 *417:DIODE 13.8 
24 *129:33 *419:DIODE 9.3 
25 *129:31 *424:DIODE 9.3 
26 *129:29 *423:DIODE 9.3 
27 *129:27 *421:DIODE 9.3 
*END

*D_NET *130 0.0606151
*CONN
*I *433:DIODE I *D sky130_fd_sc_hd__diode_2
*I *435:DIODE I *D sky130_fd_sc_hd__diode_2
*I *437:DIODE I *D sky130_fd_sc_hd__diode_2
*I *431:DIODE I *D sky130_fd_sc_hd__diode_2
*I *429:DIODE I *D sky130_fd_sc_hd__diode_2
*I *427:DIODE I *D sky130_fd_sc_hd__diode_2
*I *3619:D I *D sky130_fd_sc_hd__and4b_1
*I *426:DIODE I *D sky130_fd_sc_hd__diode_2
*I *428:DIODE I *D sky130_fd_sc_hd__diode_2
*I *430:DIODE I *D sky130_fd_sc_hd__diode_2
*I *432:DIODE I *D sky130_fd_sc_hd__diode_2
*I *434:DIODE I *D sky130_fd_sc_hd__diode_2
*I *3781:DO[25] O *D CF_SRAM_1024x32
*CAP
1 *433:DIODE 0
2 *435:DIODE 0
3 *437:DIODE 0
4 *431:DIODE 3.73653e-05
5 *429:DIODE 0
6 *427:DIODE 0
7 *3619:D 7.70369e-05
8 *426:DIODE 0
9 *428:DIODE 3.92213e-05
10 *430:DIODE 3.92213e-05
11 *432:DIODE 4.28431e-05
12 *434:DIODE 0.000229642
13 *3781:DO[25] 0.00048869
14 *130:73 0.000461099
15 *130:71 0.000298418
16 *130:69 0.000409493
17 *130:65 0.000427482
18 *130:63 0.000437545
19 *130:61 0.000333333
20 *130:59 0.000245352
21 *130:55 0.000306962
22 *130:49 0.000176353
23 *130:47 0.000105865
24 *130:45 5.43736e-05
25 *130:43 0.0010636
26 *130:33 0.00280757
27 *130:11 0.00762586
28 *130:9 0.00637058
29 *428:DIODE *317:44 5.52302e-05
30 *430:DIODE *292:20 5.52302e-05
31 *431:DIODE *153:16 3.22325e-05
32 *431:DIODE *304:10 0
33 *431:DIODE *328:44 1.02532e-05
34 *432:DIODE *281:42 2.78576e-05
35 *434:DIODE *159:26 0
36 *434:DIODE *325:56 2.27416e-05
37 *3619:D *3619:A_N 6.05161e-06
38 *3619:D *348:16 0.000239663
39 *3619:D *369:146 6.79057e-05
40 *3619:D *369:153 1.72676e-05
41 *130:9 *3781:BEN[24] 0
42 *130:9 *3781:DI[25] 0
43 *130:9 *251:12 0
44 *130:11 *133:11 0
45 *130:11 *182:62 0.00133433
46 *130:11 *201:10 0.000322293
47 *130:11 *204:10 0
48 *130:11 *210:10 0
49 *130:11 *217:10 0
50 *130:11 *232:10 0.00783069
51 *130:11 *237:10 0.000330262
52 *130:33 *162:24 0.0002652
53 *130:33 *241:126 4.3588e-05
54 *130:43 *138:29 0.00136283
55 *130:43 *142:29 5.84218e-05
56 *130:43 *146:16 0.00169793
57 *130:43 *159:26 0.00040076
58 *130:43 *162:20 0.000100215
59 *130:43 *177:30 0.000387803
60 *130:43 *258:44 0.00018077
61 *130:43 *301:18 0
62 *130:43 *303:32 0.000220516
63 *130:43 *304:18 0.00146078
64 *130:43 *306:38 0.000104065
65 *130:47 *186:14 8.36572e-05
66 *130:49 *186:14 9.71197e-05
67 *130:55 *304:10 2.4461e-05
68 *130:59 *151:20 1.02504e-05
69 *130:59 *219:36 1.17968e-05
70 *130:59 *304:10 0
71 *130:59 *328:44 6.19035e-05
72 *130:61 *151:20 0.000165982
73 *130:61 *328:44 4.36621e-05
74 *130:63 *151:20 7.73022e-05
75 *130:63 *367:173 0.00011333
76 *130:69 *3810:A 0
77 *130:69 *304:10 0
78 *130:69 *306:28 6.30473e-05
79 *130:71 *3810:A 0
80 *130:71 *304:10 0
81 *130:73 *3810:A 0
82 *130:73 *159:26 0
83 *130:73 *281:42 0
84 *509:DIODE *434:DIODE 0
85 *54:9 *434:DIODE 0
86 *115:25 *130:33 0.000384332
87 *116:11 *130:33 0.000260433
88 *117:57 *434:DIODE 2.89114e-05
89 *119:19 *130:43 0.000256388
90 *122:21 *130:33 0.00170912
91 *122:21 *130:43 0.000309422
92 *129:11 *130:11 0.0170639
93 *129:17 *130:33 8.29108e-05
94 *129:19 *130:33 0.00105439
*RES
1 *3781:DO[25] *130:9 12.7143 
2 *130:9 *130:11 223.857 
3 *130:11 *130:33 41.3266 
4 *130:33 *130:43 49.9018 
5 *130:43 *130:45 4.5 
6 *130:45 *130:47 0.946429 
7 *130:47 *130:49 0.946429 
8 *130:49 *130:55 6.17857 
9 *130:55 *130:59 2.48214 
10 *130:59 *130:61 2.25 
11 *130:61 *130:63 3.76786 
12 *130:63 *130:65 1.64286 
13 *130:65 *130:69 4.30357 
14 *130:69 *130:71 1.03571 
15 *130:71 *130:73 2.55357 
16 *130:73 *434:DIODE 17.4964 
17 *130:73 *432:DIODE 14.3357 
18 *130:71 *430:DIODE 14.3357 
19 *130:69 *428:DIODE 14.3357 
20 *130:65 *426:DIODE 13.8 
21 *130:63 *3619:D 16.5187 
22 *130:61 *427:DIODE 13.8 
23 *130:59 *429:DIODE 13.8 
24 *130:55 *431:DIODE 14.8357 
25 *130:49 *437:DIODE 9.3 
26 *130:47 *435:DIODE 9.3 
27 *130:45 *433:DIODE 9.3 
*END

*D_NET *131 0.0634522
*CONN
*I *443:DIODE I *D sky130_fd_sc_hd__diode_2
*I *445:DIODE I *D sky130_fd_sc_hd__diode_2
*I *448:DIODE I *D sky130_fd_sc_hd__diode_2
*I *441:DIODE I *D sky130_fd_sc_hd__diode_2
*I *439:DIODE I *D sky130_fd_sc_hd__diode_2
*I *438:DIODE I *D sky130_fd_sc_hd__diode_2
*I *440:DIODE I *D sky130_fd_sc_hd__diode_2
*I *446:DIODE I *D sky130_fd_sc_hd__diode_2
*I *449:DIODE I *D sky130_fd_sc_hd__diode_2
*I *444:DIODE I *D sky130_fd_sc_hd__diode_2
*I *442:DIODE I *D sky130_fd_sc_hd__diode_2
*I *3620:D I *D sky130_fd_sc_hd__and4b_1
*I *3781:DO[26] O *D CF_SRAM_1024x32
*CAP
1 *443:DIODE 0
2 *445:DIODE 0
3 *448:DIODE 0
4 *441:DIODE 6.94032e-05
5 *439:DIODE 0.000108075
6 *438:DIODE 0.000171252
7 *440:DIODE 0.000171252
8 *446:DIODE 0.000148896
9 *449:DIODE 0.000218799
10 *444:DIODE 6.85799e-05
11 *442:DIODE 0
12 *3620:D 0.000246784
13 *3781:DO[26] 0.00154332
14 *131:92 0.00059181
15 *131:79 0.000487563
16 *131:68 0.000417095
17 *131:62 0.000453267
18 *131:60 0.000637775
19 *131:56 0.00081051
20 *131:44 0.0004264
21 *131:29 0.000370206
22 *131:27 0.00171897
23 *131:11 0.0142073
24 *131:9 0.0140937
25 *438:DIODE *3859:A 0.000219289
26 *439:DIODE *151:24 0.000136676
27 *444:DIODE *292:20 9.83442e-05
28 *446:DIODE *281:42 8.85326e-05
29 *449:DIODE *3857:A 0.000139491
30 *449:DIODE *276:24 0.000256965
31 *449:DIODE *281:42 3.48936e-05
32 *3620:D *182:32 5.4231e-05
33 *3620:D *244:28 1.14548e-05
34 *3620:D *306:38 0.000152999
35 *131:9 *3781:DI[26] 0.000265457
36 *131:11 *135:21 0.0023522
37 *131:11 *136:13 0
38 *131:11 *137:13 0
39 *131:11 *153:22 0
40 *131:11 *186:26 0
41 *131:11 *309:10 0
42 *131:27 *471:DIODE 5.49489e-05
43 *131:27 *145:63 0.000326209
44 *131:27 *177:30 0.000255223
45 *131:27 *199:12 0.000472486
46 *131:27 *199:22 0.00017739
47 *131:27 *281:56 0.000437417
48 *131:27 *304:18 0.00142666
49 *131:27 *328:48 0.000330284
50 *131:56 *157:14 0.000271958
51 *131:56 *164:38 6.92498e-05
52 *131:56 *301:18 2.80507e-05
53 *131:60 *3620:A_N 4.56535e-05
54 *131:60 *3621:A_N 0.000114847
55 *131:60 *301:18 0.00045887
56 *131:62 *301:18 6.70412e-05
57 *131:68 *301:18 5.33072e-05
58 *131:68 *302:8 0.000216755
59 *131:68 *347:16 0.000134271
60 *131:68 *348:16 6.09965e-05
61 *131:68 *361:46 0.000218404
62 *131:79 *259:54 0
63 *131:79 *302:8 9.66977e-05
64 *131:79 *303:10 0
65 *131:79 *361:46 8.42609e-05
66 *131:92 *276:24 3.37708e-05
67 *131:92 *281:42 8.31402e-05
68 wbs_dat_o[25] *449:DIODE 0
69 *115:43 *449:DIODE 0.000137561
70 *121:22 *131:11 0.0162135
71 *121:34 *440:DIODE 0.000219289
72 *129:27 *441:DIODE 9.66977e-05
73 *129:27 *131:27 0.000301438
74 *129:27 *131:29 9.71197e-05
75 *129:27 *131:44 9.71197e-05
*RES
1 *3781:DO[26] *131:9 30.2351 
2 *131:9 *131:11 291.554 
3 *131:11 *131:27 48.8393 
4 *131:27 *131:29 0.946429 
5 *131:29 *3620:D 22.9116 
6 *131:29 *131:44 0.946429 
7 *131:44 *131:56 12.9601 
8 *131:56 *131:60 7.03571 
9 *131:60 *131:62 1.03571 
10 *131:62 *131:68 9.53571 
11 *131:68 *442:DIODE 9.3 
12 *131:68 *131:79 7.69643 
13 *131:79 *444:DIODE 14.7464 
14 *131:79 *131:92 3.5 
15 *131:92 *449:DIODE 19.1571 
16 *131:92 *446:DIODE 15.5679 
17 *131:62 *440:DIODE 15.9786 
18 *131:60 *438:DIODE 15.9786 
19 *131:56 *439:DIODE 15.1571 
20 *131:44 *441:DIODE 10.2464 
21 *131:44 *448:DIODE 9.3 
22 *131:29 *445:DIODE 9.3 
23 *131:27 *443:DIODE 9.3 
*END

*D_NET *132 0.0664518
*CONN
*I *461:DIODE I *D sky130_fd_sc_hd__diode_2
*I *457:DIODE I *D sky130_fd_sc_hd__diode_2
*I *460:DIODE I *D sky130_fd_sc_hd__diode_2
*I *455:DIODE I *D sky130_fd_sc_hd__diode_2
*I *453:DIODE I *D sky130_fd_sc_hd__diode_2
*I *451:DIODE I *D sky130_fd_sc_hd__diode_2
*I *3621:D I *D sky130_fd_sc_hd__and4b_1
*I *450:DIODE I *D sky130_fd_sc_hd__diode_2
*I *452:DIODE I *D sky130_fd_sc_hd__diode_2
*I *454:DIODE I *D sky130_fd_sc_hd__diode_2
*I *456:DIODE I *D sky130_fd_sc_hd__diode_2
*I *459:DIODE I *D sky130_fd_sc_hd__diode_2
*I *3781:DO[27] O *D CF_SRAM_1024x32
*CAP
1 *461:DIODE 0.000285949
2 *457:DIODE 0
3 *460:DIODE 0
4 *455:DIODE 0
5 *453:DIODE 0
6 *451:DIODE 0
7 *3621:D 4.98153e-05
8 *450:DIODE 0
9 *452:DIODE 0
10 *454:DIODE 0
11 *456:DIODE 0
12 *459:DIODE 0.000145138
13 *3781:DO[27] 0.000328444
14 *132:51 0.000261261
15 *132:49 0.000233423
16 *132:47 0.000209088
17 *132:45 0.000177114
18 *132:43 0.000291753
19 *132:41 0.000185719
20 *132:39 0.000172901
21 *132:35 0.000202818
22 *132:33 0.000126094
23 *132:29 0.000620975
24 *132:23 0.00160781
25 *132:11 0.00554159
26 *132:9 0.00510208
27 *459:DIODE *3859:A 2.50022e-05
28 *461:DIODE *143:49 9.58181e-05
29 *461:DIODE *182:32 0.000135028
30 *461:DIODE *259:54 0.000180271
31 *461:DIODE *301:18 5.35158e-05
32 *3621:D *3621:C 0.000139485
33 *132:9 *3781:DI[27] 0
34 *132:11 *3781:DI[26] 0
35 *132:11 *133:11 0.0166052
36 *132:11 *138:19 0.00683763
37 *132:11 *142:13 0.00280048
38 *132:11 *143:41 0.00141368
39 *132:11 *146:16 5.56477e-05
40 *132:11 *155:10 0
41 *132:11 *212:28 0.00355116
42 *132:23 *138:19 2.23987e-05
43 *132:23 *138:29 0.00143723
44 *132:23 *146:16 0.00147775
45 *132:23 *162:24 0.00156587
46 *132:23 *182:44 6.05161e-06
47 *132:29 *146:16 0.00011787
48 *132:29 *151:26 0
49 *132:29 *162:24 0.000224535
50 *132:29 *173:16 0.00014622
51 *132:33 *173:16 8.46829e-05
52 *132:35 *173:16 9.41642e-05
53 *132:39 *177:30 7.93872e-05
54 *132:39 *186:24 9.60808e-05
55 *132:39 *361:46 0.000274478
56 *132:41 *177:30 3.48235e-05
57 *132:41 *361:46 8.00806e-05
58 *132:43 *177:30 4.46186e-06
59 *132:43 *219:36 2.58724e-05
60 *132:43 *361:46 0.000228187
61 *132:45 *3859:A 4.05155e-05
62 *132:45 *361:46 0.000142955
63 *132:47 *3859:A 8.32066e-05
64 *132:47 *361:46 0.000189329
65 *132:49 *3859:A 8.90962e-05
66 *132:49 *361:46 5.42764e-05
67 *132:51 *3859:A 8.32278e-05
68 wbs_dat_o[24] *459:DIODE 4.59798e-05
69 wbs_dat_o[24] *132:51 6.59077e-05
70 *57:9 *459:DIODE 0
71 *57:9 *132:49 0
72 *57:9 *132:51 0
73 *112:10 *132:11 0.00624604
74 *117:57 *459:DIODE 1.95005e-05
75 *120:28 *3621:D 0.000195203
76 *122:21 *132:23 0.000249777
77 *123:21 *132:11 0.00325093
78 *124:11 *132:11 0.000176579
79 *129:19 *132:23 0.00154706
80 *129:19 *132:29 0.000537169
*RES
1 *3781:DO[27] *132:9 10.2857 
2 *132:9 *132:11 258.92 
3 *132:11 *132:23 48.9375 
4 *132:23 *132:29 14.9107 
5 *132:29 *132:33 1.375 
6 *132:33 *132:35 0.946429 
7 *132:35 *132:39 8.26786 
8 *132:39 *132:41 1.03571 
9 *132:41 *132:43 3.16071 
10 *132:43 *132:45 1.94643 
11 *132:45 *132:47 2.55357 
12 *132:47 *132:49 2.55357 
13 *132:49 *132:51 2.55357 
14 *132:51 *459:DIODE 16.3536 
15 *132:51 *456:DIODE 13.8 
16 *132:49 *454:DIODE 13.8 
17 *132:47 *452:DIODE 13.8 
18 *132:45 *450:DIODE 13.8 
19 *132:43 *3621:D 15.6795 
20 *132:41 *451:DIODE 13.8 
21 *132:39 *453:DIODE 13.8 
22 *132:35 *455:DIODE 9.3 
23 *132:33 *460:DIODE 9.3 
24 *132:29 *457:DIODE 9.3 
25 *132:23 *461:DIODE 18.8536 
*END

*D_NET *133 0.0599207
*CONN
*I *3622:D I *D sky130_fd_sc_hd__and4b_1
*I *462:DIODE I *D sky130_fd_sc_hd__diode_2
*I *3781:DO[28] O *D CF_SRAM_1024x32
*CAP
1 *3622:D 9.02879e-06
2 *462:DIODE 0.000225854
3 *3781:DO[28] 0.000294138
4 *133:29 0.000282685
5 *133:27 0.00204891
6 *133:25 0.00292379
7 *133:11 0.0062096
8 *133:9 0.00558106
9 *462:DIODE *292:22 0.000114854
10 *462:DIODE *317:54 4.22135e-05
11 *3622:D *170:92 2.3541e-05
12 *3622:D *329:103 1.14548e-05
13 *133:9 *3781:BEN[28] 1.03968e-05
14 *133:9 *3781:DI[28] 0.000111828
15 *133:11 *3781:BEN[27] 0
16 *133:11 *3781:BEN[28] 0
17 *133:11 *146:16 0.00726775
18 *133:11 *155:10 0
19 *133:11 *190:18 0.000898363
20 *133:25 *3757:A 0.000165123
21 *133:25 *3781:DI[7] 9.20635e-06
22 *133:25 *142:13 6.05161e-06
23 *133:25 *195:16 0.000154578
24 *133:25 *201:10 0.000177392
25 *133:25 *232:8 0.000175892
26 *133:25 *244:46 0.000966616
27 *133:25 *317:68 0.000291819
28 *133:25 *317:83 0.000240965
29 *133:27 *3781:DI[14] 0.00231725
30 *133:27 *3781:vpwrpc 0.0010183
31 *133:27 *134:30 0
32 *133:27 *134:32 0
33 *133:27 *219:50 0.00645794
34 *133:27 *226:10 0.000171375
35 *133:27 *281:72 0.00200179
36 *133:27 *292:22 0.000131187
37 *133:27 *317:54 0.000429584
38 *110:12 *133:25 0.000429428
39 *120:28 *462:DIODE 6.34779e-05
40 *122:21 *133:11 0.00189357
41 *123:21 *133:11 0.000158472
42 *129:11 *133:11 0
43 *130:11 *133:11 0
44 *132:11 *133:11 0.0166052
*RES
1 *3781:DO[28] *133:9 10.7143 
2 *133:9 *133:11 215.054 
3 *133:11 *133:25 45 
4 *133:25 *133:27 85.7321 
5 *133:27 *133:29 0.535714 
6 *133:29 *462:DIODE 17.2107 
7 *133:29 *3622:D 14.0366 
*END

*D_NET *134 0.0584507
*CONN
*I *471:DIODE I *D sky130_fd_sc_hd__diode_2
*I *468:DIODE I *D sky130_fd_sc_hd__diode_2
*I *466:DIODE I *D sky130_fd_sc_hd__diode_2
*I *464:DIODE I *D sky130_fd_sc_hd__diode_2
*I *3623:D I *D sky130_fd_sc_hd__and4b_1
*I *463:DIODE I *D sky130_fd_sc_hd__diode_2
*I *465:DIODE I *D sky130_fd_sc_hd__diode_2
*I *467:DIODE I *D sky130_fd_sc_hd__diode_2
*I *470:DIODE I *D sky130_fd_sc_hd__diode_2
*I *472:DIODE I *D sky130_fd_sc_hd__diode_2
*I *474:DIODE I *D sky130_fd_sc_hd__diode_2
*I *473:DIODE I *D sky130_fd_sc_hd__diode_2
*I *3781:DO[29] O *D CF_SRAM_1024x32
*CAP
1 *471:DIODE 4.1217e-05
2 *468:DIODE 3.96549e-05
3 *466:DIODE 3.96549e-05
4 *464:DIODE 5.07055e-05
5 *3623:D 3.45492e-05
6 *463:DIODE 4.40113e-05
7 *465:DIODE 3.96549e-05
8 *467:DIODE 5.07263e-05
9 *470:DIODE 0
10 *472:DIODE 0
11 *474:DIODE 0.000166695
12 *473:DIODE 4.70928e-05
13 *3781:DO[29] 0.00111554
14 *134:48 0.000336971
15 *134:46 0.000340605
16 *134:40 0.000370038
17 *134:38 0.00031689
18 *134:36 0.000287395
19 *134:34 0.000313089
20 *134:32 0.000356699
21 *134:30 0.000311108
22 *134:28 0.000278895
23 *134:26 0.000219476
24 *134:15 0.000365273
25 *134:11 0.0115252
26 *134:9 0.0123904
27 *466:DIODE *317:54 5.49489e-05
28 *468:DIODE *144:21 5.49489e-05
29 *473:DIODE *259:54 2.59355e-05
30 *474:DIODE *3655:A 0
31 *474:DIODE *305:12 0
32 *3623:D *170:92 5.47047e-05
33 *3623:D *170:99 0.000108811
34 *3623:D *329:114 0.000150427
35 *134:9 *3781:DI[29] 0.000414547
36 *134:9 *251:81 0
37 *134:11 *3749:A 0.00103878
38 *134:11 *145:67 0
39 *134:11 *179:16 0
40 *134:11 *215:8 0.00741066
41 *134:11 *223:10 0.00146566
42 *134:11 *248:10 0.000891812
43 *134:11 *305:14 0.000146372
44 *134:11 *306:62 0.00397063
45 *134:11 *308:16 0.0106907
46 *134:15 *159:30 7.01137e-05
47 *134:15 *259:54 3.97677e-05
48 *134:26 *304:18 0.00018459
49 *134:26 *317:66 0.00019384
50 *134:28 *3781:DI[14] 0
51 *134:28 *304:18 9.25014e-06
52 *134:28 *317:66 0.000193833
53 *134:30 *3781:DI[14] 0
54 *134:30 *317:66 0.0001875
55 *134:32 *305:12 4.58101e-05
56 *134:32 *317:54 0
57 *134:32 *317:66 3.17148e-05
58 *134:34 *305:12 9.26302e-05
59 *134:34 *317:54 0
60 *134:36 *305:12 2.49067e-05
61 *134:38 *305:12 6.25211e-05
62 *134:38 *317:54 0
63 *134:40 *305:12 5.2584e-05
64 *134:40 *317:54 0
65 *134:46 *3754:A 0
66 *134:46 *305:12 5.76856e-05
67 *134:46 *317:54 0
68 *134:48 *3754:A 0
69 *134:48 *305:12 0
70 wbs_dat_o[27] *474:DIODE 0
71 *3:17 *134:48 0
72 *115:31 *134:11 0.00151527
73 *120:28 *463:DIODE 1.83053e-05
74 *121:34 *465:DIODE 5.49489e-05
75 *131:27 *471:DIODE 5.49489e-05
76 *133:27 *134:30 0
77 *133:27 *134:32 0
*RES
1 *3781:DO[29] *134:9 23.2679 
2 *134:9 *134:11 316.75 
3 *134:11 *134:15 7.5 
4 *134:15 *473:DIODE 9.83571 
5 *134:15 *134:26 7.05357 
6 *134:26 *134:28 2.55357 
7 *134:28 *134:30 2.55357 
8 *134:30 *134:32 2.55357 
9 *134:32 *134:34 3.46429 
10 *134:34 *134:36 1.64286 
11 *134:36 *134:38 2.55357 
12 *134:38 *134:40 2.55357 
13 *134:40 *134:46 3.21429 
14 *134:46 *134:48 2.55357 
15 *134:48 *474:DIODE 16.3536 
16 *134:48 *472:DIODE 13.8 
17 *134:46 *470:DIODE 13.8 
18 *134:40 *467:DIODE 14.3357 
19 *134:38 *465:DIODE 14.3357 
20 *134:36 *463:DIODE 14.3357 
21 *134:34 *3623:D 15.2688 
22 *134:32 *464:DIODE 14.3357 
23 *134:30 *466:DIODE 14.3357 
24 *134:28 *468:DIODE 14.3357 
25 *134:26 *471:DIODE 14.3357 
*END

*D_NET *135 0.0809752
*CONN
*I *475:DIODE I *D sky130_fd_sc_hd__diode_2
*I *3628:D I *D sky130_fd_sc_hd__and4b_1
*I *3781:DO[2] O *D CF_SRAM_1024x32
*CAP
1 *475:DIODE 0
2 *3628:D 0.000119885
3 *3781:DO[2] 0.0113904
4 *135:29 0.00743291
5 *135:21 0.0187035
6 *3628:D *3628:A_N 0.000100685
7 *3628:D *3628:C 0.00017467
8 *3628:D *3864:A 2.00029e-05
9 *3628:D *363:24 8.68263e-05
10 *3628:D *365:8 3.82239e-05
11 *135:21 *3781:BEN[1] 0
12 *135:21 *3781:DI[2] 2.731e-05
13 *135:21 *137:13 0.00126658
14 *135:21 *137:17 0.000189291
15 *135:21 *141:11 0.00112655
16 *135:21 *153:22 0.000669822
17 *135:21 *157:16 0.00226974
18 *135:21 *186:26 0.000517942
19 *135:21 *199:24 0.00110645
20 *135:21 *244:130 1.94945e-05
21 *135:29 *3869:A 9.12204e-05
22 *135:29 *141:19 0.0164267
23 *135:29 *148:48 0.000360518
24 *135:29 *312:32 2.64085e-05
25 *135:29 *319:16 0.00273009
26 *135:29 *320:12 0.000188464
27 *135:29 *320:22 0.000298256
28 *135:29 *361:34 0.00011307
29 *135:29 *365:8 0.000396286
30 *135:29 *367:49 0.000459312
31 *135:29 *367:59 5.02092e-05
32 *135:29 *369:72 0.000193942
33 *135:29 *369:97 0.000182846
34 *113:11 *135:21 0.00248789
35 *113:31 *135:29 0.000599487
36 *113:43 *135:29 0.000124728
37 *120:18 *135:21 0.00269143
38 *120:48 *135:29 0.00147298
39 *121:22 *135:21 0.00239803
40 *121:52 *135:29 0.000121926
41 *125:25 *135:29 0.00194887
42 *131:11 *135:21 0.0023522
*RES
1 *3781:DO[2] *135:21 48.2577 
2 *135:21 *135:29 34.5742 
3 *135:29 *3628:D 13.3938 
4 *135:29 *475:DIODE 9.3 
*END

*D_NET *136 0.0565149
*CONN
*I *3624:D I *D sky130_fd_sc_hd__and4b_1
*I *476:DIODE I *D sky130_fd_sc_hd__diode_2
*I *3781:DO[30] O *D CF_SRAM_1024x32
*CAP
1 *3624:D 9.17209e-05
2 *476:DIODE 0.000274188
3 *3781:DO[30] 0.00103155
4 *136:13 0.0141366
5 *136:11 0.0148022
6 *476:DIODE *309:10 0.000185958
7 *476:DIODE *310:8 0.000183717
8 *3624:D *3625:A_N 1.29998e-05
9 *136:11 *3781:DI[30] 0.00158457
10 *136:13 *145:67 0
11 *136:13 *179:14 0.000468684
12 *136:13 *309:10 0.0116514
13 *136:13 *310:8 0.0120182
14 *120:28 *476:DIODE 7.31322e-05
15 *131:11 *136:13 0
*RES
1 *3781:DO[30] *136:11 27.6786 
2 *136:11 *136:13 339.821 
3 *136:13 *476:DIODE 18.5321 
4 *136:13 *3624:D 15.4295 
*END

*D_NET *137 0.0542928
*CONN
*I *3625:D I *D sky130_fd_sc_hd__and4b_1
*I *477:DIODE I *D sky130_fd_sc_hd__diode_2
*I *3781:DO[31] O *D CF_SRAM_1024x32
*CAP
1 *3625:D 1.49738e-05
2 *477:DIODE 0.000236425
3 *3781:DO[31] 0.00139506
4 *137:17 0.00075364
5 *137:13 0.014387
6 *137:11 0.0152798
7 *477:DIODE *141:11 0.000119347
8 *477:DIODE *314:10 5.11018e-05
9 *3625:D *356:14 1.14548e-05
10 *137:11 *3781:BEN[30] 0
11 *137:11 *3781:DI[31] 0.00167363
12 *137:13 *141:11 0.00392759
13 *137:13 *157:16 0
14 *137:13 *199:24 0.000501115
15 *137:13 *314:10 0.0117026
16 *137:17 *141:11 0.00180364
17 *137:17 *314:10 0.000979697
18 *113:11 *137:13 0
19 *120:18 *137:13 0
20 *121:22 *137:13 0
21 *131:11 *137:13 0
22 *135:21 *137:13 0.00126658
23 *135:21 *137:17 0.000189291
*RES
1 *3781:DO[31] *137:11 33.8214 
2 *137:11 *137:13 327.812 
3 *137:13 *137:17 23.2946 
4 *137:17 *477:DIODE 17.2107 
5 *137:17 *3625:D 14.0366 
*END

*D_NET *138 0.0529232
*CONN
*I *3629:D I *D sky130_fd_sc_hd__and4b_1
*I *478:DIODE I *D sky130_fd_sc_hd__diode_2
*I *3781:DO[3] O *D CF_SRAM_1024x32
*CAP
1 *3629:D 0.00113908
2 *478:DIODE 0.000367986
3 *3781:DO[3] 0.00041149
4 *138:39 0.0020502
5 *138:35 0.00230538
6 *138:33 0.00180049
7 *138:31 0.0023531
8 *138:29 0.00315944
9 *138:19 0.00212569
10 *138:17 0.00169259
11 *478:DIODE *3825:A 1.02504e-05
12 *3629:D *3631:D 0
13 *3629:D *3867:A 3.23542e-05
14 *3629:D *140:23 6.31322e-05
15 *3629:D *300:24 0.00108123
16 *3629:D *343:22 4.15183e-05
17 *3629:D *366:134 2.3541e-05
18 *3629:D *368:155 0.000271233
19 *138:17 *3781:DI[3] 0
20 *138:17 *139:9 1.36882e-05
21 *138:17 *164:52 0.000601857
22 *138:29 *142:29 0.00278047
23 *138:29 *146:16 1.44868e-05
24 *138:29 *188:26 5.90347e-05
25 *138:29 *258:44 0
26 *138:29 *258:52 0.000383787
27 *138:31 *3781:vpwrac 0.000369378
28 *138:31 *140:15 0.000442901
29 *138:31 *188:18 0.00322001
30 *138:31 *188:26 0.000615605
31 *138:35 *140:15 0.0058014
32 *123:21 *138:19 0.00133275
33 *123:21 *138:29 0.000606464
34 *124:11 *138:19 0.00688742
35 *124:11 *138:29 1.4396e-05
36 *124:25 *478:DIODE 0.000137413
37 *124:25 *138:39 0.000100427
38 *125:21 *138:17 0.000134892
39 *126:27 *138:31 0.000214478
40 *128:11 *138:17 0.000603565
41 *130:43 *138:29 0.00136283
42 *132:11 *138:19 0.00683763
43 *132:23 *138:19 2.23987e-05
44 *132:23 *138:29 0.00143723
*RES
1 *3781:DO[3] *138:17 25.7232 
2 *138:17 *138:19 85.2768 
3 *138:19 *138:29 46.1161 
4 *138:29 *138:31 66.0446 
5 *138:31 *138:33 0.732143 
6 *138:33 *138:35 54.5446 
7 *138:35 *138:39 14.6429 
8 *138:39 *478:DIODE 19.9964 
9 *138:39 *3629:D 40.233 
*END

*D_NET *139 0.0760687
*CONN
*I *479:DIODE I *D sky130_fd_sc_hd__diode_2
*I *3630:D I *D sky130_fd_sc_hd__and4b_1
*I *3781:DO[4] O *D CF_SRAM_1024x32
*CAP
1 *479:DIODE 0
2 *3630:D 0.000300183
3 *3781:DO[4] 0.00141463
4 *139:19 0.00527473
5 *139:11 0.007901
6 *139:9 0.00434109
7 *3630:D *3627:B 6.05161e-06
8 *3630:D *3628:B 2.83284e-06
9 *3630:D *328:18 1.3144e-05
10 *3630:D *337:20 4.15592e-05
11 *3630:D *368:155 0.000109135
12 *3630:D *370:146 3.7374e-06
13 *139:9 *3742:A 0.000349328
14 *139:9 *3781:BEN[3] 0
15 *139:9 *3781:DI[4] 0
16 *139:9 *217:8 4.96572e-05
17 *139:11 *144:17 3.07945e-05
18 *139:11 *145:67 0.00969006
19 *139:11 *184:42 0.00815287
20 *139:11 *307:10 0.000522958
21 *139:19 *3781:vpwrpc 0
22 *139:19 *144:21 0.00234646
23 *139:19 *145:63 0.00082369
24 *139:19 *162:20 3.01902e-05
25 *139:19 *303:32 0
26 *139:19 *306:60 0
27 *139:19 *337:20 9.54798e-06
28 *114:21 *139:19 0.0163769
29 *116:15 *139:19 0.00162783
30 *118:13 *139:19 0.00253863
31 *122:27 *139:19 6.8057e-05
32 *124:25 *139:19 0.0140299
33 *138:17 *139:9 1.36882e-05
*RES
1 *3781:DO[4] *139:9 25.3482 
2 *139:9 *139:11 126.259 
3 *139:11 *139:19 37.4099 
4 *139:19 *3630:D 18.0366 
5 *139:19 *479:DIODE 13.8 
*END

*D_NET *140 0.0566015
*CONN
*I *3631:D I *D sky130_fd_sc_hd__and4b_1
*I *481:DIODE I *D sky130_fd_sc_hd__diode_2
*I *3781:DO[5] O *D CF_SRAM_1024x32
*CAP
1 *3631:D 0.00022837
2 *481:DIODE 0.000147071
3 *3781:DO[5] 0.000112336
4 *140:23 0.00121799
5 *140:15 0.0028678
6 *140:13 0.00202524
7 *140:11 0.00181614
8 *140:9 0.00192848
9 *481:DIODE *328:16 9.0145e-05
10 *3631:D *316:24 5.02932e-05
11 *3631:D *329:46 0.000135789
12 *3631:D *366:134 1.784e-05
13 *140:9 *3781:DI[5] 7.98579e-05
14 *140:11 *3781:BEN[15] 0.000465733
15 *140:11 *3781:DI[15] 1.94879e-05
16 *140:11 *164:50 0.000192153
17 *140:11 *188:28 0.00873054
18 *140:11 *258:44 1.68854e-05
19 *140:15 *3781:BEN[15] 0.000354842
20 *140:15 *142:31 0.0142831
21 *140:15 *188:18 0.00415796
22 *140:15 *188:26 0.00118556
23 *140:15 *281:56 0.000181381
24 *140:23 *142:37 0
25 *140:23 *316:24 0
26 *140:23 *328:16 4.72917e-05
27 *3629:D *3631:D 0
28 *3629:D *140:23 6.31322e-05
29 *126:27 *140:15 0.000417444
30 *127:21 *140:11 0.00157584
31 *128:11 *140:11 0.00793924
32 *128:23 *140:11 9.34059e-06
33 *138:31 *140:15 0.000442901
34 *138:35 *140:15 0.0058014
*RES
1 *3781:DO[5] *140:9 6.6875 
2 *140:9 *140:11 109.411 
3 *140:11 *140:13 4.5 
4 *140:13 *140:15 134.429 
5 *140:15 *140:23 23.125 
6 *140:23 *481:DIODE 11.0679 
7 *140:23 *3631:D 22.0009 
*END

*D_NET *141 0.0710823
*CONN
*I *3600:D I *D sky130_fd_sc_hd__and4b_1
*I *482:DIODE I *D sky130_fd_sc_hd__diode_2
*I *3781:DO[6] O *D CF_SRAM_1024x32
*CAP
1 *3600:D 1.47562e-05
2 *482:DIODE 0.000125843
3 *3781:DO[6] 0.00204981
4 *141:19 0.00733987
5 *141:11 0.00984201
6 *141:9 0.00469255
7 *482:DIODE *3600:C 3.10819e-05
8 *482:DIODE *3864:A 0.000103553
9 *482:DIODE *181:28 2.09826e-05
10 *482:DIODE *363:24 2.95746e-06
11 *482:DIODE *364:18 2.26995e-05
12 *3600:D *3823:A 2.3541e-05
13 *141:9 *3781:BEN[5] 0
14 *141:9 *3781:DI[6] 0
15 *141:9 *197:8 0
16 *141:9 *204:8 0
17 *141:11 *157:16 0.000181111
18 *141:11 *199:24 0.00838362
19 *141:11 *314:10 0.000103698
20 *141:19 *3600:C 1.04707e-05
21 *141:19 *3864:A 1.90936e-05
22 *141:19 *3869:A 0.000161168
23 *141:19 *145:24 0.000517084
24 *141:19 *181:28 2.67463e-05
25 *141:19 *258:18 0.00183082
26 *141:19 *270:34 0
27 *141:19 *312:32 5.20531e-05
28 *141:19 *316:24 0.000117279
29 *141:19 *319:16 0.000326528
30 *141:19 *350:14 0.000168615
31 *141:19 *361:14 0.000349031
32 *141:19 *361:22 0.000543264
33 *141:19 *363:24 0.00105923
34 *141:19 *367:49 0.000203224
35 *141:19 *372:14 0.00558539
36 *397:DIODE *141:19 0.000599337
37 *403:DIODE *141:19 6.71885e-05
38 *477:DIODE *141:11 0.000119347
39 *113:11 *141:11 0.000248
40 *113:27 *141:19 0.00235439
41 *120:56 *141:19 0.000349009
42 *121:54 *141:19 0.000152412
43 *135:21 *141:11 0.00112655
44 *135:29 *141:19 0.0164267
45 *137:13 *141:11 0.00392759
46 *137:17 *141:11 0.00180364
*RES
1 *3781:DO[6] *141:9 32.7768 
2 *141:9 *141:11 119.58 
3 *141:11 *141:19 35.8263 
4 *141:19 *482:DIODE 16.4071 
5 *141:19 *3600:D 14.0366 
*END

*D_NET *142 0.0580008
*CONN
*I *3601:D I *D sky130_fd_sc_hd__and4b_1
*I *483:DIODE I *D sky130_fd_sc_hd__diode_2
*I *3781:DO[7] O *D CF_SRAM_1024x32
*CAP
1 *3601:D 5.94071e-06
2 *483:DIODE 0.000364835
3 *3781:DO[7] 0.000851176
4 *142:37 0.0012497
5 *142:31 0.00287092
6 *142:29 0.00256406
7 *142:25 0.00116468
8 *142:13 0.00144379
9 *483:DIODE *3600:A_N 0.000169905
10 *483:DIODE *278:22 0.0001827
11 *483:DIODE *312:32 0.000510402
12 *483:DIODE *365:8 0.000103567
13 *483:DIODE *366:113 9.60939e-05
14 *483:DIODE *368:106 2.59355e-05
15 *483:DIODE *368:113 1.98839e-05
16 *3601:D *366:113 1.19057e-05
17 *3601:D *368:113 1.14548e-05
18 *142:13 *3781:DI[7] 0.000145847
19 *142:13 *146:16 0.00280048
20 *142:25 *3781:BEN[10] 6.05161e-06
21 *142:25 *3781:BEN[12] 6.05161e-06
22 *142:25 *143:33 6.05161e-06
23 *142:25 *164:52 0.00158209
24 *142:25 *241:98 3.55471e-05
25 *142:29 *303:32 2.09897e-05
26 *142:31 *143:53 0.000158482
27 *142:31 *143:55 0.013346
28 *142:31 *281:70 5.37731e-05
29 *142:31 *301:18 0.000331369
30 *142:31 *302:20 0.000604733
31 *142:37 *3600:B 3.32054e-05
32 *142:37 *170:52 8.22793e-06
33 *142:37 *316:24 0
34 *142:37 *329:46 0
35 *142:37 *337:20 0.000199608
36 *142:37 *370:127 4.67962e-05
37 *3665:A *483:DIODE 0.000160428
38 *3665:A *142:37 0.000183055
39 *122:21 *142:13 0.00054376
40 *123:21 *142:29 0.000451449
41 *124:11 *142:29 0.00291915
42 *125:21 *142:25 0.000344852
43 *126:27 *142:31 0.000851822
44 *128:11 *142:25 0.00158552
45 *130:43 *142:29 5.84218e-05
46 *132:11 *142:13 0.00280048
47 *133:25 *142:13 6.05161e-06
48 *138:29 *142:29 0.00278047
49 *140:15 *142:31 0.0142831
50 *140:23 *142:37 0
*RES
1 *3781:DO[7] *142:13 49.1696 
2 *142:13 *142:25 37.4107 
3 *142:25 *142:29 40.75 
4 *142:29 *142:31 141 
5 *142:31 *142:37 25.2143 
6 *142:37 *483:DIODE 27.925 
7 *142:37 *3601:D 9.53661 
*END

*D_NET *143 0.0481564
*CONN
*I *484:DIODE I *D sky130_fd_sc_hd__diode_2
*I *3602:D I *D sky130_fd_sc_hd__and4b_1
*I *388:DIODE I *D sky130_fd_sc_hd__diode_2
*I *3781:DO[8] O *D CF_SRAM_1024x32
*CAP
1 *484:DIODE 0
2 *3602:D 4.97435e-05
3 *388:DIODE 1.90968e-05
4 *3781:DO[8] 0.0016669
5 *143:63 0.000301836
6 *143:59 0.000769831
7 *143:55 0.00491621
8 *143:53 0.00478553
9 *143:49 0.00123583
10 *143:41 0.00119912
11 *143:33 0.00203634
12 *388:DIODE *336:28 9.90431e-05
13 *388:DIODE *370:81 5.52302e-05
14 *388:DIODE *370:94 4.18895e-05
15 *3602:D *336:28 4.18895e-05
16 *3602:D *366:90 3.37161e-05
17 *3602:D *368:106 6.67451e-05
18 *3602:D *370:94 9.71197e-05
19 *3602:D *370:101 9.5172e-05
20 *143:33 *3781:DI[8] 7.30916e-05
21 *143:33 *162:24 0.000924929
22 *143:33 *164:52 0.000315234
23 *143:41 *146:16 0.00141026
24 *143:41 *241:98 0.000216755
25 *143:49 *259:54 2.05612e-05
26 *143:49 *301:18 8.79304e-05
27 *143:53 *3781:vpwrpc 0.000122494
28 *143:53 *159:30 0.000516214
29 *143:53 *259:54 0.000597603
30 *143:53 *301:18 0.00129653
31 *143:59 *3642:A 2.83284e-06
32 *143:59 *300:22 7.11805e-05
33 *143:59 *371:31 0
34 *143:63 *3604:B 7.29712e-05
35 *143:63 *3604:C 4.00349e-05
36 *143:63 *3642:A 1.28273e-05
37 *143:63 *170:42 1.53688e-05
38 *143:63 *278:22 3.37708e-05
39 *143:63 *300:22 0.000118234
40 *143:63 *368:41 7.636e-05
41 *461:DIODE *143:49 9.58181e-05
42 *114:21 *143:59 7.51746e-05
43 *116:11 *143:49 0.00300365
44 *116:23 *143:59 0
45 *119:19 *143:53 7.66118e-05
46 *119:19 *143:55 6.87944e-05
47 *122:21 *143:33 0.000888822
48 *122:21 *143:41 0.000306172
49 *126:27 *143:55 0.000953238
50 *128:11 *143:33 0.000317286
51 *129:11 *143:33 0.000908885
52 *129:19 *143:49 0.00300127
53 *132:11 *143:41 0.00141368
54 *142:25 *143:33 6.05161e-06
55 *142:31 *143:53 0.000158482
56 *142:31 *143:55 0.013346
*RES
1 *3781:DO[8] *143:33 49.4817 
2 *143:33 *143:41 28.6071 
3 *143:41 *143:49 45.0714 
4 *143:49 *143:53 17.4911 
5 *143:53 *143:55 131.348 
6 *143:55 *143:59 15.25 
7 *143:59 *143:63 9.17857 
8 *143:63 *388:DIODE 10.2464 
9 *143:63 *3602:D 11.1795 
10 *143:59 *484:DIODE 13.8 
*END

*D_NET *144 0.0584921
*CONN
*I *485:DIODE I *D sky130_fd_sc_hd__diode_2
*I *3603:D I *D sky130_fd_sc_hd__and4b_1
*I *486:DIODE I *D sky130_fd_sc_hd__diode_2
*I *3781:DO[9] O *D CF_SRAM_1024x32
*CAP
1 *485:DIODE 0
2 *3603:D 0.000247175
3 *486:DIODE 0
4 *3781:DO[9] 0.00139517
5 *144:31 0.000532112
6 *144:25 0.000776707
7 *144:21 0.00522635
8 *144:19 0.00473459
9 *144:17 0.00170224
10 *144:15 0.00309741
11 *3603:D *3603:B 5.33005e-05
12 *3603:D *3605:C 5.21877e-05
13 *3603:D *312:32 0.000195241
14 *3603:D *329:24 8.66063e-05
15 *3603:D *335:26 0.000201489
16 *3603:D *336:28 0.000111771
17 *144:15 *3746:A 5.33005e-05
18 *144:15 *3757:A 0.000421074
19 *144:15 *3781:BEN[8] 0
20 *144:15 *3781:DI[9] 0
21 *144:15 *182:62 2.46837e-06
22 *144:15 *193:18 6.06291e-05
23 *144:15 *232:8 5.2727e-05
24 *144:17 *145:67 0.000105225
25 *144:17 *159:32 0.00565897
26 *144:17 *270:36 0.00598087
27 *144:21 *153:20 0.00326979
28 *144:21 *171:18 0.00121335
29 *144:21 *361:46 9.77264e-06
30 *144:21 *361:54 0.000181727
31 *144:25 *327:38 0.00030237
32 *144:25 *366:12 0
33 *144:25 *370:10 6.44086e-05
34 *144:25 *370:14 9.23883e-05
35 *144:31 *327:38 0.00036224
36 *144:31 *329:24 0.000481575
37 *468:DIODE *144:21 5.49489e-05
38 *3605:D *3603:D 6.79842e-05
39 *3608:D *144:25 0.00018423
40 *3632:RESET_B *3603:D 9.71197e-05
41 *3632:RESET_B *144:31 0.000479658
42 *61:11 *144:31 0.000153665
43 *110:16 *144:21 0.00158932
44 *114:21 *144:21 0.000231426
45 *116:23 *144:25 0
46 *118:13 *144:21 0.0164638
47 *119:55 *144:25 6.74751e-05
48 *139:11 *144:17 3.07945e-05
49 *139:19 *144:21 0.00234646
*RES
1 *3781:DO[9] *144:15 25.1875 
2 *144:15 *144:17 76.9286 
3 *144:17 *144:19 4.5 
4 *144:19 *144:21 167.696 
5 *144:21 *144:25 16.4643 
6 *144:25 *144:31 14.4286 
7 *144:31 *486:DIODE 9.3 
8 *144:31 *3603:D 25.1973 
9 *144:25 *485:DIODE 13.8 
*END

*D_NET *145 0.0641777
*CONN
*I *3781:EN I *D CF_SRAM_1024x32
*I *3632:D I *D sky130_fd_sc_hd__dfrtp_1
*I *390:DIODE I *D sky130_fd_sc_hd__diode_2
*I *389:DIODE I *D sky130_fd_sc_hd__diode_2
*I *3599:X O *D sky130_fd_sc_hd__and2_4
*CAP
1 *3781:EN 0.00141504
2 *3632:D 0
3 *390:DIODE 6.96262e-05
4 *389:DIODE 7.44713e-05
5 *3599:X 1.78683e-05
6 *145:67 0.00820906
7 *145:65 0.00679402
8 *145:63 0.00321504
9 *145:61 0.00425633
10 *145:28 0.000411384
11 *145:24 0.00101107
12 *145:6 0.00180294
13 *389:DIODE *3823:A 0.000140115
14 *390:DIODE *3823:A 0.000140977
15 *390:DIODE *3864:A 7.48679e-06
16 *390:DIODE *329:46 6.25005e-05
17 *3781:EN *3781:WLOFF 8.25976e-05
18 *3781:EN *3781:R_WB 0
19 *145:6 *312:40 0.000142856
20 *145:6 *318:8 0.000131439
21 *145:24 *3825:A 5.2705e-05
22 *145:24 *3838:A 3.34366e-05
23 *145:24 *3839:A 6.25005e-05
24 *145:24 *3869:A 0.000130366
25 *145:24 *181:46 5.65144e-05
26 *145:24 *312:40 0.00166721
27 *145:24 *318:8 0.00162472
28 *145:24 *331:24 0
29 *145:24 *333:20 8.80306e-05
30 *145:24 *350:14 0.000149123
31 *145:24 *364:18 6.00218e-05
32 *145:24 *367:49 0.000186845
33 *145:28 *333:20 0.000169954
34 *145:28 *364:18 0.00024564
35 *145:61 *332:28 0
36 *145:63 *162:20 0.00217088
37 *145:63 *199:12 0.00280143
38 *145:63 *199:22 0.00160108
39 *145:63 *303:32 0.000680182
40 *145:63 *328:48 0.0025029
41 *145:63 *361:46 1.64621e-05
42 *145:67 *159:32 0.00568499
43 *145:67 *179:14 0.000468684
44 *145:67 *223:10 0
45 *145:67 *270:36 0.000419799
46 *145:67 *307:10 0
47 *145:67 *310:8 0
48 *403:DIODE *145:24 0.000263402
49 *507:DIODE *145:28 0.000135028
50 *3632:RESET_B *389:DIODE 0.0001384
51 *3632:RESET_B *390:DIODE 4.39995e-05
52 *3632:RESET_B *145:28 4.50774e-05
53 *111:14 *145:24 0.000226271
54 *113:43 *145:24 2.14757e-05
55 *116:15 *145:61 0.000377034
56 *116:15 *145:63 0.00236736
57 *122:27 *145:63 0.000101601
58 *124:25 *145:61 0.000137471
59 *131:27 *145:63 0.000326209
60 *134:11 *145:67 0
61 *136:13 *145:67 0
62 *139:11 *145:67 0.00969006
63 *139:19 *145:63 0.00082369
64 *141:19 *145:24 0.000517084
65 *144:17 *145:67 0.000105225
*RES
1 *3599:X *145:6 10.6571 
2 *145:6 *145:24 40.9097 
3 *145:24 *145:28 10.7857 
4 *145:28 *389:DIODE 15.7464 
5 *145:28 *390:DIODE 15.7464 
6 *145:24 *3632:D 9.3 
7 *145:6 *145:61 27.5804 
8 *145:61 *145:63 118.205 
9 *145:63 *145:65 4.5 
10 *145:65 *145:67 188.036 
11 *145:67 *3781:EN 24.9598 
*END

*D_NET *146 0.0630855
*CONN
*I *3781:R_WB I *D CF_SRAM_1024x32
*I *3597:Y O *D sky130_fd_sc_hd__clkinv_4
*CAP
1 *3781:R_WB 0.000328454
2 *3597:Y 0.00359482
3 *146:16 0.00349282
4 *146:14 0.00675919
5 *3781:R_WB *3781:AD[0] 0
6 *3781:R_WB *3781:WLOFF 0
7 *146:14 *157:14 0.00249751
8 *146:14 *166:14 0.000301534
9 *146:14 *316:26 0.000127359
10 *146:16 *3781:DI[9] 1.53472e-05
11 *146:16 *162:24 0.00565957
12 *146:16 *190:18 0.00070071
13 *146:16 *199:22 7.45123e-05
14 *146:16 *206:10 0.00788351
15 *146:16 *303:32 2.49655e-05
16 *3781:EN *3781:R_WB 0
17 *110:16 *146:14 0.000477562
18 *114:21 *146:14 0.0104674
19 *122:21 *146:16 0.00319803
20 *128:23 *146:14 0.00264013
21 *130:43 *146:16 0.00169793
22 *132:11 *146:16 5.56477e-05
23 *132:23 *146:16 0.00147775
24 *132:29 *146:16 0.00011787
25 *133:11 *146:16 0.00726775
26 *138:29 *146:16 1.44868e-05
27 *142:13 *146:16 0.00280048
28 *143:41 *146:16 0.00141026
*RES
1 *3597:Y *146:14 38.5587 
2 *146:14 *146:16 187.884 
3 *146:16 *3781:R_WB 9.55357 
*END

*D_NET *147 0.00546614
*CONN
*I *3598:A I *D sky130_fd_sc_hd__inv_2
*I *3791:X O *D sky130_fd_sc_hd__buf_1
*CAP
1 *3598:A 0.000323293
2 *3791:X 0.00135557
3 *147:26 0.00167886
4 *3598:A *3775:A 0
5 *3598:A *3842:A 9.91692e-05
6 *3598:A *323:10 0.00015234
7 *147:26 *330:28 9.31893e-05
8 wbs_ack_o *147:26 0.000260574
9 wbs_dat_o[0] *147:26 3.92757e-05
10 wbs_dat_o[1] *3598:A 4.78056e-05
11 *514:DIODE *147:26 4.79567e-05
12 *530:DIODE *147:26 0.000318119
13 *3774:A *147:26 0.000360293
14 *3777:A *147:26 0.000534229
15 *3791:A *147:26 2.34059e-05
16 *50:13 *3598:A 3.0285e-05
17 *103:11 *147:26 2.34204e-05
18 *108:13 *147:26 7.83543e-05
*RES
1 *3791:X *147:26 46.4607 
2 *147:26 *3598:A 20.3 
*END

*D_NET *148 0.0501407
*CONN
*I *3746:A I *D sky130_fd_sc_hd__dlygate4sd3_1
*I *3792:X O *D sky130_fd_sc_hd__buf_4
*CAP
1 *3746:A 0.00231411
2 *3792:X 0.0015612
3 *148:48 0.00616293
4 *148:30 0.0046863
5 *148:24 0.00197575
6 *148:16 0.00269946
7 *3746:A *3749:A 0.00731758
8 *3746:A *193:18 6.05161e-06
9 *3746:A *259:58 0.00109349
10 *3746:A *302:24 0.000333765
11 *3746:A *302:26 6.95699e-05
12 *3746:A *305:12 0.000103807
13 *3746:A *305:14 0.00102773
14 *3746:A *306:62 0.000815878
15 *3746:A *339:40 0.00278959
16 *148:16 *3796:A 0.000178847
17 *148:16 *3802:A 2.59355e-05
18 *148:16 *3844:A 0.000683018
19 *148:16 *350:14 0.000348498
20 *148:24 *322:16 0.00111832
21 *148:24 *361:22 0.000163416
22 *148:30 *306:12 0.00419321
23 *148:30 *306:28 0.00085699
24 *148:30 *317:44 0.00468946
25 *148:30 *350:14 0.000408471
26 *148:48 *3808:A 0.00016924
27 *148:48 *258:30 0.000614876
28 *148:48 *369:146 0.000100368
29 wbs_dat_o[22] *148:30 0.000229456
30 *521:DIODE *148:16 4.88631e-05
31 *111:14 *148:16 0.000194265
32 *115:31 *3746:A 0.000333765
33 *120:48 *148:48 1.38323e-05
34 *121:52 *148:48 9.45051e-05
35 *125:25 *148:48 3.89689e-05
36 *127:25 *148:48 0.00206789
37 *128:43 *148:48 1.02504e-05
38 *128:45 *148:48 0.000117662
39 *129:41 *148:48 1.80748e-05
40 *129:43 *148:48 8.44271e-06
41 *129:45 *148:48 4.2993e-05
42 *135:29 *148:48 0.000360518
43 *144:15 *3746:A 5.33005e-05
*RES
1 *3792:X *148:16 42.6036 
2 *148:16 *148:24 24.625 
3 *148:24 *148:30 49.5536 
4 *148:30 *148:48 38.3399 
5 *148:48 *3746:A 37.3695 
*END

*D_NET *149 0.00841243
*CONN
*I *3781:DI[15] I *D CF_SRAM_1024x32
*I *3693:X O *D sky130_fd_sc_hd__dlygate4sd3_1
*CAP
1 *3781:DI[15] 0.00236476
2 *3693:X 0.00236476
3 *3781:DI[15] *3781:vpwrpc 0.00169807
4 *3781:DI[15] *162:20 0.000220691
5 *3781:DI[15] *164:50 1.94879e-05
6 *3781:DI[15] *166:10 0
7 *3781:DI[15] *241:52 1.22954e-05
8 *119:13 *3781:DI[15] 0
9 *119:19 *3781:DI[15] 0.000122494
10 *123:27 *3781:DI[15] 0.000569832
11 *126:27 *3781:DI[15] 0.000622849
12 *127:21 *3781:DI[15] 0.000397713
13 *140:11 *3781:DI[15] 1.94879e-05
*RES
1 *3693:X *3781:DI[15] 49.5325 
*END

*D_NET *150 0.000899807
*CONN
*I *3819:A I *D sky130_fd_sc_hd__buf_4
*I *3704:X O *D sky130_fd_sc_hd__dlygate4sd3_1
*CAP
1 *3819:A 0.000175904
2 *3704:X 0.000175904
3 *3819:A *3704:A 5.65955e-05
4 *3819:A *300:14 0.000434757
5 *61:11 *3819:A 5.66469e-05
*RES
1 *3704:X *3819:A 23.2607 
*END

*D_NET *151 0.048025
*CONN
*I *3781:DI[2] I *D CF_SRAM_1024x32
*I *3715:X O *D sky130_fd_sc_hd__dlygate4sd3_1
*CAP
1 *3781:DI[2] 0.000171946
2 *3715:X 0.00115098
3 *151:26 0.00285505
4 *151:24 0.00321378
5 *151:20 0.00146666
6 *151:12 0.00208695
7 *3781:DI[2] *155:8 4.58194e-05
8 *3781:DI[2] *244:130 0
9 *151:12 *489:DIODE 0.000218045
10 *151:12 *3707:A 0.000358505
11 *151:12 *3711:A 0
12 *151:12 *3744:A 9.90367e-05
13 *151:12 *214:32 0.000179343
14 *151:12 *315:50 7.90536e-05
15 *151:12 *327:73 0.000765614
16 *151:12 *329:80 5.71472e-05
17 *151:20 *164:26 9.12639e-05
18 *151:20 *164:38 0.00286965
19 *151:20 *219:36 9.65161e-05
20 *151:20 *244:28 0.00368111
21 *151:20 *304:10 0
22 *151:20 *367:173 4.77415e-05
23 *151:24 *182:32 0.000765295
24 *151:24 *219:36 5.33005e-05
25 *151:24 *327:73 0.00152554
26 *151:26 *164:50 9.84621e-05
27 *151:26 *164:52 0.0102588
28 *151:26 *241:52 0.000124072
29 *439:DIODE *151:24 0.000136676
30 *124:11 *151:26 0.0115661
31 *126:21 *151:26 0.00222511
32 *128:11 *151:26 1.09232e-05
33 *128:23 *151:26 0.00144565
34 *130:59 *151:20 1.02504e-05
35 *130:61 *151:20 0.000165982
36 *130:63 *151:20 7.73022e-05
37 *132:29 *151:26 0
38 *135:21 *3781:DI[2] 2.731e-05
*RES
1 *3715:X *151:12 41.2107 
2 *151:12 *151:20 47.6071 
3 *151:20 *151:24 19.4107 
4 *151:24 *151:26 149.179 
5 *151:26 *3781:DI[2] 7.4375 
*END

*D_NET *152 0.000736614
*CONN
*I *3796:A I *D sky130_fd_sc_hd__clkbuf_4
*I *3726:X O *D sky130_fd_sc_hd__dlygate4sd3_1
*CAP
1 *3796:A 0.000191891
2 *3726:X 0.000191891
3 *3796:A *3726:A 0
4 *494:DIODE *3796:A 1.19191e-05
5 *521:DIODE *3796:A 0
6 *3647:A *3796:A 5.52302e-05
7 *40:13 *3796:A 6.86105e-05
8 *111:14 *3796:A 3.82242e-05
9 *148:16 *3796:A 0.000178847
*RES
1 *3726:X *3796:A 31.6179 
*END

*D_NET *153 0.0329031
*CONN
*I *3781:DI[10] I *D CF_SRAM_1024x32
*I *3737:X O *D sky130_fd_sc_hd__dlygate4sd3_1
*CAP
1 *3781:DI[10] 0.002131
2 *3737:X 0.00180226
3 *153:22 0.0035283
4 *153:20 0.00241496
5 *153:16 0.00281992
6 *153:16 *184:20 0.000318481
7 *153:16 *186:14 0.00265255
8 *153:16 *328:44 6.88818e-05
9 *153:20 *171:18 0.00204935
10 *153:20 *308:14 0.00106524
11 *153:22 *186:26 0.00449383
12 *153:22 *309:10 0.0052686
13 *412:DIODE *153:16 0.00010096
14 *431:DIODE *153:16 3.22325e-05
15 *110:16 *153:20 1.51489e-05
16 *114:11 *3781:DI[10] 4.28927e-06
17 *114:21 *153:20 0.000111763
18 *128:124 *153:16 8.57023e-05
19 *131:11 *153:22 0
20 *135:21 *153:22 0.000669822
21 *144:21 *153:20 0.00326979
*RES
1 *3737:X *153:16 49.5679 
2 *153:16 *153:20 40.3571 
3 *153:20 *153:22 66.3036 
4 *153:22 *3781:DI[10] 28.5625 
*END

*D_NET *154 9.46202e-05
*CONN
*I *3816:A I *D sky130_fd_sc_hd__buf_4
*I *3748:X O *D sky130_fd_sc_hd__dlygate4sd3_1
*CAP
1 *3816:A 1.9262e-05
2 *3748:X 1.9262e-05
3 *3816:A *227:18 5.60962e-05
*RES
1 *3748:X *3816:A 19.1357 
*END

*D_NET *155 0.0276541
*CONN
*I *3781:DI[27] I *D CF_SRAM_1024x32
*I *3759:X O *D sky130_fd_sc_hd__dlygate4sd3_1
*CAP
1 *3781:DI[27] 0.000142248
2 *3759:X 0.000689864
3 *155:10 0.00448754
4 *155:8 0.00503516
5 *3781:DI[27] *3781:BEN[27] 0
6 *155:10 *3781:BEN[23] 0.000174348
7 *155:10 *3781:BEN[27] 0.000183002
8 *155:10 *3781:DI[26] 0.00263327
9 *155:10 *3781:DI[17] 0.00117374
10 *155:10 *164:52 0.00155181
11 *155:10 *212:28 0
12 *155:10 *251:25 0.000264349
13 *155:10 *251:37 0.000321135
14 *3781:DI[2] *155:8 4.58194e-05
15 *112:10 *155:10 0
16 *125:21 *155:10 0.000232063
17 *126:21 *155:10 0.00110383
18 *128:11 *155:10 0.00961596
19 *132:9 *3781:DI[27] 0
20 *132:11 *155:10 0
21 *133:11 *155:10 0
*RES
1 *3759:X *155:8 22.55 
2 *155:8 *155:10 161.018 
3 *155:10 *3781:DI[27] 6.85714 
*END

*D_NET *156 0.000245952
*CONN
*I *3807:A I *D sky130_fd_sc_hd__buf_4
*I *3770:X O *D sky130_fd_sc_hd__dlygate4sd3_1
*CAP
1 *3807:A 8.41694e-05
2 *3770:X 8.41694e-05
3 *541:DIODE *3807:A 7.76132e-05
*RES
1 *3770:X *3807:A 29.5464 
*END

*D_NET *157 0.0616954
*CONN
*I *3781:DI[1] I *D CF_SRAM_1024x32
*I *3644:X O *D sky130_fd_sc_hd__dlygate4sd3_1
*CAP
1 *3781:DI[1] 0.00232751
2 *3644:X 0.00845371
3 *157:16 0.00582517
4 *157:14 0.0119514
5 *157:14 *3709:A 0.000285487
6 *157:14 *164:38 0.00047363
7 *157:14 *170:74 0.00100363
8 *157:14 *173:8 0.0001489
9 *157:14 *173:12 0.000166337
10 *157:14 *182:32 0.000105076
11 *157:14 *184:20 0.000194412
12 *157:14 *184:36 0.000376961
13 *157:14 *192:28 0.000311475
14 *157:14 *241:18 0
15 *157:14 *316:26 0.00040253
16 *157:14 *328:36 2.81993e-05
17 *157:14 *329:80 8.0208e-05
18 *157:16 *199:24 0.00975277
19 *113:11 *157:16 0.0125059
20 *114:21 *157:14 0.000496533
21 *124:9 *3781:DI[1] 0.000308092
22 *128:23 *157:14 0.0012772
23 *131:56 *157:14 0.000271958
24 *135:21 *157:16 0.00226974
25 *137:13 *157:16 0
26 *141:11 *157:16 0.000181111
27 *146:14 *157:14 0.00249751
*RES
1 *3644:X *157:14 40.2577 
2 *157:14 *157:16 157.527 
3 *157:16 *3781:DI[1] 32.2054 
*END

*D_NET *158 0.000733916
*CONN
*I *3817:A I *D sky130_fd_sc_hd__buf_4
*I *3655:X O *D sky130_fd_sc_hd__dlygate4sd3_1
*CAP
1 *3817:A 0.000216862
2 *3655:X 0.000216862
3 *3817:A *307:10 0.000150096
4 *3817:A *353:14 0.000150096
*RES
1 *3655:X *3817:A 31.3143 
*END

*D_NET *159 0.0448489
*CONN
*I *3740:A I *D sky130_fd_sc_hd__dlygate4sd3_1
*I *3793:X O *D sky130_fd_sc_hd__buf_4
*CAP
1 *3740:A 0
2 *3793:X 0.00132061
3 *159:32 0.00156609
4 *159:30 0.00243812
5 *159:26 0.00487211
6 *159:18 0.00663332
7 *159:10 0.00395385
8 *159:10 *3677:A 9.93955e-05
9 *159:10 *3701:A 4.87854e-05
10 *159:10 *3717:A 3.08664e-05
11 *159:10 *3730:A 9.7659e-05
12 *159:10 *3793:A 2.59355e-05
13 *159:10 *3813:A 5.52302e-05
14 *159:10 *339:16 0.000579199
15 *159:10 *339:18 1.28856e-05
16 *159:18 *3714:A 0
17 *159:18 *214:16 0.000971065
18 *159:18 *247:8 0.00208032
19 *159:18 *339:18 0.000276032
20 *159:18 *341:18 0
21 *159:18 *342:20 0
22 *159:26 *301:18 0
23 *159:26 *304:10 0.00140603
24 *159:26 *326:14 0.00141634
25 *159:26 *348:16 0
26 *159:30 *259:54 0.00166958
27 *159:30 *306:38 0.00023973
28 *159:32 *270:36 1.21398e-05
29 wbs_dat_o[18] *159:18 2.03519e-05
30 *434:DIODE *159:26 0
31 *509:DIODE *159:26 0.000175606
32 *3676:A *159:10 0.000102207
33 *119:19 *159:30 0.00236824
34 *120:28 *159:26 4.6109e-05
35 *130:43 *159:26 0.00040076
36 *130:73 *159:26 0
37 *134:15 *159:30 7.01137e-05
38 *143:53 *159:30 0.000516214
39 *144:17 *159:32 0.00565897
40 *145:67 *159:32 0.00568499
*RES
1 *3793:X *159:10 33.0768 
2 *159:10 *159:18 46.1421 
3 *159:18 *159:26 39.3964 
4 *159:26 *159:30 34.1964 
5 *159:30 *159:32 72.9821 
6 *159:32 *3740:A 13.8 
*END

*D_NET *160 0.0278818
*CONN
*I *3781:DI[28] I *D CF_SRAM_1024x32
*I *3666:X O *D sky130_fd_sc_hd__dlygate4sd3_1
*CAP
1 *3781:DI[28] 0.000731409
2 *3666:X 0.00067546
3 *160:16 0.00460456
4 *160:14 0.00506601
5 *160:10 0.00186832
6 *3781:DI[28] *3781:BEN[28] 0.000373552
7 *160:10 *212:10 1.09232e-05
8 *160:10 *228:10 0.002306
9 *160:10 *230:20 0.000411011
10 *160:10 *234:10 0.000361508
11 *160:10 *239:24 0.00161893
12 *160:14 *212:20 0.00100246
13 *160:14 *228:10 0.00166865
14 *160:14 *230:20 0.00052731
15 *160:14 *239:24 0.000448682
16 *160:14 *380:14 2.11419e-05
17 *160:16 *168:10 0
18 *160:16 *212:20 8.9142e-05
19 *160:16 *228:10 0.00526615
20 *160:16 *230:20 0.000718797
21 *133:9 *3781:DI[28] 0.000111828
*RES
1 *3666:X *160:10 43.7554 
2 *160:10 *160:14 40.9643 
3 *160:14 *160:16 92.3304 
4 *160:16 *3781:DI[28] 28.3393 
*END

*D_NET *161 0.000683847
*CONN
*I *3829:A I *D sky130_fd_sc_hd__clkbuf_4
*I *3677:X O *D sky130_fd_sc_hd__dlygate4sd3_1
*CAP
1 *3829:A 0.000187441
2 *3677:X 0.000187441
3 *3829:A *3802:A 0.000146264
4 *3829:A *3844:A 0.000122439
5 *3829:A *3873:A 0
6 *3829:A *258:18 2.64366e-05
7 *3829:A *367:49 1.38247e-05
*RES
1 *3677:X *3829:A 31.3679 
*END

*D_NET *162 0.0275102
*CONN
*I *3781:DI[9] I *D CF_SRAM_1024x32
*I *3687:X O *D sky130_fd_sc_hd__dlygate4sd3_1
*CAP
1 *3781:DI[9] 0.000567366
2 *3687:X 0.000231589
3 *162:24 0.00174367
4 *162:22 0.0011763
5 *162:20 0.00154457
6 *162:10 0.00177616
7 *3781:DI[9] *182:62 6.05161e-06
8 *3781:DI[9] *206:8 4.00276e-06
9 *3781:DI[9] *206:10 0.000131297
10 *162:20 *3781:vpwrpc 0.00014281
11 *162:20 *301:18 0.000107332
12 *162:20 *304:18 0.000109996
13 *162:24 *182:52 0.00265443
14 *162:24 *182:62 0
15 *3781:DI[15] *162:20 0.000220691
16 *116:15 *162:20 0.00396442
17 *122:27 *162:20 4.6988e-05
18 *123:27 *162:20 0.00118643
19 *124:25 *162:20 0.000640159
20 *129:11 *3781:DI[9] 0.000164383
21 *129:11 *162:24 0.000117843
22 *129:19 *162:24 1.69233e-05
23 *130:33 *162:24 0.0002652
24 *130:43 *162:20 0.000100215
25 *132:23 *162:24 0.00156587
26 *132:29 *162:24 0.000224535
27 *139:19 *162:20 3.01902e-05
28 *143:33 *162:24 0.000924929
29 *144:15 *3781:DI[9] 0
30 *145:63 *162:20 0.00217088
31 *146:16 *3781:DI[9] 1.53472e-05
32 *146:16 *162:24 0.00565957
*RES
1 *3687:X *162:10 21.4607 
2 *162:10 *162:20 49.1821 
3 *162:20 *162:22 3.41 
4 *162:22 *162:24 70.5536 
5 *162:24 *3781:DI[9] 14.4643 
*END

*D_NET *163 0.00278318
*CONN
*I *3795:A I *D sky130_fd_sc_hd__buf_4
*I *3688:X O *D sky130_fd_sc_hd__dlygate4sd3_1
*CAP
1 *3795:A 0.00073229
2 *3688:X 0.00073229
3 *3795:A *3772:A 0.000447807
4 *3795:A *170:32 0.000551885
5 wbs_dat_o[0] *3795:A 9.35962e-05
6 *517:DIODE *3795:A 0.000225307
*RES
1 *3688:X *3795:A 41.0107 
*END

*D_NET *164 0.053957
*CONN
*I *3781:DI[0] I *D CF_SRAM_1024x32
*I *3689:X O *D sky130_fd_sc_hd__dlygate4sd3_1
*CAP
1 *3781:DI[0] 0.000159667
2 *3689:X 0.000653814
3 *164:52 0.00254007
4 *164:50 0.0031907
5 *164:38 0.00369045
6 *164:26 0.0046701
7 *164:22 0.00244376
8 *3781:DI[0] *3781:ScanInDL 0.000140431
9 *164:22 *3709:A 1.61405e-05
10 *164:22 *3769:A 8.09146e-06
11 *164:22 *192:28 0
12 *164:22 *324:36 0.000692001
13 *164:22 *337:44 0.000153874
14 *164:26 *244:20 6.46289e-06
15 *164:26 *244:28 5.65346e-05
16 *164:26 *371:102 0.00014021
17 *164:38 *3781:BEN[15] 9.23883e-05
18 *164:38 *182:32 0.00146977
19 *164:50 *3781:BEN[15] 0.000480697
20 *164:50 *177:30 4.36056e-05
21 *164:50 *241:52 9.12246e-05
22 *164:50 *258:44 0
23 *164:50 *361:46 0.000473264
24 *164:52 *3781:BEN[12] 0.000685414
25 *164:52 *3781:BEN[8] 0.000791186
26 *164:52 *3781:BEN[4] 0.000839576
27 *164:52 *241:52 0.00055207
28 *164:52 *241:64 0.000685362
29 *164:52 *241:126 1.94879e-05
30 *164:52 *241:138 0.000691679
31 *164:52 *244:62 0.000574542
32 *164:52 *244:74 0.000798586
33 *3781:DI[15] *164:50 1.94879e-05
34 *111:12 *164:22 0.000169463
35 *112:10 *164:52 0.000245749
36 *113:9 *3781:DI[0] 2.52026e-05
37 *119:19 *164:38 4.22135e-06
38 *119:41 *164:22 0.000990171
39 *119:41 *164:26 0.00170157
40 *124:11 *164:52 0.000467131
41 *125:21 *164:50 0.000175197
42 *125:21 *164:52 0.00245452
43 *128:11 *164:52 0.00114768
44 *128:23 *164:50 0.00141073
45 *129:39 *164:38 0.000190452
46 *131:56 *164:38 6.92498e-05
47 *138:17 *164:52 0.000601857
48 *140:11 *164:50 0.000192153
49 *142:25 *164:52 0.00158209
50 *143:33 *164:52 0.000315234
51 *151:20 *164:26 9.12639e-05
52 *151:20 *164:38 0.00286965
53 *151:26 *164:50 9.84621e-05
54 *151:26 *164:52 0.0102588
55 *155:10 *164:52 0.00155181
56 *157:14 *164:38 0.00047363
*RES
1 *3689:X *164:22 41.7464 
2 *164:22 *164:26 24.375 
3 *164:26 *164:38 45.2465 
4 *164:38 *164:50 32.8304 
5 *164:50 *164:52 145.536 
6 *164:52 *3781:DI[0] 8.09821 
*END

*D_NET *165 0.00146166
*CONN
*I *3800:A I *D sky130_fd_sc_hd__buf_2
*I *3690:X O *D sky130_fd_sc_hd__dlygate4sd3_1
*CAP
1 *3800:A 0.00024652
2 *3690:X 0.00024652
3 *3800:A *3690:A 0.000146591
4 *3800:A *3846:A 2.83284e-06
5 wbs_dat_o[13] *3800:A 0.000314139
6 wbs_dat_o[14] *3800:A 0.000192055
7 *44:7 *3800:A 0
8 *117:59 *3800:A 0.000313007
*RES
1 *3690:X *3800:A 35.9214 
*END

*D_NET *166 0.0197618
*CONN
*I *3781:DI[14] I *D CF_SRAM_1024x32
*I *3691:X O *D sky130_fd_sc_hd__dlygate4sd3_1
*CAP
1 *3781:DI[14] 0.00165267
2 *3691:X 0.00018919
3 *166:14 0.00471288
4 *166:10 0.00324939
5 *3781:DI[14] *3781:vpwrpc 0.000230454
6 *3781:DI[14] *171:32 2.40747e-05
7 *3781:DI[14] *258:52 0
8 *3781:DI[14] *281:72 0.000716743
9 *3781:DI[14] *317:66 5.67156e-05
10 *166:10 *3693:A 5.32956e-05
11 *166:10 *171:10 0
12 *166:10 *236:38 0
13 *166:14 *308:14 0.000145062
14 *3781:DI[15] *166:10 0
15 *110:16 *166:14 0.00417257
16 *117:17 *3781:DI[14] 1.41029e-05
17 *118:11 *3781:DI[14] 0.000746189
18 *119:13 *3781:DI[14] 0.00117966
19 *133:27 *3781:DI[14] 0.00231725
20 *134:28 *3781:DI[14] 0
21 *134:30 *3781:DI[14] 0
22 *146:14 *166:14 0.000301534
*RES
1 *3691:X *166:10 20.8536 
2 *166:10 *166:14 47.3393 
3 *166:14 *3781:DI[14] 48.6696 
*END

*D_NET *167 0.00154624
*CONN
*I *3818:A I *D sky130_fd_sc_hd__buf_4
*I *3692:X O *D sky130_fd_sc_hd__dlygate4sd3_1
*CAP
1 *3818:A 0.00025734
2 *3692:X 0.00025734
3 *3818:A *311:8 0.000398018
4 *519:DIODE *3818:A 9.76767e-05
5 *3674:A *3818:A 0.00053587
*RES
1 *3692:X *3818:A 35.2429 
*END

*D_NET *168 0.022904
*CONN
*I *3781:DI[29] I *D CF_SRAM_1024x32
*I *3694:X O *D sky130_fd_sc_hd__dlygate4sd3_1
*CAP
1 *3781:DI[29] 0.000646562
2 *3694:X 5.2299e-05
3 *168:10 0.0075378
4 *168:8 0.00694354
5 *168:10 *3781:vpwrpc 0.000408162
6 *168:10 *175:8 0
7 *168:10 *195:28 1.69115e-05
8 *168:10 *212:10 0
9 *168:10 *212:20 0.0010478
10 *168:10 *221:8 0.00159781
11 *168:10 *226:20 0.000589527
12 *168:10 *234:30 0.000518739
13 *168:10 *251:8 0.00313026
14 *134:9 *3781:DI[29] 0.000414547
15 *160:16 *168:10 0
*RES
1 *3694:X *168:8 14.3357 
2 *168:8 *168:10 169.821 
3 *168:10 *3781:DI[29] 19.0714 
*END

*D_NET *169 0.000280787
*CONN
*I *3799:A I *D sky130_fd_sc_hd__buf_2
*I *3695:X O *D sky130_fd_sc_hd__dlygate4sd3_1
*CAP
1 *3799:A 0.000103149
2 *3695:X 0.000103149
3 *3799:A *3695:A 7.44888e-05
*RES
1 *3695:X *3799:A 29.2429 
*END

*D_NET *170 0.0503926
*CONN
*I *3642:A I *D sky130_fd_sc_hd__clkbuf_4
*I *3622:B I *D sky130_fd_sc_hd__and4b_1
*I *3624:B I *D sky130_fd_sc_hd__and4b_1
*I *3625:B I *D sky130_fd_sc_hd__and4b_1
*I *3623:B I *D sky130_fd_sc_hd__and4b_1
*I *3794:X O *D sky130_fd_sc_hd__buf_2
*CAP
1 *3642:A 7.41153e-05
2 *3622:B 0
3 *3624:B 0
4 *3625:B 0.000499586
5 *3623:B 0
6 *3794:X 0.00123245
7 *170:99 0.000716851
8 *170:92 0.000344284
9 *170:88 0.000198133
10 *170:82 0.00111395
11 *170:80 0.001102
12 *170:74 0.00296109
13 *170:54 0.00381295
14 *170:52 0.00112375
15 *170:42 0.00116334
16 *170:32 0.00210895
17 *3625:B *3625:A_N 0.000499735
18 *3625:B *3625:C 4.08025e-05
19 *3642:A *3641:A 5.49544e-05
20 *170:32 *3688:A 6.12902e-05
21 *170:32 *3761:A 0.000181348
22 *170:32 *3842:A 0.000876188
23 *170:32 *324:18 0.000170467
24 *170:32 *327:18 0.000373608
25 *170:32 *329:24 0.000643086
26 *170:42 *3603:A_N 1.09026e-05
27 *170:42 *3604:A_N 0.00018147
28 *170:42 *3605:A_N 0.000375993
29 *170:42 *3605:C 0.000184322
30 *170:42 *3607:C 1.12323e-05
31 *170:42 *3641:A 8.58049e-05
32 *170:42 *300:22 0.000178321
33 *170:42 *334:34 2.04825e-05
34 *170:42 *369:12 5.62653e-05
35 *170:52 *3637:A 0.000316746
36 *170:52 *327:63 0.000318909
37 *170:52 *371:31 4.37027e-05
38 *170:54 *3638:A 0.000224583
39 *170:54 *315:26 0.00115792
40 *170:54 *327:63 0.000828017
41 *170:54 *327:71 0.00228758
42 *170:54 *329:60 0.000192639
43 *170:54 *329:80 0.000981378
44 *170:54 *332:28 0.00270315
45 *170:54 *367:31 0.000371354
46 *170:54 *368:155 0.000429512
47 *170:74 *3713:A 0
48 *170:74 *182:12 0.000141343
49 *170:74 *219:8 0.000264176
50 *170:74 *327:71 0.000555939
51 *170:74 *327:73 0.00107891
52 *170:74 *329:80 0.00286571
53 *170:74 *337:26 0.00031407
54 *170:82 *182:32 0.000120342
55 *170:82 *219:48 2.42516e-05
56 *170:82 *327:73 0.00512727
57 *170:82 *329:84 0.00504554
58 *170:88 *292:22 0.000194348
59 *170:92 *3622:C 2.78512e-05
60 *170:92 *3623:C 0.000469148
61 *170:92 *329:103 0.000109806
62 *170:92 *329:114 3.76716e-05
63 *170:99 *3623:C 4.30071e-05
64 *170:99 *3625:A_N 0.000126886
65 *170:99 *3863:A 0.000349336
66 *170:99 *329:114 0.000269716
67 wbs_dat_o[2] *170:32 0.000136958
68 *3604:D *170:42 0.000137336
69 *3605:D *170:42 0.000102897
70 *3607:D *170:42 9.10033e-05
71 *3622:D *170:92 2.3541e-05
72 *3623:D *170:92 5.47047e-05
73 *3623:D *170:99 0.000108811
74 *3794:A *170:32 1.58163e-05
75 *3795:A *170:32 0.000551885
76 *3836:A *170:32 0.00026855
77 *3:17 *170:88 0.000194348
78 *115:71 *170:42 0.000137475
79 *119:55 *170:52 4.7856e-05
80 *142:37 *170:52 8.22793e-06
81 *143:59 *3642:A 2.83284e-06
82 *143:63 *3642:A 1.28273e-05
83 *143:63 *170:42 1.53688e-05
84 *157:14 *170:74 0.00100363
*RES
1 *3794:X *170:32 47.425 
2 *170:32 *170:42 26.3661 
3 *170:42 *170:52 12.2924 
4 *170:52 *170:54 49.4107 
5 *170:54 *170:74 47.3097 
6 *170:74 *170:80 8.49036 
7 *170:80 *170:82 50.2321 
8 *170:82 *170:88 11.5536 
9 *170:88 *170:92 4.66071 
10 *170:92 *3623:B 9.3 
11 *170:92 *170:99 6.28571 
12 *170:99 *3625:B 16.0143 
13 *170:99 *3624:B 9.3 
14 *170:88 *3622:B 9.3 
15 *170:42 *3642:A 15.3268 
*END

*D_NET *171 0.0186547
*CONN
*I *3781:DI[13] I *D CF_SRAM_1024x32
*I *3696:X O *D sky130_fd_sc_hd__dlygate4sd3_1
*CAP
1 *3781:DI[13] 0.000687135
2 *3696:X 0.000174907
3 *171:32 0.00164672
4 *171:18 0.00186477
5 *171:10 0.0010801
6 *3781:DI[13] *3781:BEN[13] 0
7 *171:10 *236:38 9.54798e-06
8 *171:18 *182:32 1.61405e-05
9 *171:18 *308:14 8.6229e-06
10 *171:32 *3781:DI[12] 0.000680006
11 *171:32 *177:44 0.00188406
12 *171:32 *182:32 0
13 *171:32 *182:44 0.0016344
14 *171:32 *244:44 0.00012538
15 *171:32 *244:46 0.000682246
16 *3781:DI[14] *171:32 2.40747e-05
17 *110:16 *171:18 0.00426524
18 *114:21 *171:18 0.000442876
19 *117:17 *3781:DI[13] 0
20 *118:11 *171:32 0.000165767
21 *126:27 *171:10 0
22 *144:21 *171:18 0.00121335
23 *153:20 *171:18 0.00204935
24 *166:10 *171:10 0
*RES
1 *3696:X *171:10 20.8536 
2 *171:10 *171:18 46.8125 
3 *171:18 *171:32 47.2411 
4 *171:32 *3781:DI[13] 14.2232 
*END

*D_NET *172 0.000197612
*CONN
*I *3828:A I *D sky130_fd_sc_hd__clkbuf_4
*I *3697:X O *D sky130_fd_sc_hd__dlygate4sd3_1
*CAP
1 *3828:A 2.44415e-05
2 *3697:X 2.44415e-05
3 *3828:A *336:36 9.6968e-05
4 *117:79 *3828:A 5.17614e-05
*RES
1 *3697:X *3828:A 19.5464 
*END

*D_NET *173 0.0376024
*CONN
*I *3781:DI[8] I *D CF_SRAM_1024x32
*I *3698:X O *D sky130_fd_sc_hd__dlygate4sd3_1
*CAP
1 *3781:DI[8] 0.00153425
2 *3698:X 0.00136235
3 *173:18 0.00344695
4 *173:16 0.0029384
5 *173:12 0.00178033
6 *173:8 0.00211698
7 *3781:DI[8] *392:DIODE 4.58194e-05
8 *3781:DI[8] *237:8 0.000348581
9 *3781:DI[8] *317:83 0.000188798
10 *173:8 *3711:A 0.000167988
11 *173:8 *184:20 0.000800071
12 *173:8 *192:28 0.000665227
13 *173:12 *184:20 0.00013407
14 *173:12 *184:36 0.00235201
15 *173:12 *186:14 1.98377e-05
16 *173:16 *184:40 0.00262105
17 *173:16 *186:14 0.000762326
18 *173:16 *186:24 1.59373e-05
19 *173:16 *317:54 0.000269661
20 *173:18 *184:42 0.00683088
21 *173:18 *307:10 0.00683088
22 *128:29 *173:12 0.000272371
23 *129:27 *173:12 0.0010052
24 *129:27 *173:16 8.5318e-05
25 *129:29 *173:12 0.00010096
26 *129:31 *173:12 9.60939e-05
27 *129:33 *173:12 9.66977e-05
28 *132:29 *173:16 0.00014622
29 *132:33 *173:16 8.46829e-05
30 *132:35 *173:16 9.41642e-05
31 *143:33 *3781:DI[8] 7.30916e-05
32 *157:14 *173:8 0.0001489
33 *157:14 *173:12 0.000166337
*RES
1 *3698:X *173:8 28.7464 
2 *173:8 *173:12 25.0893 
3 *173:12 *173:16 32.5536 
4 *173:16 *173:18 87.8571 
5 *173:18 *3781:DI[8] 27.0982 
*END

*D_NET *174 0.000184943
*CONN
*I *3820:A I *D sky130_fd_sc_hd__buf_4
*I *3699:X O *D sky130_fd_sc_hd__dlygate4sd3_1
*CAP
1 *3820:A 1.423e-05
2 *3699:X 1.423e-05
3 *3820:A *313:10 5.57989e-05
4 *3820:A *314:8 0.000100684
*RES
1 *3699:X *3820:A 19.5464 
*END

*D_NET *175 0.0298918
*CONN
*I *3781:DI[30] I *D CF_SRAM_1024x32
*I *3700:X O *D sky130_fd_sc_hd__dlygate4sd3_1
*CAP
1 *3781:DI[30] 0.000741988
2 *3700:X 0
3 *175:8 0.00563394
4 *175:6 0.00489196
5 *175:8 *3781:vpwrpc 0.000105199
6 *175:8 *179:16 0.00651128
7 *175:8 *193:20 0.000444177
8 *175:8 *248:10 0.000344957
9 *175:8 *251:8 0.00963377
10 *136:11 *3781:DI[30] 0.00158457
11 *168:10 *175:8 0
*RES
1 *3700:X *175:6 13.8 
2 *175:6 *175:8 174.982 
3 *175:8 *3781:DI[30] 20.4286 
*END

*D_NET *176 0.000105828
*CONN
*I *3798:A I *D sky130_fd_sc_hd__buf_2
*I *3701:X O *D sky130_fd_sc_hd__dlygate4sd3_1
*CAP
1 *3798:A 9.46043e-06
2 *3701:X 9.46043e-06
3 *3798:A *324:36 2.976e-05
4 *3798:A *339:18 5.71472e-05
*RES
1 *3701:X *3798:A 19.1357 
*END

*D_NET *177 0.0222245
*CONN
*I *3781:DI[12] I *D CF_SRAM_1024x32
*I *3702:X O *D sky130_fd_sc_hd__dlygate4sd3_1
*CAP
1 *3781:DI[12] 0.00111419
2 *3702:X 0.000862683
3 *177:44 0.00166409
4 *177:30 0.00198933
5 *177:14 0.00230212
6 *3781:DI[12] *241:98 0.000199313
7 *3781:DI[12] *244:46 0.000307255
8 *177:14 *241:18 0.000254013
9 *177:14 *244:28 0.00313763
10 *177:14 *328:36 2.06178e-05
11 *177:30 *3860:A 0.000344232
12 *177:30 *186:24 9.77884e-05
13 *177:30 *219:36 7.6644e-05
14 *177:30 *244:28 0.000447378
15 *177:30 *244:32 1.54142e-05
16 *177:30 *258:44 9.25014e-06
17 *177:30 *281:56 9.52464e-05
18 *177:30 *304:18 0.000206423
19 *177:30 *306:38 0.000798974
20 *177:30 *361:46 9.36095e-05
21 *177:44 *244:44 0.00175827
22 *177:44 *317:66 7.48927e-06
23 *115:25 *3781:DI[12] 0.000116612
24 *116:9 *3781:DI[12] 0
25 *116:11 *3781:DI[12] 0.000642238
26 *118:11 *3781:DI[12] 0.000125593
27 *118:11 *177:44 6.19639e-06
28 *119:29 *177:14 0.0021313
29 *126:27 *177:14 3.12484e-05
30 *130:43 *177:30 0.000387803
31 *131:27 *177:30 0.000255223
32 *132:39 *177:30 7.93872e-05
33 *132:41 *177:30 3.48235e-05
34 *132:43 *177:30 4.46186e-06
35 *164:50 *177:30 4.36056e-05
36 *171:32 *3781:DI[12] 0.000680006
37 *171:32 *177:44 0.00188406
*RES
1 *3702:X *177:14 49.7643 
2 *177:14 *177:30 40.875 
3 *177:30 *177:44 34.125 
4 *177:44 *3781:DI[12] 32.4732 
*END

*D_NET *178 0.00123369
*CONN
*I *3821:A I *D sky130_fd_sc_hd__buf_4
*I *3703:X O *D sky130_fd_sc_hd__dlygate4sd3_1
*CAP
1 *3821:A 0.00042826
2 *3703:X 0.00042826
3 *3821:A *3703:A 0.000232399
4 *520:DIODE *3821:A 0.000144773
*RES
1 *3703:X *3821:A 35.8857 
*END

*D_NET *179 0.0270991
*CONN
*I *3781:DI[31] I *D CF_SRAM_1024x32
*I *3705:X O *D sky130_fd_sc_hd__dlygate4sd3_1
*CAP
1 *3781:DI[31] 0.000796261
2 *3705:X 0.00107303
3 *179:16 0.00709988
4 *179:14 0.00737664
5 *179:16 *248:10 0.00163106
6 *134:11 *179:16 0
7 *136:13 *179:14 0.000468684
8 *137:11 *3781:DI[31] 0.00167363
9 *145:67 *179:14 0.000468684
10 *175:8 *179:16 0.00651128
*RES
1 *3705:X *179:14 47.2107 
2 *179:14 *179:16 161.625 
3 *179:16 *3781:DI[31] 21.2679 
*END

*D_NET *180 0.000652491
*CONN
*I *3827:A I *D sky130_fd_sc_hd__clkbuf_4
*I *3706:X O *D sky130_fd_sc_hd__dlygate4sd3_1
*CAP
1 *3827:A 0.000117122
2 *3706:X 0.000117122
3 *3827:A *3871:A 2.93003e-05
4 *3827:A *181:46 2.43072e-05
5 *3827:A *319:16 0.000182592
6 *3827:A *363:24 9.83388e-05
7 *3827:A *367:49 8.37087e-05
*RES
1 *3706:X *3827:A 30.7071 
*END

*D_NET *181 0.0174047
*CONN
*I *3689:A I *D sky130_fd_sc_hd__dlygate4sd3_1
*I *3795:X O *D sky130_fd_sc_hd__buf_4
*CAP
1 *3689:A 0.000882371
2 *3795:X 0.00200202
3 *181:46 0.00175532
4 *181:28 0.00287498
5 *3689:A *328:18 0.00132084
6 *3689:A *337:44 0.000259019
7 *181:28 *3772:A 0.00029608
8 *181:28 *3822:A 0.000513585
9 *181:28 *3830:A 5.52238e-05
10 *181:28 *3832:A 0.000276459
11 *181:28 *3864:A 1.90936e-05
12 *181:28 *278:22 0.000128419
13 *181:28 *315:26 0.000177545
14 *181:28 *317:24 0.000569598
15 *181:28 *329:46 0.000161098
16 *181:28 *333:20 0.000152376
17 *181:28 *335:26 0.000621092
18 *181:28 *363:24 0.000402544
19 *181:46 *333:20 0.00155606
20 *181:46 *364:34 0.000786335
21 *181:46 *367:49 0
22 *403:DIODE *181:28 6.90187e-05
23 *403:DIODE *181:46 9.54798e-06
24 *482:DIODE *181:28 2.09826e-05
25 *3827:A *181:46 2.43072e-05
26 *111:12 *3689:A 0
27 *111:14 *181:46 0.000333485
28 *119:41 *3689:A 0.000778197
29 *119:55 *3689:A 0.00127581
30 *141:19 *181:28 2.67463e-05
31 *145:24 *181:46 5.65144e-05
*RES
1 *3795:X *181:28 48.0319 
2 *181:28 *181:46 40.1689 
3 *181:46 *3689:A 47.675 
*END

*D_NET *182 0.0371006
*CONN
*I *3781:DI[7] I *D CF_SRAM_1024x32
*I *3707:X O *D sky130_fd_sc_hd__dlygate4sd3_1
*CAP
1 *3781:DI[7] 0.000398686
2 *3707:X 0.000597883
3 *182:62 0.00146077
4 *182:52 0.00174076
5 *182:44 0.00123402
6 *182:32 0.00354413
7 *182:12 0.00358667
8 *3781:DI[7] *244:62 0
9 *182:12 *219:8 0.00306293
10 *182:12 *327:73 0.00306293
11 *182:32 *219:48 9.11048e-06
12 *182:32 *241:18 0.000834657
13 *182:32 *259:54 0.000136682
14 *182:32 *308:14 7.66174e-05
15 *182:32 *327:73 0.000195121
16 *182:32 *328:44 0.000122494
17 *182:32 *329:84 0.000132088
18 *182:62 *206:10 0.00160231
19 *182:62 *244:46 0
20 *461:DIODE *182:32 0.000135028
21 *3620:D *182:32 5.4231e-05
22 *3781:DI[9] *182:62 6.05161e-06
23 *116:11 *182:32 0.000321063
24 *118:11 *182:32 1.0033e-05
25 *118:11 *182:44 0.00157053
26 *128:35 *182:12 5.03543e-05
27 *129:11 *182:62 0.00157399
28 *129:19 *182:32 0.000607838
29 *129:19 *182:52 0.00256894
30 *130:11 *182:62 0.00133433
31 *132:23 *182:44 6.05161e-06
32 *133:25 *3781:DI[7] 9.20635e-06
33 *142:13 *3781:DI[7] 0.000145847
34 *144:15 *182:62 2.46837e-06
35 *151:24 *182:32 0.000765295
36 *157:14 *182:32 0.000105076
37 *162:24 *182:52 0.00265443
38 *162:24 *182:62 0
39 *164:38 *182:32 0.00146977
40 *170:74 *182:12 0.000141343
41 *170:82 *182:32 0.000120342
42 *171:18 *182:32 1.61405e-05
43 *171:32 *182:32 0
44 *171:32 *182:44 0.0016344
*RES
1 *3707:X *182:12 47.9868 
2 *182:12 *182:32 48.9621 
3 *182:32 *182:44 31.8929 
4 *182:44 *182:52 34.9375 
5 *182:52 *182:62 47.7589 
6 *182:62 *3781:DI[7] 10.9554 
*END

*D_NET *183 0.00147801
*CONN
*I *3826:A I *D sky130_fd_sc_hd__clkbuf_4
*I *3708:X O *D sky130_fd_sc_hd__dlygate4sd3_1
*CAP
1 *3826:A 0.000356761
2 *3708:X 0.000356761
3 *3826:A *3747:A 0
4 *3826:A *3756:A 1.91418e-05
5 *3826:A *3825:A 0.000273207
6 *3826:A *3839:A 0.000273398
7 *3826:A *324:18 8.6229e-06
8 *3826:A *361:14 5.31631e-05
9 *3826:A *363:24 0.000136958
10 *3683:A *3826:A 0
*RES
1 *3708:X *3826:A 35.4571 
*END

*D_NET *184 0.0409016
*CONN
*I *3781:DI[6] I *D CF_SRAM_1024x32
*I *3709:X O *D sky130_fd_sc_hd__dlygate4sd3_1
*CAP
1 *3781:DI[6] 0.0015922
2 *3709:X 0.00103994
3 *184:42 0.00405071
4 *184:40 0.00311255
5 *184:36 0.00126075
6 *184:20 0.00164666
7 *3781:DI[6] *197:8 0.00022511
8 *184:20 *386:DIODE 0.000197019
9 *184:20 *3711:A 0.000167988
10 *184:20 *186:14 0.000404122
11 *184:20 *192:28 6.25878e-05
12 *184:20 *321:26 2.89114e-05
13 *184:20 *322:26 0.000225558
14 *184:36 *186:14 0.00212385
15 *184:36 *301:18 1.97253e-05
16 *184:40 *186:24 0.000802159
17 *184:42 *270:36 0
18 *184:42 *307:10 0.00079267
19 *128:23 *184:36 0.000271445
20 *129:27 *184:40 0.00109679
21 *139:11 *184:42 0.00815287
22 *141:9 *3781:DI[6] 0
23 *153:16 *184:20 0.000318481
24 *157:14 *184:20 0.000194412
25 *157:14 *184:36 0.000376961
26 *173:8 *184:20 0.000800071
27 *173:12 *184:20 0.00013407
28 *173:12 *184:36 0.00235201
29 *173:16 *184:40 0.00262105
30 *173:18 *184:42 0.00683088
*RES
1 *3709:X *184:20 35.9429 
2 *184:20 *184:36 39.7637 
3 *184:36 *184:40 30.0893 
4 *184:40 *184:42 107.589 
5 *184:42 *3781:DI[6] 26.7232 
*END

*D_NET *185 0.000662353
*CONN
*I *3797:A I *D sky130_fd_sc_hd__buf_2
*I *3710:X O *D sky130_fd_sc_hd__dlygate4sd3_1
*CAP
1 *3797:A 0.000116341
2 *3710:X 0.000116341
3 *3797:A *3710:A 0.000205192
4 *3797:A *258:20 2.89016e-05
5 *3797:A *306:8 0.000139907
6 *111:14 *3797:A 5.5671e-05
*RES
1 *3710:X *3797:A 22.1536 
*END

*D_NET *186 0.0277392
*CONN
*I *3781:DI[11] I *D CF_SRAM_1024x32
*I *3711:X O *D sky130_fd_sc_hd__dlygate4sd3_1
*CAP
1 *3781:DI[11] 0.0020823
2 *3711:X 0.00112273
3 *186:26 0.00432713
4 *186:24 0.00411998
5 *186:14 0.00299787
6 *186:26 *309:10 0.000133666
7 *115:25 *3781:DI[11] 0.000234554
8 *121:22 *186:26 0
9 *129:27 *186:24 0.000553756
10 *130:47 *186:14 8.36572e-05
11 *130:49 *186:14 9.71197e-05
12 *131:11 *186:26 0
13 *132:39 *186:24 9.60808e-05
14 *135:21 *186:26 0.000517942
15 *153:16 *186:14 0.00265255
16 *153:22 *186:26 0.00449383
17 *173:12 *186:14 1.98377e-05
18 *173:16 *186:14 0.000762326
19 *173:16 *186:24 1.59373e-05
20 *177:30 *186:24 9.77884e-05
21 *184:20 *186:14 0.000404122
22 *184:36 *186:14 0.00212385
23 *184:40 *186:24 0.000802159
*RES
1 *3711:X *186:14 48.7286 
2 *186:14 *186:24 37.9643 
3 *186:24 *186:26 59.9286 
4 *186:26 *3781:DI[11] 28.9554 
*END

*D_NET *187 0.00450775
*CONN
*I *3825:A I *D sky130_fd_sc_hd__clkbuf_4
*I *3712:X O *D sky130_fd_sc_hd__dlygate4sd3_1
*CAP
1 *3825:A 0.00144468
2 *3712:X 0.00144468
3 *3825:A *3756:A 2.51989e-05
4 *3825:A *3838:A 0.000829799
5 *3825:A *3839:A 1.11775e-05
6 *3825:A *3869:A 0
7 *3825:A *312:40 5.52302e-05
8 *3825:A *317:24 1.90936e-05
9 *3825:A *339:8 7.45454e-05
10 *3825:A *364:18 0
11 *3825:A *369:31 5.52302e-05
12 *403:DIODE *3825:A 7.61586e-05
13 *478:DIODE *3825:A 1.02504e-05
14 *3632:RESET_B *3825:A 5.33005e-05
15 *3653:A *3825:A 6.87574e-05
16 *3683:A *3825:A 1.37429e-05
17 *3826:A *3825:A 0.000273207
18 *124:25 *3825:A 0
19 *145:24 *3825:A 5.2705e-05
*RES
1 *3712:X *3825:A 48.9214 
*END

*D_NET *188 0.0339986
*CONN
*I *3781:DI[5] I *D CF_SRAM_1024x32
*I *3713:X O *D sky130_fd_sc_hd__dlygate4sd3_1
*CAP
1 *3781:DI[5] 3.72785e-05
2 *3713:X 0.000536221
3 *188:28 0.00431943
4 *188:26 0.00452071
5 *188:18 0.000970782
6 *188:10 0.00126844
7 *188:18 *3781:vpwrac 0.0001051
8 *188:26 *3781:BEN[15] 0.000259139
9 *188:26 *258:52 2.59355e-05
10 *188:26 *281:56 0.000139637
11 *188:28 *258:44 3.23658e-05
12 *122:27 *188:10 0
13 *123:27 *188:10 0
14 *126:27 *188:18 0.000246879
15 *127:21 *188:28 0.00348807
16 *138:29 *188:26 5.90347e-05
17 *138:31 *188:18 0.00322001
18 *138:31 *188:26 0.000615605
19 *140:9 *3781:DI[5] 7.98579e-05
20 *140:11 *188:28 0.00873054
21 *140:15 *188:18 0.00415796
22 *140:15 *188:26 0.00118556
*RES
1 *3713:X *188:10 26.925 
2 *188:10 *188:18 45.6696 
3 *188:18 *188:26 17.7054 
4 *188:26 *188:28 108.446 
5 *188:28 *3781:DI[5] 5.38393 
*END

*D_NET *189 0.000248229
*CONN
*I *3805:A I *D sky130_fd_sc_hd__clkbuf_4
*I *3714:X O *D sky130_fd_sc_hd__dlygate4sd3_1
*CAP
1 *3805:A 2.99504e-05
2 *3714:X 2.99504e-05
3 *3805:A *236:38 9.41642e-05
4 *3805:A *270:22 9.41642e-05
*RES
1 *3714:X *3805:A 19.5464 
*END

*D_NET *190 0.0227956
*CONN
*I *3781:DI[18] I *D CF_SRAM_1024x32
*I *3716:X O *D sky130_fd_sc_hd__dlygate4sd3_1
*CAP
1 *3781:DI[18] 0.000402182
2 *3716:X 0.000892319
3 *190:18 0.00225359
4 *190:16 0.00274372
5 *190:16 *3776:A 0.000233688
6 *190:16 *195:16 0.00147659
7 *190:16 *210:8 9.58126e-05
8 *190:16 *234:10 0.000760006
9 *190:18 *206:10 0.00417462
10 *491:DIODE *190:16 0.000166976
11 *3:17 *190:16 0.00010326
12 *110:12 *190:16 0.000202835
13 *122:17 *3781:DI[18] 0
14 *129:11 *190:18 0.00769089
15 *133:11 *190:18 0.000898363
16 *146:16 *190:18 0.00070071
*RES
1 *3716:X *190:16 49.6571 
2 *190:16 *190:18 97.2679 
3 *190:18 *3781:DI[18] 11.0714 
*END

*D_NET *191 0.000479681
*CONN
*I *3813:A I *D sky130_fd_sc_hd__buf_4
*I *3717:X O *D sky130_fd_sc_hd__dlygate4sd3_1
*CAP
1 *3813:A 0.000172962
2 *3717:X 0.000172962
3 *3813:A *3710:A 0
4 *3813:A *192:16 7.85273e-05
5 *159:10 *3813:A 5.52302e-05
*RES
1 *3717:X *3813:A 30.0821 
*END

*D_NET *192 0.0137465
*CONN
*I *3737:A I *D sky130_fd_sc_hd__dlygate4sd3_1
*I *3796:X O *D sky130_fd_sc_hd__clkbuf_4
*CAP
1 *3737:A 0
2 *3796:X 0.00141321
3 *192:28 0.00245383
4 *192:16 0.00386703
5 *192:16 *3710:A 3.48867e-05
6 *192:16 *312:40 0.000615969
7 *192:16 *317:42 0.00011307
8 *192:16 *371:63 0.000614039
9 *192:28 *386:DIODE 0.000347396
10 *192:28 *3709:A 0.000632539
11 *192:28 *3713:A 0.000245227
12 *192:28 *312:54 0
13 *192:28 *315:50 7.83659e-05
14 *192:28 *316:26 0.000151138
15 *192:28 *321:26 0.000183726
16 *192:28 *322:26 0.000434524
17 *192:28 *324:36 0.000157818
18 *3636:A *192:28 0
19 *3813:A *192:16 7.85273e-05
20 *111:12 *192:16 0
21 *111:12 *192:28 0
22 *111:14 *192:16 0.00128597
23 *157:14 *192:28 0.000311475
24 *164:22 *192:28 0
25 *173:8 *192:28 0.000665227
26 *184:20 *192:28 6.25878e-05
*RES
1 *3796:X *192:16 47.0143 
2 *192:16 *192:28 45.7857 
3 *192:28 *3737:A 9.3 
*END

*D_NET *193 0.0197294
*CONN
*I *3781:AD[9] I *D CF_SRAM_1024x32
*I *3718:X O *D sky130_fd_sc_hd__dlygate4sd3_1
*CAP
1 *3781:AD[9] 0.00129029
2 *3718:X 0.000335123
3 *193:20 0.00353175
4 *193:18 0.00257658
5 *3781:AD[9] *3781:AD[3] 3.31523e-05
6 *3781:AD[9] *3781:AD[8] 0
7 *3781:AD[9] *195:32 0.00017767
8 *3781:AD[9] *234:30 7.1959e-05
9 *193:18 *281:72 2.93959e-05
10 *193:18 *304:26 0.00014734
11 *193:18 *339:40 9.23805e-05
12 *193:20 *221:8 0
13 *193:20 *248:10 0.00605077
14 *193:20 *251:8 0.000882333
15 *193:20 *259:58 0.000910454
16 *193:20 *302:26 0.00284133
17 *193:20 *303:38 0.000121259
18 *193:20 *304:26 0
19 *193:20 *305:14 0.000126785
20 *3746:A *193:18 6.05161e-06
21 *144:15 *193:18 6.06291e-05
22 *175:8 *193:20 0.000444177
*RES
1 *3718:X *193:18 28.3 
2 *193:18 *193:20 91.1964 
3 *193:20 *3781:AD[9] 22.0491 
*END

*D_NET *194 0.00023248
*CONN
*I *3804:A I *D sky130_fd_sc_hd__clkbuf_4
*I *3719:X O *D sky130_fd_sc_hd__dlygate4sd3_1
*CAP
1 *3804:A 1.78681e-05
2 *3719:X 1.78681e-05
3 *3804:A *3719:A 9.90367e-05
4 *3804:A *236:22 9.77072e-05
*RES
1 *3719:X *3804:A 19.5464 
*END

*D_NET *195 0.023676
*CONN
*I *3781:DI[17] I *D CF_SRAM_1024x32
*I *3720:X O *D sky130_fd_sc_hd__dlygate4sd3_1
*CAP
1 *3781:DI[17] 0.00103326
2 *3720:X 0.000885489
3 *195:32 0.00159822
4 *195:28 0.00126454
5 *195:24 0.00129215
6 *195:16 0.00147806
7 *3781:DI[17] *3781:TM 0.000262679
8 *195:16 *3776:A 0.000238726
9 *195:16 *197:10 0.00025986
10 *195:16 *208:10 0.000193172
11 *195:16 *210:10 2.01732e-05
12 *195:16 *234:10 7.47029e-06
13 *195:24 *3776:A 0.000115096
14 *195:24 *210:10 0.000263519
15 *195:24 *217:10 0.000404065
16 *195:24 *234:10 0.000434073
17 *195:28 *3781:vpwrpc 0.000574151
18 *195:28 *212:10 0.00287859
19 *195:28 *226:10 0.00010022
20 *195:28 *226:20 0.00272031
21 *195:32 *3781:AD[3] 0.000445964
22 *3781:CLKin *3781:DI[17] 0
23 *3781:AD[9] *195:32 0.00017767
24 *110:12 *195:16 0.000413377
25 *112:10 *3781:DI[17] 0.00311754
26 *121:20 *3781:DI[17] 3.30237e-05
27 *126:21 *3781:DI[17] 0.000642823
28 *133:25 *195:16 0.000154578
29 *155:10 *3781:DI[17] 0.00117374
30 *168:10 *195:28 1.69115e-05
31 *190:16 *195:16 0.00147659
*RES
1 *3720:X *195:16 41.2196 
2 *195:16 *195:24 19.4952 
3 *195:24 *195:28 40.9018 
4 *195:28 *195:32 13.6607 
5 *195:32 *3781:DI[17] 47.2679 
*END

*D_NET *196 0.000380336
*CONN
*I *3806:A I *D sky130_fd_sc_hd__clkbuf_4
*I *3721:X O *D sky130_fd_sc_hd__dlygate4sd3_1
*CAP
1 *3806:A 0.000114801
2 *3721:X 0.000114801
3 *3806:A *259:16 9.60293e-05
4 *3806:A *270:22 5.47047e-05
*RES
1 *3721:X *3806:A 29.475 
*END

*D_NET *197 0.0247563
*CONN
*I *3781:DI[19] I *D CF_SRAM_1024x32
*I *3722:X O *D sky130_fd_sc_hd__dlygate4sd3_1
*CAP
1 *3781:DI[19] 0.000578818
2 *3722:X 0.000137612
3 *197:10 0.00285659
4 *197:8 0.00241538
5 *197:10 *201:10 0.000205856
6 *197:10 *204:10 0.00921879
7 *197:10 *208:10 0.00883104
8 *3781:DI[6] *197:8 0.00022511
9 *123:17 *3781:DI[19] 2.72859e-05
10 *141:9 *197:8 0
11 *195:16 *197:10 0.00025986
*RES
1 *3722:X *197:8 15.9786 
2 *197:8 *197:10 121.25 
3 *197:10 *3781:DI[19] 13.9643 
*END

*D_NET *198 0.0020799
*CONN
*I *3823:A I *D sky130_fd_sc_hd__clkbuf_4
*I *3723:X O *D sky130_fd_sc_hd__dlygate4sd3_1
*CAP
1 *3823:A 0.000428582
2 *3723:X 0.000428582
3 *3823:A *3864:A 0.000181803
4 *3823:A *312:32 0.000295545
5 *3823:A *316:24 5.49489e-05
6 *3823:A *329:46 1.76569e-05
7 *3823:A *335:26 0.000129644
8 *3823:A *362:22 0.000142991
9 *3823:A *365:8 8.43535e-06
10 *389:DIODE *3823:A 0.000140115
11 *390:DIODE *3823:A 0.000140977
12 *397:DIODE *3823:A 8.6229e-06
13 *3600:D *3823:A 2.3541e-05
14 *3661:A *3823:A 7.84535e-05
*RES
1 *3723:X *3823:A 37.5821 
*END

*D_NET *199 0.0460968
*CONN
*I *3781:DI[4] I *D CF_SRAM_1024x32
*I *3724:X O *D sky130_fd_sc_hd__dlygate4sd3_1
*CAP
1 *3781:DI[4] 0.00206204
2 *3724:X 0.000294069
3 *199:24 0.00441715
4 *199:22 0.00401928
5 *199:12 0.0038775
6 *199:10 0.00250741
7 *3781:DI[4] *3738:A 4.87854e-05
8 *3781:DI[4] *3781:DI[3] 0.000135028
9 *3781:DI[4] *212:8 0.000138606
10 *3781:DI[4] *244:102 0
11 *199:12 *304:18 0.000559985
12 *199:12 *328:48 0.00183913
13 *199:22 *303:32 7.45123e-05
14 *199:22 *361:46 0.000345604
15 *199:22 *361:54 4.57504e-05
16 *119:19 *199:12 0
17 *122:27 *199:10 0
18 *122:27 *199:12 0.00086112
19 *131:27 *199:12 0.000472486
20 *131:27 *199:22 0.00017739
21 *135:21 *199:24 0.00110645
22 *137:13 *199:24 0.000501115
23 *139:9 *3781:DI[4] 0
24 *141:11 *199:24 0.00838362
25 *145:63 *199:12 0.00280143
26 *145:63 *199:22 0.00160108
27 *146:16 *199:22 7.45123e-05
28 *157:16 *199:24 0.00975277
*RES
1 *3724:X *199:10 22.675 
2 *199:10 *199:12 65.8393 
3 *199:12 *199:22 37.6607 
4 *199:22 *199:24 122.768 
5 *199:24 *3781:DI[4] 33.3304 
*END

*D_NET *200 0.00144537
*CONN
*I *3803:A I *D sky130_fd_sc_hd__clkbuf_4
*I *3725:X O *D sky130_fd_sc_hd__dlygate4sd3_1
*CAP
1 *3803:A 0.000235077
2 *3725:X 0.000235077
3 *3803:A *3725:A 4.97567e-06
4 *3803:A *338:18 4.6025e-06
5 *3803:A *340:22 0.000487467
6 wbs_dat_o[15] *3803:A 5.33005e-05
7 wbs_dat_o[16] *3803:A 0.000189625
8 *46:7 *3803:A 0
9 *117:59 *3803:A 0.000235242
*RES
1 *3725:X *3803:A 35.1 
*END

*D_NET *201 0.0215401
*CONN
*I *3781:DI[16] I *D CF_SRAM_1024x32
*I *3727:X O *D sky130_fd_sc_hd__dlygate4sd3_1
*CAP
1 *3781:DI[16] 0.00037795
2 *3727:X 0.000223379
3 *201:10 0.00254275
4 *201:8 0.00238818
5 *201:8 *3781:BEN[7] 9.83388e-05
6 *201:10 *204:10 0.00690957
7 *201:10 *237:10 0.00749898
8 *120:16 *3781:DI[16] 0.000795416
9 *130:11 *201:10 0.000322293
10 *133:25 *201:10 0.000177392
11 *197:10 *201:10 0.000205856
*RES
1 *3727:X *201:8 16.8 
2 *201:8 *201:10 106.679 
3 *201:10 *3781:DI[16] 13.0893 
*END

*D_NET *202 0.00130012
*CONN
*I *3808:A I *D sky130_fd_sc_hd__clkbuf_4
*I *3728:X O *D sky130_fd_sc_hd__dlygate4sd3_1
*CAP
1 *3808:A 0.000314319
2 *3728:X 0.000314319
3 *3808:A *258:30 9.54536e-05
4 *3808:A *339:40 0
5 wbs_dat_o[22] *3808:A 0
6 *120:48 *3808:A 0.000315158
7 *128:43 *3808:A 1.01075e-05
8 *128:45 *3808:A 3.41196e-05
9 *128:47 *3808:A 4.15914e-05
10 *128:49 *3808:A 5.80706e-06
11 *148:48 *3808:A 0.00016924
*RES
1 *3728:X *3808:A 34.3679 
*END

*D_NET *203 0.0116638
*CONN
*I *3711:A I *D sky130_fd_sc_hd__dlygate4sd3_1
*I *3797:X O *D sky130_fd_sc_hd__buf_2
*CAP
1 *3711:A 0.000981434
2 *3797:X 0.00253627
3 *203:6 0.00351771
4 *3711:A *341:18 0.000121441
5 *3711:A *342:20 0
6 *203:6 *306:8 9.16074e-05
7 *203:6 *317:44 0.00372897
8 *203:6 *350:14 0.000329954
9 *3614:D *3711:A 2.0449e-05
10 *151:12 *3711:A 0
11 *173:8 *3711:A 0.000167988
12 *184:20 *3711:A 0.000167988
*RES
1 *3797:X *203:6 46.3893 
2 *203:6 *3711:A 34.175 
*END

*D_NET *204 0.0240276
*CONN
*I *3781:DI[20] I *D CF_SRAM_1024x32
*I *3729:X O *D sky130_fd_sc_hd__dlygate4sd3_1
*CAP
1 *3781:DI[20] 0.000560711
2 *3729:X 0.000212918
3 *204:10 0.0035293
4 *204:8 0.00318151
5 *204:10 *208:10 0.000414807
6 *125:17 *3781:DI[20] 0
7 *130:11 *204:10 0
8 *141:9 *204:8 0
9 *197:10 *204:10 0.00921879
10 *201:10 *204:10 0.00690957
*RES
1 *3729:X *204:8 16.3893 
2 *204:8 *204:10 126.107 
3 *204:10 *3781:DI[20] 13.5714 
*END

*D_NET *205 0.000473683
*CONN
*I *3802:A I *D sky130_fd_sc_hd__buf_4
*I *3730:X O *D sky130_fd_sc_hd__dlygate4sd3_1
*CAP
1 *3802:A 0.000137774
2 *3730:X 0.000137774
3 *3829:A *3802:A 0.000146264
4 *111:14 *3802:A 2.59355e-05
5 *148:16 *3802:A 2.59355e-05
*RES
1 *3730:X *3802:A 30.0821 
*END

*D_NET *206 0.0195497
*CONN
*I *3781:AD[8] I *D CF_SRAM_1024x32
*I *3731:X O *D sky130_fd_sc_hd__dlygate4sd3_1
*CAP
1 *3781:AD[8] 0.000319121
2 *3731:X 0.000421928
3 *206:10 0.00184256
4 *206:8 0.00194537
5 *3781:AD[8] *3781:AD[7] 0.000121386
6 *206:8 *393:DIODE 7.90814e-06
7 *3781:AD[9] *3781:AD[8] 0
8 *3781:DI[9] *206:8 4.00276e-06
9 *3781:DI[9] *206:10 0.000131297
10 *129:11 *206:10 0.00109565
11 *146:16 *206:10 0.00788351
12 *182:62 *206:10 0.00160231
13 *190:18 *206:10 0.00417462
*RES
1 *3731:X *206:8 19.2643 
2 *206:8 *206:10 97.5714 
3 *206:10 *3781:AD[8] 10.1473 
*END

*D_NET *207 0.00253499
*CONN
*I *3809:A I *D sky130_fd_sc_hd__clkbuf_4
*I *3732:X O *D sky130_fd_sc_hd__dlygate4sd3_1
*CAP
1 *3809:A 0.00048374
2 *3732:X 0.00048374
3 *3809:A *3810:A 0
4 *3809:A *292:16 0.000231324
5 *3809:A *306:28 0.000444476
6 *3809:A *317:44 8.71079e-05
7 wbs_dat_o[22] *3809:A 0.000273443
8 *422:DIODE *3809:A 0.000187952
9 *54:9 *3809:A 0
10 *129:45 *3809:A 3.19834e-05
11 *129:47 *3809:A 0.000122868
12 *129:49 *3809:A 0.000188358
*RES
1 *3732:X *3809:A 39.5464 
*END

*D_NET *208 0.0260731
*CONN
*I *3781:DI[21] I *D CF_SRAM_1024x32
*I *3733:X O *D sky130_fd_sc_hd__dlygate4sd3_1
*CAP
1 *3781:DI[21] 0.000604549
2 *3733:X 0.000163961
3 *208:10 0.00314714
4 *208:8 0.00270656
5 *208:10 *210:10 0.0100119
6 *126:17 *3781:DI[21] 0
7 *195:16 *208:10 0.000193172
8 *197:10 *208:10 0.00883104
9 *204:10 *208:10 0.000414807
*RES
1 *3733:X *208:8 15.5679 
2 *208:8 *208:10 130.964 
3 *208:10 *3781:DI[21] 14.4107 
*END

*D_NET *209 0.000853794
*CONN
*I *3810:A I *D sky130_fd_sc_hd__clkbuf_4
*I *3734:X O *D sky130_fd_sc_hd__dlygate4sd3_1
*CAP
1 *3810:A 0.00033021
2 *3734:X 0.00033021
3 *3810:A *270:34 0.000146859
4 *3810:A *281:42 0
5 *3810:A *292:16 3.69667e-05
6 *3810:A *361:34 9.54798e-06
7 *3809:A *3810:A 0
8 *130:69 *3810:A 0
9 *130:71 *3810:A 0
10 *130:73 *3810:A 0
*RES
1 *3734:X *3810:A 32.9214 
*END

*D_NET *210 0.0277046
*CONN
*I *3781:DI[22] I *D CF_SRAM_1024x32
*I *3735:X O *D sky130_fd_sc_hd__dlygate4sd3_1
*CAP
1 *3781:DI[22] 0.000618433
2 *3735:X 0.000109996
3 *210:10 0.0035492
4 *210:8 0.00304076
5 *210:10 *217:10 0.0099948
6 *127:17 *3781:DI[22] 0
7 *130:11 *210:10 0
8 *190:16 *210:8 9.58126e-05
9 *195:16 *210:10 2.01732e-05
10 *195:24 *210:10 0.000263519
11 *208:10 *210:10 0.0100119
*RES
1 *3735:X *210:8 15.1571 
2 *210:8 *210:10 136.125 
3 *210:10 *3781:DI[22] 14.5357 
*END

*D_NET *211 0.000189539
*CONN
*I *3811:A I *D sky130_fd_sc_hd__clkbuf_4
*I *3736:X O *D sky130_fd_sc_hd__dlygate4sd3_1
*CAP
1 *3811:A 2.99802e-05
2 *3736:X 2.99802e-05
3 *3811:A *259:44 9.63157e-05
4 *3811:A *292:20 3.32631e-05
*RES
1 *3736:X *3811:A 19.5464 
*END

*D_NET *212 0.0250526
*CONN
*I *3781:DI[23] I *D CF_SRAM_1024x32
*I *3738:X O *D sky130_fd_sc_hd__dlygate4sd3_1
*CAP
1 *3781:DI[23] 0.000279414
2 *3738:X 0.000103996
3 *212:28 0.00168013
4 *212:24 0.00198288
5 *212:20 0.00197327
6 *212:10 0.00260827
7 *212:8 0.00132116
8 *212:10 *3781:vpwrpc 0.000689164
9 *212:10 *226:10 2.4004e-05
10 *212:10 *234:10 1.76266e-05
11 *212:10 *234:30 0.00154705
12 *212:10 *239:8 0.00223663
13 *212:10 *239:24 0.000665762
14 *212:20 *234:30 0.000331493
15 *212:20 *239:24 0.000223571
16 *212:20 *381:14 2.11419e-05
17 *212:28 *3781:DI[26] 0.000103489
18 *3781:DI[4] *212:8 0.000138606
19 *110:35 *212:10 0.00052484
20 *128:9 *3781:DI[23] 0
21 *132:11 *212:28 0.00355116
22 *155:10 *212:28 0
23 *160:10 *212:10 1.09232e-05
24 *160:14 *212:20 0.00100246
25 *160:16 *212:20 8.9142e-05
26 *168:10 *212:10 0
27 *168:10 *212:20 0.0010478
28 *195:28 *212:10 0.00287859
*RES
1 *3738:X *212:8 15.1571 
2 *212:8 *212:10 53.7054 
3 *212:10 *212:20 49.0804 
4 *212:20 *212:24 12.8393 
5 *212:24 *212:28 48.3393 
6 *212:28 *3781:DI[23] 4.60714 
*END

*D_NET *213 0.000432584
*CONN
*I *3793:A I *D sky130_fd_sc_hd__buf_4
*I *3739:X O *D sky130_fd_sc_hd__dlygate4sd3_1
*CAP
1 *3793:A 0.000102594
2 *3739:X 0.000102594
3 *3793:A *3677:A 0
4 *3793:A *324:26 3.07021e-05
5 *3793:A *332:28 0.000117457
6 *3793:A *339:16 5.33005e-05
7 *159:10 *3793:A 2.59355e-05
*RES
1 *3739:X *3793:A 29.7786 
*END

*D_NET *214 0.0105035
*CONN
*I *3702:A I *D sky130_fd_sc_hd__dlygate4sd3_1
*I *3798:X O *D sky130_fd_sc_hd__buf_2
*CAP
1 *3702:A 0
2 *3798:X 0.00078917
3 *214:32 0.00234799
4 *214:16 0.00313716
5 *214:16 *3690:A 9.60293e-05
6 *214:16 *225:14 0.000293971
7 *214:16 *236:22 0
8 *214:16 *338:18 0
9 *214:16 *339:18 0.000971065
10 *214:32 *3719:A 4.97892e-05
11 *214:32 *225:14 6.8377e-06
12 *214:32 *259:16 0.00106975
13 *214:32 *327:73 0.000293755
14 *214:32 *342:20 0.000137474
15 *214:32 *371:102 5.94868e-05
16 wbs_dat_o[14] *214:16 0.000100625
17 *3614:D *214:32 0
18 *151:12 *214:32 0.000179343
19 *159:18 *214:16 0.000971065
*RES
1 *3798:X *214:16 39.6036 
2 *214:16 *214:32 42.7143 
3 *214:32 *3702:A 9.3 
*END

*D_NET *215 0.0198076
*CONN
*I *3781:AD[7] I *D CF_SRAM_1024x32
*I *3740:X O *D sky130_fd_sc_hd__dlygate4sd3_1
*CAP
1 *3781:AD[7] 0.00126403
2 *3740:X 0
3 *215:8 0.00328367
4 *215:6 0.00201963
5 *3781:AD[7] *3781:AD[6] 0
6 *215:8 *248:10 0.00193901
7 *215:8 *305:14 0.00376921
8 *3781:AD[8] *3781:AD[7] 0.000121386
9 *134:11 *215:8 0.00741066
*RES
1 *3740:X *215:6 13.8 
2 *215:6 *215:8 93.9286 
3 *215:8 *3781:AD[7] 23.4062 
*END

*D_NET *216 0.000411693
*CONN
*I *3812:A I *D sky130_fd_sc_hd__clkbuf_4
*I *3741:X O *D sky130_fd_sc_hd__dlygate4sd3_1
*CAP
1 *3812:A 0.000156126
2 *3741:X 0.000156126
3 *3812:A *281:42 4.18299e-05
4 wbs_dat_o[24] *3812:A 5.76121e-05
*RES
1 *3741:X *3812:A 30.2964 
*END

*D_NET *217 0.0318571
*CONN
*I *3781:DI[24] I *D CF_SRAM_1024x32
*I *3742:X O *D sky130_fd_sc_hd__dlygate4sd3_1
*CAP
1 *3781:DI[24] 0.000537595
2 *3742:X 7.59615e-05
3 *217:10 0.0039225
4 *217:8 0.00346087
5 *217:10 *3781:vpwrac 0.000135432
6 *217:10 *228:10 0.0111168
7 *217:10 *230:20 0.00185653
8 *217:10 *234:10 6.22921e-05
9 *129:9 *3781:DI[24] 0.000240663
10 *130:11 *217:10 0
11 *139:9 *217:8 4.96572e-05
12 *195:24 *217:10 0.000404065
13 *210:10 *217:10 0.0099948
*RES
1 *3742:X *217:8 14.7464 
2 *217:8 *217:10 147.964 
3 *217:10 *3781:DI[24] 15.2857 
*END

*D_NET *218 0.00114843
*CONN
*I *3822:A I *D sky130_fd_sc_hd__clkbuf_4
*I *3743:X O *D sky130_fd_sc_hd__dlygate4sd3_1
*CAP
1 *3822:A 0.000146902
2 *3743:X 0.000146902
3 *3822:A *3603:B 4.84692e-05
4 *3822:A *3605:A_N 9.60875e-05
5 *3822:A *278:22 5.52238e-05
6 *3822:A *333:20 2.14757e-05
7 *3822:A *335:26 5.33005e-05
8 *3822:A *370:44 4.29414e-05
9 *3605:D *3822:A 2.3541e-05
10 *181:28 *3822:A 0.000513585
*RES
1 *3743:X *3822:A 23.6536 
*END

*D_NET *219 0.0495018
*CONN
*I *3781:DI[3] I *D CF_SRAM_1024x32
*I *3744:X O *D sky130_fd_sc_hd__dlygate4sd3_1
*CAP
1 *3781:DI[3] 0.00148236
2 *3744:X 0.00279929
3 *219:50 0.00419299
4 *219:48 0.00374551
5 *219:36 0.00302272
6 *219:8 0.00478714
7 *3781:DI[3] *3781:vpwrpc 0.000121805
8 *3781:DI[3] *221:8 0.000352357
9 *3781:DI[3] *226:10 0.000688688
10 *3781:DI[3] *228:8 6.15317e-06
11 *219:8 *327:73 0.000610192
12 *219:36 *281:56 0.000167741
13 *219:36 *304:10 3.10441e-05
14 *219:36 *327:73 0.000816915
15 *219:36 *329:84 0.00118826
16 *219:48 *3860:A 2.00112e-05
17 *219:48 *244:32 0.000367574
18 *219:48 *308:14 0.000136435
19 *219:48 *327:73 0.000180279
20 *219:50 *3764:A 0.000237336
21 *219:50 *3781:vpwrpc 0.00128819
22 *219:50 *226:10 0.000814423
23 *219:50 *234:10 6.05091e-05
24 *219:50 *239:8 0.00328781
25 *219:50 *292:22 0.00662301
26 *3781:DI[4] *3781:DI[3] 0.000135028
27 *3:17 *219:50 1.09267e-05
28 *110:35 *219:50 0.00188177
29 *112:8 *3781:DI[3] 9.7616e-05
30 *115:25 *219:50 0.0002652
31 *130:59 *219:36 1.17968e-05
32 *132:43 *219:36 2.58724e-05
33 *133:27 *219:50 0.00645794
34 *138:17 *3781:DI[3] 0
35 *151:20 *219:36 9.65161e-05
36 *151:24 *219:36 5.33005e-05
37 *170:74 *219:8 0.000264176
38 *170:82 *219:48 2.42516e-05
39 *177:30 *219:36 7.6644e-05
40 *182:12 *219:8 0.00306293
41 *182:32 *219:48 9.11048e-06
*RES
1 *3744:X *219:8 49.6929 
2 *219:8 *219:36 48.4464 
3 *219:36 *219:48 29.4286 
4 *219:48 *219:50 128.232 
5 *219:50 *3781:DI[3] 39.4732 
*END

*D_NET *220 0.000505655
*CONN
*I *3792:A I *D sky130_fd_sc_hd__buf_4
*I *3745:X O *D sky130_fd_sc_hd__dlygate4sd3_1
*CAP
1 *3792:A 0.000230928
2 *3745:X 0.000230928
3 *3792:A *3871:A 0
4 *3792:A *339:8 4.37999e-05
*RES
1 *3745:X *3792:A 30.9036 
*END

*D_NET *221 0.0191443
*CONN
*I *3781:AD[6] I *D CF_SRAM_1024x32
*I *3746:X O *D sky130_fd_sc_hd__dlygate4sd3_1
*CAP
1 *3781:AD[6] 0.00106202
2 *3746:X 0
3 *221:8 0.00351689
4 *221:6 0.00245487
5 *3781:AD[6] *3781:AD[5] 0.000120283
6 *221:8 *3722:A 0.00187618
7 *221:8 *3781:vpwrpc 0.00133807
8 *221:8 *226:10 0.000576848
9 *221:8 *226:20 0.000630339
10 *221:8 *251:8 0.00190297
11 *221:8 *281:72 1.77757e-05
12 *221:8 *304:26 0.00356975
13 *221:8 *339:40 0.000128154
14 *3781:AD[7] *3781:AD[6] 0
15 *3781:DI[3] *221:8 0.000352357
16 *168:10 *221:8 0.00159781
17 *193:20 *221:8 0
*RES
1 *3746:X *221:6 13.8 
2 *221:6 *221:8 95.75 
3 *221:8 *3781:AD[6] 18.7812 
*END

*D_NET *222 0.000444238
*CONN
*I *3840:A I *D sky130_fd_sc_hd__buf_4
*I *3747:X O *D sky130_fd_sc_hd__dlygate4sd3_1
*CAP
1 *3840:A 0.000122332
2 *3747:X 0.000122332
3 *3840:A *3706:A 5.64029e-05
4 *3840:A *3871:A 0
5 *3840:A *364:34 7.33708e-05
6 *497:DIODE *3840:A 5.65955e-05
7 *3650:A *3840:A 1.32056e-05
*RES
1 *3747:X *3840:A 30.0821 
*END

*D_NET *223 0.0182798
*CONN
*I *3781:AD[5] I *D CF_SRAM_1024x32
*I *3749:X O *D sky130_fd_sc_hd__dlygate4sd3_1
*CAP
1 *3781:AD[5] 0.00152633
2 *3749:X 0.000384586
3 *223:10 0.00501242
4 *223:8 0.00387067
5 *3781:AD[5] *3781:AD[4] 4.91369e-05
6 *223:8 *3749:A 2.79421e-05
7 *223:10 *270:36 0.00108621
8 *223:10 *308:16 0.00473658
9 *3781:AD[6] *3781:AD[5] 0.000120283
10 *134:11 *223:10 0.00146566
11 *145:67 *223:10 0
*RES
1 *3749:X *223:8 17.6214 
2 *223:8 *223:10 94.8393 
3 *223:10 *3781:AD[5] 24.4598 
*END

*D_NET *224 0.00359608
*CONN
*I *3838:A I *D sky130_fd_sc_hd__buf_4
*I *3750:X O *D sky130_fd_sc_hd__dlygate4sd3_1
*CAP
1 *3838:A 0.00050477
2 *3750:X 0.00050477
3 *3838:A *3712:A 0.000660803
4 *3838:A *3750:A 1.24368e-05
5 *3838:A *3869:A 6.02554e-05
6 *3838:A *331:24 0
7 *3838:A *339:8 3.53079e-05
8 *3838:A *362:22 0.000382744
9 *3632:CLK *3838:A 0
10 *3632:RESET_B *3838:A 0.000386359
11 *3653:A *3838:A 0.000185401
12 *3825:A *3838:A 0.000829799
13 *145:24 *3838:A 3.34366e-05
*RES
1 *3750:X *3838:A 44.1 
*END

*D_NET *225 0.0101456
*CONN
*I *3696:A I *D sky130_fd_sc_hd__dlygate4sd3_1
*I *3799:X O *D sky130_fd_sc_hd__buf_2
*CAP
1 *3696:A 0.00106211
2 *3799:X 0.00122593
3 *225:14 0.00228805
4 *3696:A *3854:A 0.000304678
5 *3696:A *236:38 3.69697e-05
6 *3696:A *281:24 2.05938e-05
7 *225:14 *259:16 0.000875145
8 *225:14 *321:26 0.00186017
9 *225:14 *336:36 0.000107121
10 wbs_dat_o[14] *225:14 0.000271352
11 wbs_dat_o[16] *225:14 0.000269428
12 wbs_dat_o[18] *225:14 0.000271352
13 wbs_dat_o[20] *3696:A 0
14 *399:DIODE *3696:A 2.4461e-05
15 *503:DIODE *3696:A 0
16 *3656:A *225:14 0.000391722
17 *3657:A *225:14 0.000186669
18 *47:9 *225:14 0.000403123
19 *126:27 *3696:A 0.000245941
20 *214:16 *225:14 0.000293971
21 *214:32 *225:14 6.8377e-06
*RES
1 *3799:X *225:14 47.2821 
2 *225:14 *3696:A 35.7286 
*END

*D_NET *226 0.0195527
*CONN
*I *3781:AD[3] I *D CF_SRAM_1024x32
*I *3751:X O *D sky130_fd_sc_hd__dlygate4sd3_1
*CAP
1 *3781:AD[3] 0.000523636
2 *3751:X 0.000137327
3 *226:25 7.34403e-07
4 *226:20 0.00134472
5 *226:10 0.00220081
6 *226:8 0.00151631
7 *3781:AD[3] *3781:ScanInCC 0.00107907
8 *226:10 *3722:A 0.000315629
9 *226:10 *3764:A 0.000235682
10 *226:10 *3781:vpwrpc 0.000817786
11 *226:10 *281:72 0.00165475
12 *226:20 *3781:vpwrpc 0.000474055
13 *226:25 *3781:ScanInCC 1.33343e-05
14 *3781:AD[9] *3781:AD[3] 3.31523e-05
15 *3781:DI[3] *226:10 0.000688688
16 *110:35 *226:10 0.00244402
17 *133:27 *226:10 0.000171375
18 *168:10 *226:20 0.000589527
19 *195:28 *226:10 0.00010022
20 *195:28 *226:20 0.00272031
21 *195:32 *3781:AD[3] 0.000445964
22 *212:10 *226:10 2.4004e-05
23 *219:50 *226:10 0.000814423
24 *221:8 *226:10 0.000576848
25 *221:8 *226:20 0.000630339
*RES
1 *3751:X *226:8 15.1571 
2 *226:8 *226:10 57.3482 
3 *226:10 *226:20 40.2768 
4 *226:20 *3781:AD[3] 12.8571 
5 *3781:AD[3] *226:25 0.12963 
*END

*D_NET *227 0.00418216
*CONN
*I *3814:A I *D sky130_fd_sc_hd__clkbuf_4
*I *3752:X O *D sky130_fd_sc_hd__dlygate4sd3_1
*CAP
1 *3814:A 0
2 *3752:X 0.00131674
3 *227:18 0.00131674
4 *227:18 *3748:A 7.61932e-05
5 *227:18 *3752:A 0.000349458
6 *227:18 *3815:A 0.000277422
7 *227:18 *3860:A 0
8 *227:18 *3863:A 0.000182982
9 *227:18 *305:8 0.000148486
10 *227:18 *309:8 0.000271026
11 *227:18 *325:68 9.38345e-05
12 wbs_dat_o[26] *227:18 0
13 *3668:A *227:18 9.3171e-05
14 *3816:A *227:18 5.60962e-05
*RES
1 *3752:X *227:18 42.8536 
2 *227:18 *3814:A 9.3 
*END

*D_NET *228 0.0302606
*CONN
*I *3781:DI[25] I *D CF_SRAM_1024x32
*I *3753:X O *D sky130_fd_sc_hd__dlygate4sd3_1
*CAP
1 *3781:DI[25] 0.000655991
2 *3753:X 4.4693e-05
3 *228:10 0.00392471
4 *228:8 0.00331342
5 *228:10 *3781:vpwrac 0.000146512
6 *228:10 *230:20 0.00117737
7 *228:10 *234:10 0.000611447
8 *228:10 *380:14 2.26973e-05
9 *3781:DI[3] *228:8 6.15317e-06
10 *130:9 *3781:DI[25] 0
11 *160:10 *228:10 0.002306
12 *160:14 *228:10 0.00166865
13 *160:16 *228:10 0.00526615
14 *217:10 *228:10 0.0111168
*RES
1 *3753:X *228:8 14.3357 
2 *228:8 *228:10 150.393 
3 *228:10 *3781:DI[25] 15.7143 
*END

*D_NET *229 0.00112787
*CONN
*I *3815:A I *D sky130_fd_sc_hd__clkbuf_4
*I *3754:X O *D sky130_fd_sc_hd__dlygate4sd3_1
*CAP
1 *3815:A 0.000274486
2 *3754:X 0.000274486
3 *3815:A *292:20 0.0001826
4 *3815:A *325:68 0.00011888
5 *227:18 *3815:A 0.000277422
*RES
1 *3754:X *3815:A 33.1357 
*END

*D_NET *230 0.0294986
*CONN
*I *3781:DI[26] I *D CF_SRAM_1024x32
*I *3755:X O *D sky130_fd_sc_hd__dlygate4sd3_1
*CAP
1 *3781:DI[26] 0.00117506
2 *3755:X 0.00800957
3 *230:20 0.00918463
4 *230:20 *3781:vpwrac 0.00341547
5 *230:20 *234:10 2.06112e-05
6 *131:9 *3781:DI[26] 0.000265457
7 *132:11 *3781:DI[26] 0
8 *155:10 *3781:DI[26] 0.00263327
9 *160:10 *230:20 0.000411011
10 *160:14 *230:20 0.00052731
11 *160:16 *230:20 0.000718797
12 *212:28 *3781:DI[26] 0.000103489
13 *217:10 *230:20 0.00185653
14 *228:10 *230:20 0.00117737
*RES
1 *3755:X *230:20 46.9827 
2 *230:20 *3781:DI[26] 43.7939 
*END

*D_NET *231 0.00100169
*CONN
*I *3839:A I *D sky130_fd_sc_hd__buf_4
*I *3756:X O *D sky130_fd_sc_hd__dlygate4sd3_1
*CAP
1 *3839:A 0.000305406
2 *3756:X 0.000305406
3 *3839:A *339:8 4.37999e-05
4 *3825:A *3839:A 1.11775e-05
5 *3826:A *3839:A 0.000273398
6 *145:24 *3839:A 6.25005e-05
*RES
1 *3756:X *3839:A 33.0286 
*END

*D_NET *232 0.0205579
*CONN
*I *3781:AD[4] I *D CF_SRAM_1024x32
*I *3757:X O *D sky130_fd_sc_hd__dlygate4sd3_1
*CAP
1 *3781:AD[4] 0.000462414
2 *3757:X 0.000236854
3 *232:10 0.00235904
4 *232:8 0.00213348
5 *232:10 *237:10 0.0072577
6 *232:10 *244:46 0
7 *3781:AD[5] *3781:AD[4] 4.91369e-05
8 *130:11 *232:10 0.00783069
9 *133:25 *232:8 0.000175892
10 *144:15 *232:8 5.2727e-05
*RES
1 *3757:X *232:8 17.6214 
2 *232:8 *232:10 98.7857 
3 *232:10 *3781:AD[4] 11.9241 
*END

*D_NET *233 0.00117251
*CONN
*I *3837:A I *D sky130_fd_sc_hd__buf_4
*I *3758:X O *D sky130_fd_sc_hd__dlygate4sd3_1
*CAP
1 *3837:A 0.000276477
2 *3758:X 0.000276477
3 *3837:A *3750:A 0.000177545
4 *3837:A *329:24 0.000272217
5 *3837:A *329:46 6.46802e-05
6 *3837:A *333:20 5.33005e-05
7 *3837:A *339:8 4.60153e-05
8 *3665:A *3837:A 5.79582e-06
*RES
1 *3758:X *3837:A 32.7964 
*END

*D_NET *234 0.0220088
*CONN
*I *3781:AD[2] I *D CF_SRAM_1024x32
*I *3760:X O *D sky130_fd_sc_hd__dlygate4sd3_1
*CAP
1 *3781:AD[2] 0.00090316
2 *3760:X 4.88531e-05
3 *234:30 0.00191894
4 *234:10 0.00266318
5 *234:8 0.00169625
6 *3781:AD[2] *3781:AD[0] 0
7 *3781:AD[2] *3781:AD[1] 0.000102185
8 *234:8 *3722:A 1.30891e-05
9 *234:8 *3764:A 3.06878e-06
10 *234:10 *3776:A 0.000115096
11 *234:10 *3781:vpwrac 0.00100238
12 *234:10 *239:8 0.00555381
13 *234:30 *3781:vpwrpc 0.000184786
14 *234:30 *3781:vpwrac 0.000173055
15 *234:30 *239:24 0.00121264
16 *491:DIODE *234:10 0.000177227
17 *3781:AD[9] *234:30 7.1959e-05
18 *3:17 *234:10 0.00143634
19 *160:10 *234:10 0.000361508
20 *168:10 *234:30 0.000518739
21 *190:16 *234:10 0.000760006
22 *195:16 *234:10 7.47029e-06
23 *195:24 *234:10 0.000434073
24 *212:10 *234:10 1.76266e-05
25 *212:10 *234:30 0.00154705
26 *212:20 *234:30 0.000331493
27 *217:10 *234:10 6.22921e-05
28 *219:50 *234:10 6.05091e-05
29 *228:10 *234:10 0.000611447
30 *230:20 *234:10 2.06112e-05
*RES
1 *3760:X *234:8 14.3357 
2 *234:8 *234:10 72.5268 
3 *234:10 *234:30 45.7021 
4 *234:30 *3781:AD[2] 18.3527 
*END

*D_NET *235 0.000874576
*CONN
*I *3824:A I *D sky130_fd_sc_hd__buf_4
*I *3761:X O *D sky130_fd_sc_hd__dlygate4sd3_1
*CAP
1 *3824:A 0.00038619
2 *3761:X 0.00038619
3 *3824:A *3835:A 0
4 *3824:A *317:24 0
5 *3767:A *3824:A 0.000102197
*RES
1 *3761:X *3824:A 34.5643 
*END

*D_NET *236 0.0106977
*CONN
*I *3691:A I *D sky130_fd_sc_hd__dlygate4sd3_1
*I *3800:X O *D sky130_fd_sc_hd__buf_2
*CAP
1 *3691:A 0
2 *3800:X 0.00134886
3 *236:38 0.0013315
4 *236:22 0.00268036
5 *236:22 *3643:A 5.52302e-05
6 *236:22 *3695:A 0
7 *236:22 *3719:A 0.000171347
8 *236:22 *3801:A 5.71472e-05
9 *236:22 *270:22 0.00047837
10 *236:22 *338:18 0.00107693
11 *236:22 *339:18 0.0009812
12 *236:38 *3693:A 0
13 *236:38 *3855:A 0.000190436
14 *236:38 *3856:A 4.63768e-05
15 *236:38 *247:8 0.000395361
16 *236:38 *270:22 0.000438059
17 *236:38 *281:24 8.4737e-05
18 *236:38 *339:18 0.000656813
19 *236:38 *369:117 0
20 *400:DIODE *236:38 6.86905e-05
21 *505:DIODE *236:22 0.000361075
22 *3616:D *236:38 4.2313e-06
23 *3696:A *236:38 3.69697e-05
24 *3804:A *236:22 9.77072e-05
25 *3805:A *236:38 9.41642e-05
26 *44:7 *236:22 3.26077e-05
27 *121:52 *236:38 0
28 *166:10 *236:38 0
29 *171:10 *236:38 9.54798e-06
30 *214:16 *236:22 0
*RES
1 *3800:X *236:22 48.8179 
2 *236:22 *236:38 42.9286 
3 *236:38 *3691:A 9.3 
*END

*D_NET *237 0.0207555
*CONN
*I *3781:AD[0] I *D CF_SRAM_1024x32
*I *3762:X O *D sky130_fd_sc_hd__dlygate4sd3_1
*CAP
1 *3781:AD[0] 0.000495386
2 *3762:X 0.000199279
3 *237:10 0.00231427
4 *237:8 0.00201816
5 *3781:AD[0] *3781:AD[1] 0.000166275
6 *237:10 *244:46 0.000126617
7 *3781:AD[2] *3781:AD[0] 0
8 *3781:R_WB *3781:AD[0] 0
9 *3781:DI[8] *237:8 0.000348581
10 *130:11 *237:10 0.000330262
11 *201:10 *237:10 0.00749898
12 *232:10 *237:10 0.0072577
*RES
1 *3762:X *237:8 17.2107 
2 *237:8 *237:10 99.3929 
3 *237:10 *3781:AD[0] 13.442 
*END

*D_NET *238 0.00109381
*CONN
*I *3835:A I *D sky130_fd_sc_hd__buf_4
*I *3763:X O *D sky130_fd_sc_hd__dlygate4sd3_1
*CAP
1 *3835:A 0.000343811
2 *3763:X 0.000343811
3 *3835:A *3637:A 8.6229e-06
4 *3835:A *328:16 5.47001e-05
5 *510:DIODE *3835:A 5.59461e-05
6 *3767:A *3835:A 0.00028692
7 *3824:A *3835:A 0
*RES
1 *3763:X *3835:A 34.6357 
*END

*D_NET *239 0.022982
*CONN
*I *3781:AD[1] I *D CF_SRAM_1024x32
*I *3764:X O *D sky130_fd_sc_hd__dlygate4sd3_1
*CAP
1 *3781:AD[1] 0.000758342
2 *3764:X 0
3 *239:24 0.00161048
4 *239:8 0.00221161
5 *239:6 0.00135947
6 *239:8 *3781:vpwrac 0.00119984
7 *239:24 *3781:vpwrac 0.00028578
8 *239:24 *381:14 2.26973e-05
9 *3781:AD[0] *3781:AD[1] 0.000166275
10 *3781:AD[2] *3781:AD[1] 0.000102185
11 *110:35 *239:8 1.74766e-05
12 *160:10 *239:24 0.00161893
13 *160:14 *239:24 0.000448682
14 *212:10 *239:8 0.00223663
15 *212:10 *239:24 0.000665762
16 *212:20 *239:24 0.000223571
17 *219:50 *239:8 0.00328781
18 *234:10 *239:8 0.00555381
19 *234:30 *239:24 0.00121264
*RES
1 *3764:X *239:6 13.8 
2 *239:6 *239:8 70.25 
3 *239:8 *239:24 45.9107 
4 *239:24 *3781:AD[1] 12.0402 
*END

*D_NET *240 0.00183786
*CONN
*I *3831:A I *D sky130_fd_sc_hd__buf_12
*I *3765:X O *D sky130_fd_sc_hd__dlygate4sd3_1
*CAP
1 *3831:A 0.000356392
2 *3765:X 0.000356392
3 *3831:A *317:24 0.00011302
4 *3831:A *343:22 0.000192883
5 *510:DIODE *3831:A 0.000145477
6 *3767:A *3831:A 0.000623187
7 *104:9 *3831:A 5.05056e-05
*RES
1 *3765:X *3831:A 37.0643 
*END

*D_NET *241 0.0429324
*CONN
*I *3781:BEN[8] I *D CF_SRAM_1024x32
*I *3781:BEN[9] I *D CF_SRAM_1024x32
*I *3781:BEN[10] I *D CF_SRAM_1024x32
*I *3781:BEN[11] I *D CF_SRAM_1024x32
*I *3781:BEN[12] I *D CF_SRAM_1024x32
*I *3781:BEN[13] I *D CF_SRAM_1024x32
*I *3781:BEN[14] I *D CF_SRAM_1024x32
*I *3781:BEN[15] I *D CF_SRAM_1024x32
*I *3766:X O *D sky130_fd_sc_hd__buf_12
*CAP
1 *3781:BEN[8] 0.000379963
2 *3781:BEN[9] 0.000223734
3 *3781:BEN[10] 0.000147467
4 *3781:BEN[11] 0.000578495
5 *3781:BEN[12] 0.00119217
6 *3781:BEN[13] 0.000146159
7 *3781:BEN[14] 0.000217046
8 *3781:BEN[15] 0.00192078
9 *3766:X 0.00364635
10 *241:138 0.000742644
11 *241:133 0
12 *241:126 0.00169596
13 *241:98 0.0028172
14 *241:64 0.000663565
15 *241:52 0.0008801
16 *241:18 0.00505848
17 *3781:BEN[15] *3781:vpwrpc 2.72212e-05
18 *3781:BEN[15] *3781:vpwrac 0.00216998
19 *3781:BEN[15] *258:44 2.30116e-06
20 *241:18 *244:20 0.00135371
21 *241:18 *244:28 0.000231426
22 *241:18 *322:26 4.99283e-06
23 *241:18 *328:36 0.00299816
24 *241:98 *244:46 0.000784105
25 *3781:DI[12] *241:98 0.000199313
26 *3781:DI[15] *241:52 1.22954e-05
27 *3781:DI[13] *3781:BEN[13] 0
28 *114:11 *3781:BEN[9] 0
29 *115:25 *241:98 0.000310332
30 *115:25 *241:126 4.3588e-05
31 *119:13 *241:52 1.90303e-05
32 *119:19 *3781:BEN[15] 0.00079209
33 *119:29 *241:18 0.000267797
34 *123:27 *241:18 4.53834e-05
35 *125:21 *3781:BEN[8] 0.000154703
36 *125:21 *241:52 0.00012384
37 *125:21 *241:64 0.000108889
38 *125:21 *241:138 0.0001326
39 *126:27 *3781:BEN[15] 0.00216453
40 *127:21 *3781:BEN[15] 0.000103262
41 *127:21 *241:126 0.000418105
42 *128:11 *3781:BEN[12] 0.000676164
43 *128:11 *3781:BEN[8] 0.000782563
44 *128:11 *241:52 0.000553777
45 *128:11 *241:64 0.000676111
46 *128:11 *241:126 1.94879e-05
47 *128:11 *241:138 0.000683056
48 *128:29 *3781:BEN[15] 0
49 *129:37 *3781:BEN[15] 3.63281e-05
50 *129:39 *3781:BEN[15] 3.72222e-05
51 *130:33 *241:126 4.3588e-05
52 *140:11 *3781:BEN[15] 0.000465733
53 *140:15 *3781:BEN[15] 0.000354842
54 *142:25 *3781:BEN[10] 6.05161e-06
55 *142:25 *3781:BEN[12] 6.05161e-06
56 *142:25 *241:98 3.55471e-05
57 *143:41 *241:98 0.000216755
58 *144:15 *3781:BEN[8] 0
59 *151:26 *241:52 0.000124072
60 *157:14 *241:18 0
61 *164:38 *3781:BEN[15] 9.23883e-05
62 *164:50 *3781:BEN[15] 0.000480697
63 *164:50 *241:52 9.12246e-05
64 *164:52 *3781:BEN[12] 0.000685414
65 *164:52 *3781:BEN[8] 0.000791186
66 *164:52 *241:52 0.00055207
67 *164:52 *241:64 0.000685362
68 *164:52 *241:126 1.94879e-05
69 *164:52 *241:138 0.000691679
70 *177:14 *241:18 0.000254013
71 *182:32 *241:18 0.000834657
72 *188:26 *3781:BEN[15] 0.000259139
*RES
1 *3766:X *241:18 40.6587 
2 *241:18 *3781:BEN[15] 36.9863 
3 *3781:BEN[15] *241:52 19.9732 
4 *241:52 *3781:BEN[14] 7.97321 
5 *241:52 *241:64 8.625 
6 *241:64 *3781:BEN[13] 6.61607 
7 *241:64 *3781:BEN[12] 17.2589 
8 *3781:BEN[12] *241:98 29.5982 
9 *241:98 *3781:BEN[11] 8.15179 
10 *241:98 *241:126 22.4313 
11 *241:126 *3781:BEN[10] 6.67857 
12 *3781:BEN[10] *241:133 0.134615 
13 *241:126 *241:138 8.625 
14 *241:138 *3781:BEN[9] 8.02679 
15 *241:138 *3781:BEN[8] 17.8839 
*END

*D_NET *242 0.000237444
*CONN
*I *3765:A I *D sky130_fd_sc_hd__dlygate4sd3_1
*I *3767:X O *D sky130_fd_sc_hd__dlygate4sd3_1
*CAP
1 *3765:A 4.6685e-05
2 *3767:X 4.6685e-05
3 *3767:A *3765:A 0.000144074
*RES
1 *3767:X *3765:A 19.9571 
*END

*D_NET *243 0.00118277
*CONN
*I *3830:A I *D sky130_fd_sc_hd__buf_12
*I *3768:X O *D sky130_fd_sc_hd__dlygate4sd3_1
*CAP
1 *3830:A 0.000382893
2 *3768:X 0.000382893
3 *3830:A *3761:A 9.04364e-05
4 *3830:A *3768:A 2.80341e-05
5 *3830:A *3772:A 2.61099e-05
6 *103:11 *3830:A 0.000217182
7 *181:28 *3830:A 5.52238e-05
*RES
1 *3768:X *3830:A 34.2607 
*END

*D_NET *244 0.0510453
*CONN
*I *3781:BEN[0] I *D CF_SRAM_1024x32
*I *3781:BEN[1] I *D CF_SRAM_1024x32
*I *3781:BEN[2] I *D CF_SRAM_1024x32
*I *3781:BEN[3] I *D CF_SRAM_1024x32
*I *3781:BEN[4] I *D CF_SRAM_1024x32
*I *3781:BEN[5] I *D CF_SRAM_1024x32
*I *3781:BEN[6] I *D CF_SRAM_1024x32
*I *3781:BEN[7] I *D CF_SRAM_1024x32
*I *3769:X O *D sky130_fd_sc_hd__buf_12
*CAP
1 *3781:BEN[0] 0.000532429
2 *3781:BEN[1] 0.000158249
3 *3781:BEN[2] 0.000944738
4 *3781:BEN[3] 0.000132921
5 *3781:BEN[4] 0.000761887
6 *3781:BEN[5] 0.000223576
7 *3781:BEN[6] 0.000222643
8 *3781:BEN[7] 0.000930444
9 *3769:X 0.00064474
10 *244:130 0.00106228
11 *244:102 0.00113429
12 *244:74 0.000694264
13 *244:62 0.000644425
14 *244:46 0.00234464
15 *244:44 0.00268736
16 *244:32 0.00152726
17 *244:28 0.0015652
18 *244:20 0.00167109
19 *244:20 *324:36 0.000352875
20 *244:20 *328:36 9.37606e-06
21 *244:20 *337:44 0.000879394
22 *244:20 *371:102 0.000192488
23 *244:28 *3620:A_N 6.57032e-05
24 *244:28 *367:173 0.000158781
25 *244:32 *3860:A 0.000890393
26 *244:44 *308:14 0.000149398
27 *244:44 *317:66 5.92431e-05
28 *244:44 *325:68 0.000249981
29 *244:44 *325:70 6.91171e-05
30 *244:44 *361:54 0.00202738
31 *244:44 *361:56 3.27359e-05
32 *244:46 *3757:A 0.000241286
33 *244:46 *317:68 2.07414e-05
34 *244:46 *361:56 0.00375371
35 *3620:D *244:28 1.14548e-05
36 *3781:DI[12] *244:46 0.000307255
37 *3781:DI[4] *244:102 0
38 *3781:DI[2] *244:130 0
39 *3781:DI[7] *244:62 0
40 *110:12 *244:44 3.42552e-05
41 *115:25 *244:46 0.000113059
42 *118:11 *244:44 1.65923e-05
43 *119:29 *244:20 0.000344225
44 *119:29 *244:28 0.00063949
45 *119:41 *244:20 0.00113915
46 *125:21 *244:62 0.000129366
47 *125:21 *244:74 0.000179097
48 *127:21 *3781:BEN[0] 0.000358195
49 *127:21 *3781:BEN[2] 0.000358195
50 *128:11 *3781:BEN[0] 0.000798579
51 *128:11 *3781:BEN[2] 0.000445982
52 *128:11 *3781:BEN[4] 0.000830326
53 *128:11 *244:62 0.000574542
54 *128:11 *244:74 0.000789336
55 *128:11 *244:102 0.000296624
56 *128:11 *244:130 0.000573557
57 *133:25 *244:46 0.000966616
58 *135:21 *3781:BEN[1] 0
59 *135:21 *244:130 1.94945e-05
60 *139:9 *3781:BEN[3] 0
61 *141:9 *3781:BEN[5] 0
62 *151:20 *244:28 0.00368111
63 *164:26 *244:20 6.46289e-06
64 *164:26 *244:28 5.65346e-05
65 *164:52 *3781:BEN[4] 0.000839576
66 *164:52 *244:62 0.000574542
67 *164:52 *244:74 0.000798586
68 *171:32 *244:44 0.00012538
69 *171:32 *244:46 0.000682246
70 *177:14 *244:28 0.00313763
71 *177:30 *244:28 0.000447378
72 *177:30 *244:32 1.54142e-05
73 *177:44 *244:44 0.00175827
74 *182:62 *244:46 0
75 *201:8 *3781:BEN[7] 9.83388e-05
76 *219:48 *244:32 0.000367574
77 *232:10 *244:46 0
78 *237:10 *244:46 0.000126617
79 *241:18 *244:20 0.00135371
80 *241:18 *244:28 0.000231426
81 *241:98 *244:46 0.000784105
*RES
1 *3769:X *244:20 36.5679 
2 *244:20 *244:28 46.6964 
3 *244:28 *244:32 16.9464 
4 *244:32 *244:44 44.5179 
5 *244:44 *244:46 62.9643 
6 *244:46 *3781:BEN[7] 14.6339 
7 *3781:BEN[7] *244:62 15.2589 
8 *244:62 *3781:BEN[6] 8.08036 
9 *244:62 *244:74 9.83929 
10 *244:74 *3781:BEN[5] 8.09821 
11 *244:74 *3781:BEN[4] 17.9554 
12 *3781:BEN[4] *244:102 13.9732 
13 *244:102 *3781:BEN[3] 6.90179 
14 *244:102 *3781:BEN[2] 16.7589 
15 *3781:BEN[2] *244:130 14.3482 
16 *244:130 *3781:BEN[1] 7.34821 
17 *244:130 *3781:BEN[0] 17.2054 
*END

*D_NET *245 0.000992877
*CONN
*I *3768:A I *D sky130_fd_sc_hd__dlygate4sd3_1
*I *3771:X O *D sky130_fd_sc_hd__dlygate4sd3_1
*CAP
1 *3768:A 0.000364883
2 *3771:X 0.000364883
3 *3768:A *3772:A 9.60939e-05
4 *3768:A *317:24 3.57163e-05
5 *3830:A *3768:A 2.80341e-05
6 *103:11 *3768:A 0.000103267
*RES
1 *3771:X *3768:A 34.0107 
*END

*D_NET *246 0.00286869
*CONN
*I *3832:A I *D sky130_fd_sc_hd__buf_12
*I *3772:X O *D sky130_fd_sc_hd__dlygate4sd3_1
*CAP
1 *3832:A 0.000858135
2 *3772:X 0.000858135
3 *3832:A *3833:A 0.000302834
4 *3832:A *278:22 0.000108535
5 *3832:A *327:38 0.000162151
6 wbs_dat_o[2] *3832:A 0.000197984
7 *447:DIODE *3832:A 5.52238e-05
8 *3607:D *3832:A 4.92349e-05
9 *31:9 *3832:A 0
10 *61:11 *3832:A 0
11 *181:28 *3832:A 0.000276459
*RES
1 *3772:X *3832:A 41.7607 
*END

*D_NET *247 0.0105526
*CONN
*I *3693:A I *D sky130_fd_sc_hd__dlygate4sd3_1
*I *3801:X O *D sky130_fd_sc_hd__buf_2
*CAP
1 *3693:A 0.00100112
2 *3801:X 0.000841791
3 *247:8 0.00184291
4 *3693:A *3856:A 0
5 *3693:A *367:140 5.20232e-05
6 *3693:A *369:117 0
7 *3693:A *369:132 2.42516e-05
8 *247:8 *281:24 0.00050472
9 *247:8 *339:18 0.00375685
10 *159:18 *247:8 0.00208032
11 *166:10 *3693:A 5.32956e-05
12 *236:38 *3693:A 0
13 *236:38 *247:8 0.000395361
*RES
1 *3801:X *247:8 49.6571 
2 *247:8 *3693:A 27.8893 
*END

*D_NET *248 0.033653
*CONN
*I *3781:BEN[23] I *D CF_SRAM_1024x32
*I *3781:BEN[22] I *D CF_SRAM_1024x32
*I *3781:BEN[21] I *D CF_SRAM_1024x32
*I *3781:BEN[20] I *D CF_SRAM_1024x32
*I *3781:BEN[19] I *D CF_SRAM_1024x32
*I *3781:BEN[18] I *D CF_SRAM_1024x32
*I *3781:BEN[17] I *D CF_SRAM_1024x32
*I *3781:BEN[16] I *D CF_SRAM_1024x32
*I *3773:X O *D sky130_fd_sc_hd__buf_12
*CAP
1 *3781:BEN[23] 0.000574136
2 *3781:BEN[22] 0.00112147
3 *3781:BEN[21] 0.00015997
4 *3781:BEN[20] 0.000152704
5 *3781:BEN[19] 0.000104203
6 *3781:BEN[18] 0.000150839
7 *3781:BEN[17] 0.000118194
8 *3781:BEN[16] 0.00155331
9 *3773:X 4.22731e-05
10 *248:75 0.00110673
11 *248:63 0.000891343
12 *248:51 0.000842737
13 *248:39 0.000880572
14 *248:27 0.000865394
15 *248:10 0.00365046
16 *248:8 0.00255621
17 *248:10 *305:14 0.00264225
18 *248:27 *3781:WLBI 0
19 *248:27 *3781:TM 0.000203787
20 *3781:CLKin *3781:BEN[17] 0
21 *122:17 *248:39 0.000115656
22 *123:17 *248:51 1.94879e-05
23 *125:17 *248:63 1.94879e-05
24 *126:17 *248:75 1.94879e-05
25 *127:17 *3781:BEN[22] 1.94879e-05
26 *127:21 *248:51 0.000206726
27 *128:9 *3781:BEN[23] 0
28 *128:11 *3781:BEN[22] 0.000790201
29 *128:11 *3781:BEN[23] 8.58217e-05
30 *128:11 *248:27 0.000603969
31 *128:11 *248:39 0.000737583
32 *128:11 *248:51 0.000872283
33 *128:11 *248:63 0.00072292
34 *128:11 *248:75 0.00079134
35 *134:11 *248:10 0.000891812
36 *155:10 *3781:BEN[23] 0.000174348
37 *175:8 *248:10 0.000344957
38 *179:16 *248:10 0.00163106
39 *193:20 *248:10 0.00605077
40 *215:8 *248:10 0.00193901
*RES
1 *3773:X *248:8 14.3357 
2 *248:8 *248:10 109.411 
3 *248:10 *3781:BEN[16] 21.0536 
4 *3781:BEN[16] *248:27 15.0536 
5 *248:27 *3781:BEN[17] 6.64286 
6 *248:27 *248:39 9.23214 
7 *248:39 *3781:BEN[18] 7.26786 
8 *248:39 *248:51 10.75 
9 *248:51 *3781:BEN[19] 6.375 
10 *248:51 *248:63 8.92857 
11 *248:63 *3781:BEN[20] 7.30357 
12 *248:63 *248:75 9.83929 
13 *248:75 *3781:BEN[21] 7.32143 
14 *248:75 *3781:BEN[22] 17.1786 
15 *3781:BEN[22] *3781:BEN[23] 20.875 
*END

*D_NET *249 0.00284162
*CONN
*I *3772:A I *D sky130_fd_sc_hd__dlygate4sd3_1
*I *3774:X O *D sky130_fd_sc_hd__dlygate4sd3_1
*CAP
1 *3772:A 0.000404575
2 *3774:X 0.000404575
3 *3772:A *317:24 0.00040765
4 wbs_dat_o[0] *3772:A 4.75428e-05
5 *3768:A *3772:A 9.60939e-05
6 *3774:A *3772:A 0.000142856
7 *3795:A *3772:A 0.000447807
8 *3830:A *3772:A 2.61099e-05
9 *50:13 *3772:A 0.000140933
10 *103:11 *3772:A 0.000427395
11 *181:28 *3772:A 0.00029608
*RES
1 *3774:X *3772:A 42.5464 
*END

*D_NET *250 0.00290647
*CONN
*I *3833:A I *D sky130_fd_sc_hd__buf_12
*I *3775:X O *D sky130_fd_sc_hd__dlygate4sd3_1
*CAP
1 *3833:A 0.000413323
2 *3775:X 0.000413323
3 *3833:A *3750:A 0.000143957
4 *3833:A *3758:A 0.000263108
5 *3833:A *323:14 0.00103556
6 *3833:A *325:24 9.41315e-05
7 *3684:A *3833:A 4.22908e-05
8 *3832:A *3833:A 0.000302834
9 *31:9 *3833:A 0
10 *105:13 *3833:A 7.77652e-05
11 *117:87 *3833:A 0.000120177
*RES
1 *3775:X *3833:A 42.0821 
*END

*D_NET *251 0.0352297
*CONN
*I *3781:BEN[31] I *D CF_SRAM_1024x32
*I *3781:BEN[30] I *D CF_SRAM_1024x32
*I *3781:BEN[29] I *D CF_SRAM_1024x32
*I *3781:BEN[28] I *D CF_SRAM_1024x32
*I *3781:BEN[27] I *D CF_SRAM_1024x32
*I *3781:BEN[26] I *D CF_SRAM_1024x32
*I *3781:BEN[25] I *D CF_SRAM_1024x32
*I *3781:BEN[24] I *D CF_SRAM_1024x32
*I *3776:X O *D sky130_fd_sc_hd__buf_12
*CAP
1 *3781:BEN[31] 0.000535707
2 *3781:BEN[30] 0.000139334
3 *3781:BEN[29] 8.93753e-05
4 *3781:BEN[28] 0.00121212
5 *3781:BEN[27] 0.00117178
6 *3781:BEN[26] 8.93753e-05
7 *3781:BEN[25] 0.000136012
8 *3781:BEN[24] 7.72499e-05
9 *3776:X 0
10 *251:112 6.93745e-06
11 *251:93 0.00131896
12 *251:81 0.00137636
13 *251:37 0.00118274
14 *251:25 0.00100855
15 *251:12 0.00145549
16 *251:8 0.00474899
17 *251:6 0.00374572
18 *251:8 *3781:vpwrpc 0.00023328
19 *3781:DI[27] *3781:BEN[27] 0
20 *3781:DI[28] *3781:BEN[28] 0.000373552
21 *130:9 *3781:BEN[24] 0
22 *130:9 *251:12 0
23 *133:9 *3781:BEN[28] 1.03968e-05
24 *133:11 *3781:BEN[27] 0
25 *133:11 *3781:BEN[28] 0
26 *134:9 *251:81 0
27 *137:11 *3781:BEN[30] 0
28 *155:10 *3781:BEN[27] 0.000183002
29 *155:10 *251:25 0.000264349
30 *155:10 *251:37 0.000321135
31 *168:10 *251:8 0.00313026
32 *175:8 *251:8 0.00963377
33 *193:20 *251:8 0.000882333
34 *221:8 *251:8 0.00190297
*RES
1 *3776:X *251:6 13.8 
2 *251:6 *251:8 151.304 
3 *251:8 *251:12 18.5893 
4 *251:12 *3781:BEN[24] 1.35714 
5 *251:12 *251:25 12.8214 
6 *251:25 *3781:BEN[25] 6.98214 
7 *251:25 *251:37 10.75 
8 *251:37 *3781:BEN[26] 6.08929 
9 *251:37 *3781:BEN[27] 15.9464 
10 *3781:BEN[27] *3781:BEN[28] 21.6964 
11 *3781:BEN[28] *251:81 15.9464 
12 *251:81 *3781:BEN[29] 6.08929 
13 *251:81 *251:93 10.75 
14 *251:93 *3781:BEN[30] 6.98214 
15 *251:93 *3781:BEN[31] 13.7679 
16 *3781:BEN[31] *251:112 0.125 
*END

*D_NET *252 0.00287282
*CONN
*I *3775:A I *D sky130_fd_sc_hd__dlygate4sd3_1
*I *3777:X O *D sky130_fd_sc_hd__dlygate4sd3_1
*CAP
1 *3775:A 0.000519694
2 *3777:X 0.000519694
3 *3775:A *323:10 0
4 *3775:A *323:14 0.000147225
5 *3775:A *327:38 3.73182e-05
6 wbs_dat_o[1] *3775:A 9.71197e-05
7 *3598:A *3775:A 0
8 *3632:RESET_B *3775:A 0.000438359
9 *3685:A *3775:A 0.000314883
10 *3767:A *3775:A 0.000133274
11 *50:13 *3775:A 0.00014285
12 *104:9 *3775:A 0.000257776
13 *105:13 *3775:A 0.000264628
*RES
1 *3777:X *3775:A 42.5821 
*END

*D_NET *253 0.000437792
*CONN
*I *3643:A I *D sky130_fd_sc_hd__dlygate4sd3_1
*I *3778:X O *D sky130_fd_sc_hd__dlygate4sd3_1
*CAP
1 *3643:A 8.88914e-05
2 *3778:X 8.88914e-05
3 *3643:A *3848:A 3.03692e-05
4 *3643:A *339:18 5.52302e-05
5 *3643:A *340:22 0.000119179
6 *236:22 *3643:A 5.52302e-05
*RES
1 *3778:X *3643:A 29.7786 
*END

*D_NET *254 0.00216013
*CONN
*I *3690:A I *D sky130_fd_sc_hd__dlygate4sd3_1
*I *3779:X O *D sky130_fd_sc_hd__dlygate4sd3_1
*CAP
1 *3690:A 0.00067922
2 *3779:X 0.00067922
3 *3690:A *325:40 9.25014e-06
4 *3690:A *338:18 2.83284e-06
5 *3690:A *340:22 9.90431e-05
6 wbs_dat_o[13] *3690:A 0.000142856
7 wbs_dat_o[14] *3690:A 6.73197e-05
8 wbs_dat_o[15] *3690:A 0.000139907
9 *3800:A *3690:A 0.000146591
10 *45:17 *3690:A 4.13595e-05
11 *117:59 *3690:A 5.65028e-05
12 *214:16 *3690:A 9.60293e-05
*RES
1 *3779:X *3690:A 39.725 
*END

*D_NET *255 0.000670739
*CONN
*I *3695:A I *D sky130_fd_sc_hd__dlygate4sd3_1
*I *3780:X O *D sky130_fd_sc_hd__dlygate4sd3_1
*CAP
1 *3695:A 0.000183733
2 *3780:X 0.000183733
3 *3695:A *339:18 0.000228784
4 *3799:A *3695:A 7.44888e-05
5 *236:22 *3695:A 0
*RES
1 *3780:X *3695:A 31.4214 
*END

*D_NET *256 0.00240564
*CONN
*I *3701:A I *D sky130_fd_sc_hd__dlygate4sd3_1
*I *3645:X O *D sky130_fd_sc_hd__dlygate4sd3_1
*CAP
1 *3701:A 0.000416961
2 *3645:X 0.000416961
3 *3701:A *3710:A 0.00011594
4 *3701:A *3769:A 6.66746e-05
5 *3701:A *339:16 9.60875e-05
6 *537:DIODE *3701:A 0
7 *3645:A *3701:A 0.000623073
8 *117:59 *3701:A 0.000621156
9 *159:10 *3701:A 4.87854e-05
*RES
1 *3645:X *3701:A 39.1 
*END

*D_NET *257 0.00228078
*CONN
*I *3710:A I *D sky130_fd_sc_hd__dlygate4sd3_1
*I *3646:X O *D sky130_fd_sc_hd__dlygate4sd3_1
*CAP
1 *3710:A 0.000863335
2 *3646:X 0.000863335
3 *3710:A *3769:A 3.9506e-05
4 *3710:A *258:18 8.6229e-06
5 *3710:A *336:36 5.47001e-05
6 *3701:A *3710:A 0.00011594
7 *3797:A *3710:A 0.000205192
8 *3813:A *3710:A 0
9 *111:12 *3710:A 4.05401e-05
10 *111:14 *3710:A 5.47257e-05
11 *192:16 *3710:A 3.48867e-05
*RES
1 *3646:X *3710:A 39.975 
*END

*D_NET *258 0.0446377
*CONN
*I *3731:A I *D sky130_fd_sc_hd__dlygate4sd3_1
*I *3802:X O *D sky130_fd_sc_hd__buf_4
*CAP
1 *3731:A 0.00032367
2 *3802:X 0.000678021
3 *258:56 0.00119413
4 *258:52 0.00188927
5 *258:44 0.00203221
6 *258:30 0.00178885
7 *258:20 0.0048873
8 *258:18 0.00478987
9 *3731:A *3751:A 6.99087e-05
10 *3731:A *281:72 0.00107396
11 *3731:A *304:26 0.000523226
12 *3731:A *339:40 0.00021505
13 *258:18 *3873:A 0.000107933
14 *258:18 *322:16 0.000203224
15 *258:18 *372:14 0.00186399
16 *258:20 *306:8 0.000125196
17 *258:20 *306:12 0.00110692
18 *258:20 *306:28 0.00104521
19 *258:20 *322:26 0.00257297
20 *258:20 *350:14 0.000416588
21 *258:30 *301:8 1.69961e-05
22 *258:30 *306:28 0.000946008
23 *258:30 *347:16 0.00156006
24 *258:44 *259:54 0.00119009
25 *258:44 *281:56 0.000102548
26 *258:44 *302:20 0.000534196
27 *258:44 *306:38 0.000178847
28 *258:52 *281:56 9.76435e-06
29 *258:52 *281:70 0.00128174
30 *258:52 *302:20 4.40603e-05
31 *258:52 *304:18 0.000929181
32 *258:52 *317:66 0.000966521
33 *258:52 *339:40 0.000242338
34 *258:56 *3751:A 0.000600828
35 *258:56 *281:72 0.00091793
36 *258:56 *304:26 0.00309595
37 *258:56 *317:66 8.41284e-06
38 *3710:A *258:18 8.6229e-06
39 *3781:BEN[15] *258:44 2.30116e-06
40 *3781:DI[14] *258:52 0
41 *3797:A *258:20 2.89016e-05
42 *3808:A *258:30 9.54536e-05
43 *3829:A *258:18 2.64366e-05
44 *111:12 *258:18 6.09762e-05
45 *113:27 *258:30 0
46 *117:17 *258:52 5.01876e-06
47 *117:17 *258:56 0.00144077
48 *120:48 *258:30 0.000142856
49 *121:34 *258:30 0.000198648
50 *130:43 *258:44 0.00018077
51 *138:29 *258:44 0
52 *138:29 *258:52 0.000383787
53 *140:11 *258:44 1.68854e-05
54 *141:19 *258:18 0.00183082
55 *148:48 *258:30 0.000614876
56 *164:50 *258:44 0
57 *177:30 *258:44 9.25014e-06
58 *188:26 *258:52 2.59355e-05
59 *188:28 *258:44 3.23658e-05
*RES
1 *3802:X *258:18 30.4967 
2 *258:18 *258:20 58.0357 
3 *258:20 *258:30 37.1429 
4 *258:30 *258:44 35.9821 
5 *258:44 *258:52 32.0625 
6 *258:52 *258:56 40.125 
7 *258:56 *3731:A 27.4339 
*END

*D_NET *259 0.0385335
*CONN
*I *3727:A I *D sky130_fd_sc_hd__dlygate4sd3_1
*I *3803:X O *D sky130_fd_sc_hd__clkbuf_4
*CAP
1 *3727:A 0.000239111
2 *3803:X 0.00237247
3 *259:58 0.00203921
4 *259:56 0.0018725
5 *259:54 0.00162418
6 *259:44 0.00338738
7 *259:16 0.00420807
8 *259:16 *3721:A 0.000107994
9 *259:16 *3854:A 0.000106934
10 *259:16 *339:18 0.000108229
11 *259:16 *350:14 0.000189599
12 *259:44 *3728:A 1.5702e-05
13 *259:44 *3734:A 5.47001e-05
14 *259:44 *3736:A 0.000114281
15 *259:44 *270:34 0.000436738
16 *259:44 *276:24 5.97485e-05
17 *259:44 *281:42 5.74499e-06
18 *259:44 *292:16 0.000210752
19 *259:44 *292:20 0.000138818
20 *259:44 *348:16 0.000245978
21 *259:54 *3859:A 2.52164e-05
22 *259:54 *281:42 0
23 *259:54 *281:56 0.00155001
24 *259:54 *302:20 4.45265e-05
25 *259:54 *303:10 0
26 *259:54 *305:12 6.7848e-05
27 *259:54 *305:14 1.09026e-05
28 *259:54 *317:66 0.000112777
29 *259:56 *305:12 3.10978e-05
30 *259:58 *301:30 1.08359e-05
31 *259:58 *302:24 0.00159056
32 *259:58 *302:26 0.00213425
33 *259:58 *305:14 0.00659435
34 *259:58 *317:66 7.47029e-06
35 wbs_dat_o[16] *259:16 0.000143566
36 wbs_dat_o[18] *259:16 0.000146533
37 wbs_dat_o[22] *259:44 7.14469e-05
38 *410:DIODE *259:44 9.54798e-06
39 *461:DIODE *259:54 0.000180271
40 *473:DIODE *259:54 2.59355e-05
41 *3657:A *259:16 0.000102207
42 *3658:A *259:44 0.000177963
43 *3746:A *259:58 0.00109349
44 *3806:A *259:16 9.60293e-05
45 *3811:A *259:44 9.63157e-05
46 *53:9 *259:44 5.33005e-05
47 *128:49 *259:44 0.000109271
48 *131:79 *259:54 0
49 *134:15 *259:54 3.97677e-05
50 *143:49 *259:54 2.05612e-05
51 *143:53 *259:54 0.000597603
52 *159:30 *259:54 0.00166958
53 *182:32 *259:54 0.000136682
54 *193:20 *259:58 0.000910454
55 *214:32 *259:16 0.00106975
56 *225:14 *259:16 0.000875145
57 *258:44 *259:54 0.00119009
*RES
1 *3803:X *259:16 48.9591 
2 *259:16 *259:44 45.8482 
3 *259:44 *259:54 49.6339 
4 *259:54 *259:56 0.946429 
5 *259:56 *259:58 83.4554 
6 *259:58 *3727:A 16.8 
*END

*D_NET *260 0.000408329
*CONN
*I *3726:A I *D sky130_fd_sc_hd__dlygate4sd3_1
*I *3647:X O *D sky130_fd_sc_hd__dlygate4sd3_1
*CAP
1 *3726:A 0.000163596
2 *3647:X 0.000163596
3 *521:DIODE *3726:A 8.11358e-05
4 *3796:A *3726:A 0
*RES
1 *3647:X *3726:A 30.4571 
*END

*D_NET *261 0.000661049
*CONN
*I *3677:A I *D sky130_fd_sc_hd__dlygate4sd3_1
*I *3648:X O *D sky130_fd_sc_hd__dlygate4sd3_1
*CAP
1 *3677:A 0.000129539
2 *3648:X 0.000129539
3 *3677:A *3844:A 0.000117457
4 *3677:A *339:16 0.000185118
5 *3793:A *3677:A 0
6 *159:10 *3677:A 9.93955e-05
*RES
1 *3648:X *3677:A 31.0107 
*END

*D_NET *262 0.000126884
*CONN
*I *3697:A I *D sky130_fd_sc_hd__dlygate4sd3_1
*I *3649:X O *D sky130_fd_sc_hd__dlygate4sd3_1
*CAP
1 *3697:A 6.29488e-06
2 *3649:X 6.29488e-06
3 *3649:A *3697:A 5.71472e-05
4 *117:79 *3697:A 5.71472e-05
*RES
1 *3649:X *3697:A 19.1357 
*END

*D_NET *263 0.000237336
*CONN
*I *3706:A I *D sky130_fd_sc_hd__dlygate4sd3_1
*I *3650:X O *D sky130_fd_sc_hd__dlygate4sd3_1
*CAP
1 *3706:A 9.04665e-05
2 *3650:X 9.04665e-05
3 *3840:A *3706:A 5.64029e-05
*RES
1 *3650:X *3706:A 29.2429 
*END

*D_NET *264 0.000559391
*CONN
*I *3708:A I *D sky130_fd_sc_hd__dlygate4sd3_1
*I *3651:X O *D sky130_fd_sc_hd__dlygate4sd3_1
*CAP
1 *3708:A 0.000122728
2 *3651:X 0.000122728
3 *3708:A *3869:A 0.000123295
4 *3708:A *323:14 9.80173e-05
5 *34:5 *3708:A 1.59782e-05
6 *115:71 *3708:A 7.6644e-05
*RES
1 *3651:X *3708:A 30.1893 
*END

*D_NET *265 0.00119512
*CONN
*I *3714:A I *D sky130_fd_sc_hd__dlygate4sd3_1
*I *3652:X O *D sky130_fd_sc_hd__dlygate4sd3_1
*CAP
1 *3714:A 0.000352981
2 *3652:X 0.000352981
3 *3714:A *341:18 7.35649e-05
4 *3714:A *342:20 0.000230482
5 wbs_dat_o[18] *3714:A 5.55213e-05
6 *48:9 *3714:A 0.000129595
7 *159:18 *3714:A 0
*RES
1 *3652:X *3714:A 34.7607 
*END

*D_NET *266 0.00279119
*CONN
*I *3712:A I *D sky130_fd_sc_hd__dlygate4sd3_1
*I *3653:X O *D sky130_fd_sc_hd__dlygate4sd3_1
*CAP
1 *3712:A 0.000272818
2 *3653:X 0.000272818
3 *3712:A *339:8 0.00114678
4 *3712:A *362:22 0.000384667
5 *3653:A *3712:A 5.33005e-05
6 *3838:A *3712:A 0.000660803
*RES
1 *3653:X *3712:A 29.8143 
*END

*D_NET *267 0.00205937
*CONN
*I *3728:A I *D sky130_fd_sc_hd__dlygate4sd3_1
*I *3654:X O *D sky130_fd_sc_hd__dlygate4sd3_1
*CAP
1 *3728:A 0.000327886
2 *3654:X 0.000327886
3 *3728:A *3732:A 0.000171526
4 *3728:A *325:56 0.000579959
5 wbs_dat_o[22] *3728:A 0
6 *410:DIODE *3728:A 5.62995e-05
7 *501:DIODE *3728:A 5.71472e-05
8 *53:9 *3728:A 0.0003656
9 *117:57 *3728:A 8.76251e-05
10 *117:59 *3728:A 6.97409e-05
11 *259:44 *3728:A 1.5702e-05
*RES
1 *3654:X *3728:A 38.35 
*END

*D_NET *268 0.00130862
*CONN
*I *3719:A I *D sky130_fd_sc_hd__dlygate4sd3_1
*I *3656:X O *D sky130_fd_sc_hd__dlygate4sd3_1
*CAP
1 *3719:A 0.000219854
2 *3656:X 0.000219854
3 *3719:A *339:18 0.000431857
4 *3719:A *342:20 0.000116879
5 *3804:A *3719:A 9.90367e-05
6 *214:32 *3719:A 4.97892e-05
7 *236:22 *3719:A 0.000171347
*RES
1 *3656:X *3719:A 33.475 
*END

*D_NET *269 0.000694635
*CONN
*I *3721:A I *D sky130_fd_sc_hd__dlygate4sd3_1
*I *3657:X O *D sky130_fd_sc_hd__dlygate4sd3_1
*CAP
1 *3721:A 9.34531e-05
2 *3657:X 9.34531e-05
3 *3721:A *3854:A 0.000119636
4 *3721:A *3855:A 4.13122e-06
5 *3721:A *270:22 0.000137983
6 *3721:A *339:18 0.000137983
7 *259:16 *3721:A 0.000107994
*RES
1 *3657:X *3721:A 30.6 
*END

*D_NET *270 0.0359954
*CONN
*I *3720:A I *D sky130_fd_sc_hd__dlygate4sd3_1
*I *3804:X O *D sky130_fd_sc_hd__clkbuf_4
*CAP
1 *3720:A 0.000435524
2 *3804:X 0.00141895
3 *270:36 0.00342079
4 *270:34 0.00669872
5 *270:22 0.0051324
6 *270:22 *3855:A 0.000273545
7 *270:22 *339:18 0.000425188
8 *270:34 *3734:A 4.18299e-05
9 *270:34 *281:42 8.00843e-06
10 *270:34 *339:40 0.00173749
11 *270:34 *372:14 0
12 *270:36 *3749:A 0.000260071
13 *270:36 *3863:A 0.000217929
14 *270:36 *303:32 0.00101532
15 *270:36 *306:60 0.000336099
16 *270:36 *307:10 0
17 *270:36 *308:16 0.00227457
18 *270:36 *353:14 0
19 wbs_dat_o[21] *270:22 5.52302e-05
20 *410:DIODE *270:22 4.6025e-06
21 *503:DIODE *270:22 0.000140719
22 *3721:A *270:22 0.000137983
23 *3805:A *270:22 9.41642e-05
24 *3806:A *270:22 5.47047e-05
25 *3810:A *270:34 0.000146859
26 *54:9 *270:34 6.05161e-06
27 *115:43 *270:34 6.25878e-05
28 *115:55 *270:34 0.000853981
29 *117:33 *270:36 0.0018415
30 *128:49 *270:22 4.83969e-05
31 *141:19 *270:34 0
32 *144:17 *270:36 0.00598087
33 *145:67 *270:36 0.000419799
34 *159:32 *270:36 1.21398e-05
35 *184:42 *270:36 0
36 *223:10 *270:36 0.00108621
37 *236:22 *270:22 0.00047837
38 *236:38 *270:22 0.000438059
39 *259:44 *270:34 0.000436738
*RES
1 *3804:X *270:22 43.3714 
2 *270:22 *270:34 29.1974 
3 *270:34 *270:36 111.991 
4 *270:36 *3720:A 19.2643 
*END

*D_NET *271 0.000446139
*CONN
*I *3734:A I *D sky130_fd_sc_hd__dlygate4sd3_1
*I *3658:X O *D sky130_fd_sc_hd__dlygate4sd3_1
*CAP
1 *3734:A 0.000115134
2 *3658:X 0.000115134
3 *3734:A *281:42 0.00011934
4 *259:44 *3734:A 5.47001e-05
5 *270:34 *3734:A 4.18299e-05
*RES
1 *3658:X *3734:A 29.7786 
*END

*D_NET *272 0.00236557
*CONN
*I *3725:A I *D sky130_fd_sc_hd__dlygate4sd3_1
*I *3659:X O *D sky130_fd_sc_hd__dlygate4sd3_1
*CAP
1 *3725:A 0.000760489
2 *3659:X 0.000760489
3 *3725:A *321:26 0
4 *3725:A *338:18 0.000114847
5 *3725:A *340:22 0.000614411
6 wbs_dat_o[16] *3725:A 0.000110358
7 *3803:A *3725:A 4.97567e-06
8 *47:9 *3725:A 0
*RES
1 *3659:X *3725:A 39.1893 
*END

*D_NET *273 0.00135616
*CONN
*I *3732:A I *D sky130_fd_sc_hd__dlygate4sd3_1
*I *3660:X O *D sky130_fd_sc_hd__dlygate4sd3_1
*CAP
1 *3732:A 0.000231538
2 *3660:X 0.000231538
3 *3732:A *325:56 0.000250809
4 wbs_dat_o[22] *3732:A 5.40681e-05
5 *3728:A *3732:A 0.000171526
6 *117:57 *3732:A 0.000416683
*RES
1 *3660:X *3732:A 35.8679 
*END

*D_NET *274 0.00131884
*CONN
*I *3723:A I *D sky130_fd_sc_hd__dlygate4sd3_1
*I *3661:X O *D sky130_fd_sc_hd__dlygate4sd3_1
*CAP
1 *3723:A 0.000269579
2 *3661:X 0.000269579
3 *3723:A *334:34 0.000299559
4 *3723:A *362:22 0.000480121
*RES
1 *3661:X *3723:A 33.4393 
*END

*D_NET *275 0.000745821
*CONN
*I *3736:A I *D sky130_fd_sc_hd__dlygate4sd3_1
*I *3662:X O *D sky130_fd_sc_hd__dlygate4sd3_1
*CAP
1 *3736:A 0.000155201
2 *3662:X 0.000155201
3 *3736:A *292:20 2.14757e-05
4 *3736:A *348:16 0.000183291
5 *509:DIODE *3736:A 0.000116371
6 *259:44 *3736:A 0.000114281
*RES
1 *3662:X *3736:A 31.4214 
*END

*D_NET *276 0.00271731
*CONN
*I *3741:A I *D sky130_fd_sc_hd__dlygate4sd3_1
*I *3663:X O *D sky130_fd_sc_hd__dlygate4sd3_1
*CAP
1 *3741:A 0
2 *3663:X 0.000717879
3 *276:24 0.000717879
4 *276:24 *3857:A 9.41642e-05
5 *276:24 *325:56 8.53557e-05
6 *276:24 *348:16 2.84026e-05
7 wbs_dat_o[23] *276:24 0.000354511
8 wbs_dat_o[24] *276:24 0.000143625
9 wbs_dat_o[25] *276:24 0
10 *449:DIODE *276:24 0.000256965
11 *509:DIODE *276:24 2.83284e-06
12 *55:9 *276:24 4.62891e-05
13 *115:43 *276:24 0.000175892
14 *131:92 *276:24 3.37708e-05
15 *259:44 *276:24 5.97485e-05
*RES
1 *3663:X *276:24 41.8893 
2 *276:24 *3741:A 9.3 
*END

*D_NET *277 0.000456227
*CONN
*I *3704:A I *D sky130_fd_sc_hd__dlygate4sd3_1
*I *3664:X O *D sky130_fd_sc_hd__dlygate4sd3_1
*CAP
1 *3704:A 0.000128923
2 *3664:X 0.000128923
3 *3704:A *300:14 0.000141786
4 *3819:A *3704:A 5.65955e-05
*RES
1 *3664:X *3704:A 21.6 
*END

*D_NET *278 0.00363959
*CONN
*I *3743:A I *D sky130_fd_sc_hd__dlygate4sd3_1
*I *3665:X O *D sky130_fd_sc_hd__dlygate4sd3_1
*CAP
1 *3743:A 0
2 *3665:X 0.000841956
3 *278:22 0.000841956
4 *278:22 *3604:C 8.6229e-06
5 *278:22 *3607:A_N 7.83659e-05
6 *278:22 *300:14 0.000263524
7 *278:22 *312:32 1.69961e-05
8 *278:22 *336:28 0.00014455
9 *278:22 *368:56 0.000105299
10 *278:22 *368:58 0.000146135
11 *278:22 *369:24 0.00022105
12 *278:22 *370:38 0.000117189
13 *278:22 *370:44 0.000146474
14 *447:DIODE *278:22 0.000198827
15 *483:DIODE *278:22 0.0001827
16 *3822:A *278:22 5.52238e-05
17 *3832:A *278:22 0.000108535
18 *143:63 *278:22 3.37708e-05
19 *181:28 *278:22 0.000128419
*RES
1 *3665:X *278:22 44.05 
2 *278:22 *3743:A 9.3 
*END

*D_NET *279 0.00344375
*CONN
*I *3752:A I *D sky130_fd_sc_hd__dlygate4sd3_1
*I *3667:X O *D sky130_fd_sc_hd__dlygate4sd3_1
*CAP
1 *3752:A 0.000662443
2 *3667:X 0.000662443
3 *3752:A *3861:A 0.000373644
4 *3752:A *325:68 0.000333322
5 *3668:A *3752:A 9.11286e-05
6 *3:17 *3752:A 0.000174359
7 *113:27 *3752:A 0.000774105
8 *121:34 *3752:A 2.28499e-05
9 *227:18 *3752:A 0.000349458
*RES
1 *3667:X *3752:A 45.3679 
*END

*D_NET *280 0.000220999
*CONN
*I *3748:A I *D sky130_fd_sc_hd__dlygate4sd3_1
*I *3668:X O *D sky130_fd_sc_hd__dlygate4sd3_1
*CAP
1 *3748:A 3.43065e-05
2 *3668:X 3.43065e-05
3 *3748:A *305:8 7.61932e-05
4 *227:18 *3748:A 7.61932e-05
*RES
1 *3668:X *3748:A 19.9571 
*END

*D_NET *281 0.0345901
*CONN
*I *3716:A I *D sky130_fd_sc_hd__dlygate4sd3_1
*I *3805:X O *D sky130_fd_sc_hd__clkbuf_4
*CAP
1 *3716:A 0
2 *3805:X 0.00082206
3 *281:72 0.00175837
4 *281:70 0.00252407
5 *281:56 0.00202339
6 *281:42 0.00290883
7 *281:24 0.0024732
8 *281:24 *317:44 0.000478391
9 *281:24 *339:18 1.69961e-05
10 *281:42 *292:16 0.000357054
11 *281:42 *339:18 0.000884725
12 *281:56 *3859:A 0.000215523
13 *281:56 *292:20 0.000271352
14 *281:70 *3751:A 0.000233066
15 *281:70 *302:20 0.000999011
16 *281:70 *304:18 0.000950122
17 *281:70 *304:24 5.89159e-05
18 *281:72 *3722:A 0.00130055
19 *281:72 *3751:A 0.000106299
20 *281:72 *3781:vpwrpc 0.00110021
21 *281:72 *304:26 2.59795e-05
22 *281:72 *339:40 0.00026144
23 wbs_dat_o[24] *281:42 0.000191774
24 *432:DIODE *281:42 2.78576e-05
25 *446:DIODE *281:42 8.85326e-05
26 *449:DIODE *281:42 3.48936e-05
27 *508:DIODE *281:42 0.000314139
28 *3658:A *281:42 5.98316e-05
29 *3696:A *281:24 2.05938e-05
30 *3731:A *281:72 0.00107396
31 *3734:A *281:42 0.00011934
32 *3781:DI[14] *281:72 0.000716743
33 *3810:A *281:42 0
34 *3812:A *281:42 4.18299e-05
35 *53:9 *281:42 4.58505e-05
36 *54:9 *281:42 0.000360894
37 *117:17 *281:70 3.57366e-05
38 *117:17 *281:72 0.00142904
39 *117:25 *281:70 0.000900334
40 *119:13 *281:70 3.19513e-05
41 *130:73 *281:42 0
42 *131:27 *281:56 0.000437417
43 *131:92 *281:42 8.31402e-05
44 *133:27 *281:72 0.00200179
45 *140:15 *281:56 0.000181381
46 *142:31 *281:70 5.37731e-05
47 *177:30 *281:56 9.52464e-05
48 *188:26 *281:56 0.000139637
49 *193:18 *281:72 2.93959e-05
50 *219:36 *281:56 0.000167741
51 *221:8 *281:72 1.77757e-05
52 *226:10 *281:72 0.00165475
53 *236:38 *281:24 8.4737e-05
54 *247:8 *281:24 0.00050472
55 *258:44 *281:56 0.000102548
56 *258:52 *281:56 9.76435e-06
57 *258:52 *281:70 0.00128174
58 *258:56 *281:72 0.00091793
59 *259:44 *281:42 5.74499e-06
60 *259:54 *281:42 0
61 *259:54 *281:56 0.00155001
62 *270:34 *281:42 8.00843e-06
*RES
1 *3805:X *281:24 39.6214 
2 *281:24 *281:42 46.3036 
3 *281:42 *281:56 41.7857 
4 *281:56 *281:70 40 
5 *281:70 *281:72 77.2321 
6 *281:72 *3716:A 13.8 
*END

*D_NET *282 0.00071523
*CONN
*I *3770:A I *D sky130_fd_sc_hd__dlygate4sd3_1
*I *3669:X O *D sky130_fd_sc_hd__dlygate4sd3_1
*CAP
1 *3770:A 0.000215717
2 *3669:X 0.000215717
3 *3770:A *3688:A 0.000164747
4 *541:DIODE *3770:A 0.000119048
*RES
1 *3669:X *3770:A 32.2429 
*END

*D_NET *283 0.00148249
*CONN
*I *3655:A I *D sky130_fd_sc_hd__dlygate4sd3_1
*I *3670:X O *D sky130_fd_sc_hd__dlygate4sd3_1
*CAP
1 *3655:A 0.000264267
2 *3670:X 0.000264267
3 *3655:A *305:12 0.000428762
4 wbs_dat_o[28] *3655:A 1.3142e-05
5 *474:DIODE *3655:A 0
6 *115:31 *3655:A 0.000512054
*RES
1 *3670:X *3655:A 35.5464 
*END

*D_NET *284 0.00201414
*CONN
*I *3754:A I *D sky130_fd_sc_hd__dlygate4sd3_1
*I *3671:X O *D sky130_fd_sc_hd__dlygate4sd3_1
*CAP
1 *3754:A 0.00062009
2 *3671:X 0.00062009
3 *3754:A *292:22 4.57473e-05
4 *3754:A *317:44 0.00072821
5 *3:17 *3754:A 0
6 *134:46 *3754:A 0
7 *134:48 *3754:A 0
*RES
1 *3671:X *3754:A 36.35 
*END

*D_NET *285 0.00156755
*CONN
*I *3688:A I *D sky130_fd_sc_hd__dlygate4sd3_1
*I *3672:X O *D sky130_fd_sc_hd__dlygate4sd3_1
*CAP
1 *3688:A 0.000599735
2 *3672:X 0.000599735
3 *3688:A *327:18 0.000127676
4 *3770:A *3688:A 0.000164747
5 *3794:A *3688:A 1.43643e-05
6 *170:32 *3688:A 6.12902e-05
*RES
1 *3672:X *3688:A 35.7786 
*END

*D_NET *286 0.00115884
*CONN
*I *3692:A I *D sky130_fd_sc_hd__dlygate4sd3_1
*I *3673:X O *D sky130_fd_sc_hd__dlygate4sd3_1
*CAP
1 *3692:A 0.000420878
2 *3673:X 0.000420878
3 *3692:A *309:10 0
4 *3692:A *314:10 0
5 wbs_dat_o[29] *3692:A 0
6 *519:DIODE *3692:A 0
7 *60:11 *3692:A 0.000317082
8 *62:5 *3692:A 0
*RES
1 *3673:X *3692:A 35.5821 
*END

*D_NET *287 0.000542967
*CONN
*I *3699:A I *D sky130_fd_sc_hd__dlygate4sd3_1
*I *3674:X O *D sky130_fd_sc_hd__dlygate4sd3_1
*CAP
1 *3699:A 0.000100778
2 *3674:X 0.000100778
3 *3699:A *311:10 0.000119636
4 *3699:A *313:10 6.05161e-06
5 *3699:A *314:8 9.60875e-05
6 *3699:A *356:14 0.000119636
*RES
1 *3674:X *3699:A 30.1893 
*END

*D_NET *288 0.000673558
*CONN
*I *3703:A I *D sky130_fd_sc_hd__dlygate4sd3_1
*I *3675:X O *D sky130_fd_sc_hd__dlygate4sd3_1
*CAP
1 *3703:A 0.00022058
2 *3675:X 0.00022058
3 *3821:A *3703:A 0.000232399
*RES
1 *3675:X *3703:A 23.2429 
*END

*D_NET *289 0.000105515
*CONN
*I *3717:A I *D sky130_fd_sc_hd__dlygate4sd3_1
*I *3676:X O *D sky130_fd_sc_hd__dlygate4sd3_1
*CAP
1 *3717:A 9.02664e-06
2 *3676:X 9.02664e-06
3 *3717:A *339:16 5.65955e-05
4 *159:10 *3717:A 3.08664e-05
*RES
1 *3676:X *3717:A 19.1357 
*END

*D_NET *290 0.0024038
*CONN
*I *3730:A I *D sky130_fd_sc_hd__dlygate4sd3_1
*I *3678:X O *D sky130_fd_sc_hd__dlygate4sd3_1
*CAP
1 *3730:A 0.000360028
2 *3678:X 0.000360028
3 *3730:A *3873:A 0.000101375
4 *3730:A *323:22 0.000527639
5 *3730:A *339:16 0.00018372
6 wbs_dat_o[9] *3730:A 0.000271345
7 *7:21 *3730:A 0.000139214
8 *8:5 *3730:A 0.000362795
9 *159:10 *3730:A 9.7659e-05
*RES
1 *3678:X *3730:A 39.4036 
*END

*D_NET *291 0.000327482
*CONN
*I *3739:A I *D sky130_fd_sc_hd__dlygate4sd3_1
*I *3679:X O *D sky130_fd_sc_hd__dlygate4sd3_1
*CAP
1 *3739:A 9.92866e-05
2 *3679:X 9.92866e-05
3 *3739:A *3844:A 7.6612e-06
4 *117:79 *3739:A 0.000121248
*RES
1 *3679:X *3739:A 29.5464 
*END

*D_NET *292 0.0341967
*CONN
*I *3722:A I *D sky130_fd_sc_hd__dlygate4sd3_1
*I *3806:X O *D sky130_fd_sc_hd__clkbuf_4
*CAP
1 *3722:A 0.000682006
2 *3806:X 0.00111102
3 *292:22 0.00298682
4 *292:20 0.00365386
5 *292:16 0.00246007
6 *3722:A *3760:A 6.05161e-06
7 *3722:A *3764:A 1.90303e-05
8 *3722:A *3781:vpwrpc 0.000409708
9 *292:16 *3854:A 2.2351e-05
10 *292:20 *3861:A 7.32272e-05
11 *292:20 *348:16 0.00103221
12 *292:22 *3781:vpwrac 0.00133159
13 *292:22 *317:54 0.000145819
14 *292:22 *328:50 0.00607623
15 wbs_dat_o[20] *292:16 0.000273026
16 wbs_dat_o[24] *292:20 0.000181803
17 *430:DIODE *292:20 5.52302e-05
18 *444:DIODE *292:20 9.83442e-05
19 *462:DIODE *292:22 0.000114854
20 *506:DIODE *292:16 0.000130419
21 *3736:A *292:20 2.14757e-05
22 *3754:A *292:22 4.57473e-05
23 *3809:A *292:16 0.000231324
24 *3810:A *292:16 3.69667e-05
25 *3811:A *292:20 3.32631e-05
26 *3815:A *292:20 0.0001826
27 *3:17 *292:22 0.000628678
28 *52:9 *292:16 0.000485543
29 *115:55 *292:16 0.000235449
30 *133:27 *292:22 0.000131187
31 *170:88 *292:22 0.000194348
32 *219:50 *292:22 0.00662301
33 *221:8 *3722:A 0.00187618
34 *226:10 *3722:A 0.000315629
35 *234:8 *3722:A 1.30891e-05
36 *259:44 *292:16 0.000210752
37 *259:44 *292:20 0.000138818
38 *281:42 *292:16 0.000357054
39 *281:56 *292:20 0.000271352
40 *281:72 *3722:A 0.00130055
*RES
1 *3806:X *292:16 40.6214 
2 *292:16 *292:20 30.0893 
3 *292:20 *292:22 96.9643 
4 *292:22 *3722:A 49.2107 
*END

*D_NET *293 0.00144481
*CONN
*I *3745:A I *D sky130_fd_sc_hd__dlygate4sd3_1
*I *3680:X O *D sky130_fd_sc_hd__dlygate4sd3_1
*CAP
1 *3745:A 0.000433604
2 *3680:X 0.000433604
3 *3745:A *3871:A 0
4 *3745:A *323:22 0.000275793
5 wbs_dat_o[7] *3745:A 0.000188311
6 *36:9 *3745:A 0.000113496
7 *69:9 *3745:A 0
*RES
1 *3680:X *3745:A 36.1357 
*END

*D_NET *294 0.000379175
*CONN
*I *3747:A I *D sky130_fd_sc_hd__dlygate4sd3_1
*I *3681:X O *D sky130_fd_sc_hd__dlygate4sd3_1
*CAP
1 *3747:A 0.000134357
2 *3681:X 0.000134357
3 *3747:A *339:8 5.52302e-05
4 *525:DIODE *3747:A 5.52302e-05
5 *3826:A *3747:A 0
*RES
1 *3681:X *3747:A 29.7786 
*END

*D_NET *295 0.00363378
*CONN
*I *3750:A I *D sky130_fd_sc_hd__dlygate4sd3_1
*I *3682:X O *D sky130_fd_sc_hd__dlygate4sd3_1
*CAP
1 *3750:A 0.00107758
2 *3682:X 0.00107758
3 *3750:A *3758:A 5.56444e-05
4 *3750:A *325:24 0.000343528
5 *3750:A *329:24 2.36643e-05
6 *3750:A *331:24 6.58682e-05
7 *3750:A *339:8 0.000262679
8 wbs_dat_o[3] *3750:A 0.000104461
9 *3632:RESET_B *3750:A 9.76435e-06
10 *3665:A *3750:A 5.05056e-05
11 *3833:A *3750:A 0.000143957
12 *3837:A *3750:A 0.000177545
13 *3838:A *3750:A 1.24368e-05
14 *105:13 *3750:A 0.000228558
*RES
1 *3682:X *3750:A 44.9393 
*END

*D_NET *296 0.000293916
*CONN
*I *3756:A I *D sky130_fd_sc_hd__dlygate4sd3_1
*I *3683:X O *D sky130_fd_sc_hd__dlygate4sd3_1
*CAP
1 *3756:A 5.21536e-05
2 *3683:X 5.21536e-05
3 *3756:A *317:24 2.06178e-05
4 *3683:A *3756:A 0.00012465
5 *3825:A *3756:A 2.51989e-05
6 *3826:A *3756:A 1.91418e-05
*RES
1 *3683:X *3756:A 29.2429 
*END

*D_NET *297 0.0019814
*CONN
*I *3758:A I *D sky130_fd_sc_hd__dlygate4sd3_1
*I *3684:X O *D sky130_fd_sc_hd__dlygate4sd3_1
*CAP
1 *3758:A 0.000553037
2 *3684:X 0.000553037
3 *3758:A *3864:A 0
4 *3758:A *325:24 0.000265031
5 *3758:A *330:16 0
6 *3758:A *331:24 0.000162364
7 *3758:A *364:18 5.20298e-05
8 *3665:A *3758:A 7.71459e-05
9 *3750:A *3758:A 5.56444e-05
10 *3833:A *3758:A 0.000263108
*RES
1 *3684:X *3758:A 38.2607 
*END

*D_NET *298 0.00128694
*CONN
*I *3763:A I *D sky130_fd_sc_hd__dlygate4sd3_1
*I *3685:X O *D sky130_fd_sc_hd__dlygate4sd3_1
*CAP
1 *3763:A 0.000396726
2 *3685:X 0.000396726
3 *3763:A *343:22 5.3251e-05
4 *3632:RESET_B *3763:A 0.000440239
5 *61:11 *3763:A 0
*RES
1 *3685:X *3763:A 33.475 
*END

*D_NET *299 0.00208523
*CONN
*I *3761:A I *D sky130_fd_sc_hd__dlygate4sd3_1
*I *3686:X O *D sky130_fd_sc_hd__dlygate4sd3_1
*CAP
1 *3761:A 0.000531278
2 *3686:X 0.000531278
3 *3761:A *3842:A 0
4 *3761:A *327:18 0.000180839
5 *3761:A *329:24 0.00022245
6 *3830:A *3761:A 9.04364e-05
7 *3836:A *3761:A 0.000347598
8 *103:11 *3761:A 0
9 *170:32 *3761:A 0.000181348
*RES
1 *3686:X *3761:A 39.6357 
*END

*D_NET *300 0.0153972
*CONN
*I *3644:A I *D sky130_fd_sc_hd__dlygate4sd3_1
*I *3807:X O *D sky130_fd_sc_hd__buf_4
*CAP
1 *3644:A 2.22847e-05
2 *3807:X 0.00143262
3 *300:24 0.00287971
4 *300:22 0.00326577
5 *300:14 0.00184096
6 *300:14 *312:32 0.000603134
7 *300:22 *3603:A_N 0.000105354
8 *300:22 *3604:B 7.29712e-05
9 *300:22 *334:34 1.90936e-05
10 *300:22 *336:28 4.60232e-06
11 *300:24 *3597:A 0.000522432
12 *300:24 *316:26 0.00176135
13 *3604:D *300:22 0.00025494
14 *3629:D *300:24 0.00108123
15 *3704:A *300:14 0.000141786
16 *3771:A *300:14 0.000170964
17 *3819:A *300:14 0.000434757
18 *61:11 *300:14 4.69993e-05
19 *114:21 *300:22 0.000104974
20 *143:59 *300:22 7.11805e-05
21 *143:63 *300:22 0.000118234
22 *170:42 *300:22 0.000178321
23 *278:22 *300:14 0.000263524
*RES
1 *3807:X *300:14 49.3 
2 *300:14 *300:22 14.0893 
3 *300:22 *300:24 58.0357 
4 *300:24 *3644:A 9.72857 
*END

*D_NET *301 0.0348601
*CONN
*I *3729:A I *D sky130_fd_sc_hd__dlygate4sd3_1
*I *3808:X O *D sky130_fd_sc_hd__clkbuf_4
*CAP
1 *3729:A 0.000135495
2 *3808:X 0.000374639
3 *301:32 0.00170938
4 *301:30 0.00206157
5 *301:18 0.00240448
6 *301:8 0.00229143
7 *301:8 *347:16 0.00147539
8 *301:8 *361:34 0.00126221
9 *301:18 *3781:vpwrpc 0.000132088
10 *301:18 *302:20 0.00185392
11 *301:18 *348:16 0.000118824
12 *301:30 *302:24 0.00154418
13 *301:30 *317:66 0.00157105
14 *301:30 *339:40 0.000285129
15 *301:32 *302:26 0.00649631
16 *301:32 *303:38 0.00649546
17 *301:32 *339:40 0.000754179
18 *461:DIODE *301:18 5.35158e-05
19 *117:25 *301:18 0.000224174
20 *120:28 *301:18 9.20464e-06
21 *120:48 *301:8 0.000618899
22 *121:34 *301:8 0.000272355
23 *121:52 *301:8 0.000238208
24 *130:43 *301:18 0
25 *131:56 *301:18 2.80507e-05
26 *131:60 *301:18 0.00045887
27 *131:62 *301:18 6.70412e-05
28 *131:68 *301:18 5.33072e-05
29 *142:31 *301:18 0.000331369
30 *143:49 *301:18 8.79304e-05
31 *143:53 *301:18 0.00129653
32 *159:26 *301:18 0
33 *162:20 *301:18 0.000107332
34 *184:36 *301:18 1.97253e-05
35 *258:30 *301:8 1.69961e-05
36 *259:58 *301:30 1.08359e-05
*RES
1 *3808:X *301:8 34.05 
2 *301:8 *301:18 47.2321 
3 *301:18 *301:30 34.625 
4 *301:30 *301:32 82.0893 
5 *301:32 *3729:A 15.5679 
*END

*D_NET *302 0.0336724
*CONN
*I *3733:A I *D sky130_fd_sc_hd__dlygate4sd3_1
*I *3809:X O *D sky130_fd_sc_hd__clkbuf_4
*CAP
1 *3733:A 0.000159917
2 *3809:X 0.00147462
3 *302:26 0.00200117
4 *302:24 0.00229554
5 *302:20 0.00197845
6 *302:8 0.00299879
7 *302:8 *306:28 0.00109494
8 *302:8 *361:46 0.000412336
9 *302:20 *303:10 0.00112307
10 *302:20 *306:38 8.31773e-05
11 *302:24 *303:38 1.02433e-05
12 *302:26 *3781:vpwrpc 0.000402469
13 *302:26 *303:38 0.00020934
14 *3746:A *302:24 0.000333765
15 *3746:A *302:26 6.95699e-05
16 *117:25 *302:20 2.44318e-05
17 *131:68 *302:8 0.000216755
18 *131:79 *302:8 9.66977e-05
19 *142:31 *302:20 0.000604733
20 *193:20 *302:26 0.00284133
21 *258:44 *302:20 0.000534196
22 *258:52 *302:20 4.40603e-05
23 *259:54 *302:20 4.45265e-05
24 *259:58 *302:24 0.00159056
25 *259:58 *302:26 0.00213425
26 *281:70 *302:20 0.000999011
27 *301:18 *302:20 0.00185392
28 *301:30 *302:24 0.00154418
29 *301:32 *302:26 0.00649631
*RES
1 *3809:X *302:8 34.4607 
2 *302:8 *302:20 48.5179 
3 *302:20 *302:24 20.6964 
4 *302:24 *302:26 86.9464 
5 *302:26 *3733:A 15.9786 
*END

*D_NET *303 0.0375177
*CONN
*I *3735:A I *D sky130_fd_sc_hd__dlygate4sd3_1
*I *3810:X O *D sky130_fd_sc_hd__clkbuf_4
*CAP
1 *3735:A 0.000102759
2 *3810:X 0.000944543
3 *303:38 0.00210892
4 *303:36 0.00240192
5 *303:32 0.00235055
6 *303:10 0.00289934
7 *303:10 *306:28 9.26904e-05
8 *303:10 *306:38 0.00105979
9 *303:10 *317:44 0.00160089
10 *303:10 *361:46 0.00142693
11 *303:32 *3781:vpwrpc 0.000404578
12 *303:32 *3781:vpwrac 0.000703054
13 *303:32 *306:60 0.000237824
14 *303:32 *308:16 0.00101532
15 *303:32 *361:46 0.000262222
16 *303:38 *3781:vpwrpc 0.000333018
17 *303:38 *304:26 0.00779336
18 *303:38 *317:66 0.000502181
19 *303:38 *339:40 0.000923685
20 *116:15 *303:32 0.000211746
21 *124:11 *303:32 0.000146533
22 *130:43 *303:32 0.000220516
23 *131:79 *303:10 0
24 *139:19 *303:32 0
25 *142:29 *303:32 2.09897e-05
26 *145:63 *303:32 0.000680182
27 *146:16 *303:32 2.49655e-05
28 *193:20 *303:38 0.000121259
29 *199:22 *303:32 7.45123e-05
30 *259:54 *303:10 0
31 *270:36 *303:32 0.00101532
32 *301:32 *303:38 0.00649546
33 *302:20 *303:10 0.00112307
34 *302:24 *303:38 1.02433e-05
35 *302:26 *303:38 0.00020934
*RES
1 *3810:X *303:10 45.6393 
2 *303:10 *303:32 47.4464 
3 *303:32 *303:36 8.32143 
4 *303:36 *303:38 98.7857 
5 *303:38 *3735:A 15.1571 
*END

*D_NET *304 0.0335158
*CONN
*I *3738:A I *D sky130_fd_sc_hd__dlygate4sd3_1
*I *3811:X O *D sky130_fd_sc_hd__clkbuf_4
*CAP
1 *3738:A 5.36479e-05
2 *3811:X 0.00111677
3 *304:26 0.00225849
4 *304:24 0.00225074
5 *304:18 0.0013958
6 *304:10 0.00246668
7 *304:18 *306:38 1.76725e-05
8 *304:18 *317:66 7.10041e-05
9 *304:18 *339:40 0.000208351
10 *304:26 *3751:A 0.000264208
11 *304:26 *339:40 0.000751757
12 *431:DIODE *304:10 0
13 *3731:A *304:26 0.000523226
14 *3781:DI[4] *3738:A 4.87854e-05
15 *117:25 *304:18 3.01408e-05
16 *119:13 *304:18 5.21453e-05
17 *119:19 *304:18 1.65169e-05
18 *130:43 *304:18 0.00146078
19 *130:55 *304:10 2.4461e-05
20 *130:59 *304:10 0
21 *130:69 *304:10 0
22 *130:71 *304:10 0
23 *131:27 *304:18 0.00142666
24 *134:26 *304:18 0.00018459
25 *134:28 *304:18 9.25014e-06
26 *151:20 *304:10 0
27 *159:26 *304:10 0.00140603
28 *162:20 *304:18 0.000109996
29 *177:30 *304:18 0.000206423
30 *193:18 *304:26 0.00014734
31 *193:20 *304:26 0
32 *199:12 *304:18 0.000559985
33 *219:36 *304:10 3.10441e-05
34 *221:8 *304:26 0.00356975
35 *258:52 *304:18 0.000929181
36 *258:56 *304:26 0.00309595
37 *281:70 *304:18 0.000950122
38 *281:70 *304:24 5.89159e-05
39 *281:72 *304:26 2.59795e-05
40 *303:38 *304:26 0.00779336
*RES
1 *3811:X *304:10 37.8536 
2 *304:10 *304:18 45.6071 
3 *304:18 *304:24 10.0357 
4 *304:24 *304:26 103.643 
5 *304:26 *3738:A 14.7464 
*END

*D_NET *305 0.0334351
*CONN
*I *3742:A I *D sky130_fd_sc_hd__dlygate4sd3_1
*I *3812:X O *D sky130_fd_sc_hd__clkbuf_4
*CAP
1 *3742:A 0.000162626
2 *3812:X 0.00154433
3 *305:14 0.00253372
4 *305:12 0.00355482
5 *305:8 0.00272805
6 *305:12 *317:66 0.000265289
7 *305:14 *306:62 0.00397215
8 wbs_dat_o[24] *305:8 0.000620829
9 wbs_dat_o[25] *305:8 9.02232e-05
10 *474:DIODE *305:12 0
11 *3655:A *305:12 0.000428762
12 *3668:A *305:8 9.3171e-05
13 *3746:A *305:12 0.000103807
14 *3746:A *305:14 0.00102773
15 *3748:A *305:8 7.61932e-05
16 *115:31 *305:12 0.00050657
17 *115:31 *305:14 0.00150403
18 *134:11 *305:14 0.000146372
19 *134:32 *305:12 4.58101e-05
20 *134:34 *305:12 9.26302e-05
21 *134:36 *305:12 2.49067e-05
22 *134:38 *305:12 6.25211e-05
23 *134:40 *305:12 5.2584e-05
24 *134:46 *305:12 5.76856e-05
25 *134:48 *305:12 0
26 *139:9 *3742:A 0.000349328
27 *193:20 *305:14 0.000126785
28 *215:8 *305:14 0.00376921
29 *227:18 *305:8 0.000148486
30 *248:10 *305:14 0.00264225
31 *259:54 *305:12 6.7848e-05
32 *259:54 *305:14 1.09026e-05
33 *259:56 *305:12 3.10978e-05
34 *259:58 *305:14 0.00659435
*RES
1 *3812:X *305:8 33.6393 
2 *305:8 *305:12 27.0268 
3 *305:12 *305:14 120.491 
4 *305:14 *3742:A 17.2107 
*END

*D_NET *306 0.0420025
*CONN
*I *3718:A I *D sky130_fd_sc_hd__dlygate4sd3_1
*I *3813:X O *D sky130_fd_sc_hd__buf_4
*CAP
1 *3718:A 0
2 *3813:X 0.000155324
3 *306:62 0.000965888
4 *306:60 0.00204772
5 *306:38 0.00301037
6 *306:28 0.00311085
7 *306:12 0.00201738
8 *306:8 0.000990385
9 *306:8 *317:44 9.71197e-05
10 *306:12 *317:44 0.000256405
11 *306:12 *322:26 0.00257681
12 *306:12 *350:14 0.000282685
13 *306:28 *317:44 9.77264e-06
14 *306:28 *350:14 0.000103646
15 *306:28 *361:46 0.00040279
16 *306:38 *3620:C 2.87782e-05
17 *306:38 *308:16 9.1192e-05
18 *306:60 *3749:A 0.0013736
19 *306:60 *308:16 0.000338183
20 wbs_dat_o[22] *306:28 0.000110185
21 *3620:D *306:38 0.000152999
22 *3746:A *306:62 0.000815878
23 *3797:A *306:8 0.000139907
24 *3809:A *306:28 0.000444476
25 *111:14 *306:8 0.000139907
26 *115:31 *306:38 9.32491e-05
27 *119:19 *306:38 0.00163224
28 *121:34 *306:28 0
29 *130:43 *306:38 0.000104065
30 *130:69 *306:28 6.30473e-05
31 *134:11 *306:62 0.00397063
32 *139:19 *306:60 0
33 *148:30 *306:12 0.00419321
34 *148:30 *306:28 0.00085699
35 *159:30 *306:38 0.00023973
36 *177:30 *306:38 0.000798974
37 *203:6 *306:8 9.16074e-05
38 *258:20 *306:8 0.000125196
39 *258:20 *306:12 0.00110692
40 *258:20 *306:28 0.00104521
41 *258:30 *306:28 0.000946008
42 *258:44 *306:38 0.000178847
43 *270:36 *306:60 0.000336099
44 *302:8 *306:28 0.00109494
45 *302:20 *306:38 8.31773e-05
46 *303:10 *306:28 9.26904e-05
47 *303:10 *306:38 0.00105979
48 *303:32 *306:60 0.000237824
49 *304:18 *306:38 1.76725e-05
50 *305:14 *306:62 0.00397215
*RES
1 *3813:X *306:8 14.3714 
2 *306:8 *306:12 44.9107 
3 *306:12 *306:28 45.7321 
4 *306:28 *306:38 47.9732 
5 *306:38 *306:60 31.2754 
6 *306:60 *306:62 50.2143 
7 *306:62 *3718:A 13.8 
*END

*D_NET *307 0.0295836
*CONN
*I *3753:A I *D sky130_fd_sc_hd__dlygate4sd3_1
*I *3814:X O *D sky130_fd_sc_hd__clkbuf_4
*CAP
1 *3753:A 0.000576592
2 *3814:X 3.79844e-05
3 *307:10 0.00448388
4 *307:8 0.00394527
5 *307:8 *3863:A 5.60962e-05
6 *307:10 *3624:C 5.54655e-05
7 *307:10 *3625:C 7.54868e-05
8 *307:10 *309:10 3.8743e-05
9 *307:10 *310:8 0.0116718
10 *307:10 *353:14 0.000345762
11 *3817:A *307:10 0.000150096
12 *139:11 *307:10 0.000522958
13 *145:67 *307:10 0
14 *173:18 *307:10 0.00683088
15 *184:42 *307:10 0.00079267
16 *270:36 *307:10 0
*RES
1 *3814:X *307:8 14.3357 
2 *307:8 *307:10 152.214 
3 *307:10 *3753:A 22.1393 
*END

*D_NET *308 0.03076
*CONN
*I *3755:A I *D sky130_fd_sc_hd__dlygate4sd3_1
*I *3815:X O *D sky130_fd_sc_hd__clkbuf_4
*CAP
1 *3755:A 0.000331407
2 *3815:X 0.00099356
3 *308:16 0.00330919
4 *308:14 0.00397134
5 *308:14 *3860:A 0
6 *308:14 *325:68 0
7 *308:16 *3749:A 0.000511681
8 *110:16 *308:14 0.000224348
9 *115:31 *308:16 0.000172717
10 *117:33 *308:16 0.000517846
11 *134:11 *308:16 0.0106907
12 *153:20 *308:14 0.00106524
13 *166:14 *308:14 0.000145062
14 *171:18 *308:14 8.6229e-06
15 *182:32 *308:14 7.66174e-05
16 *219:48 *308:14 0.000136435
17 *223:10 *308:16 0.00473658
18 *244:44 *308:14 0.000149398
19 *270:36 *308:16 0.00227457
20 *303:32 *308:16 0.00101532
21 *306:38 *308:16 9.1192e-05
22 *306:60 *308:16 0.000338183
*RES
1 *3815:X *308:14 44.55 
2 *308:14 *308:16 140.982 
3 *308:16 *3755:A 18.4429 
*END

*D_NET *309 0.0300503
*CONN
*I *3759:A I *D sky130_fd_sc_hd__dlygate4sd3_1
*I *3816:X O *D sky130_fd_sc_hd__buf_4
*CAP
1 *3759:A 0.000658252
2 *3816:X 0.00016181
3 *309:10 0.00583503
4 *309:8 0.00533859
5 *309:8 *3863:A 6.8529e-05
6 *309:10 *3625:C 0.000125724
7 *309:10 *310:8 0.000303723
8 *309:10 *353:14 0
9 wbs_dat_o[29] *309:10 9.25014e-06
10 *476:DIODE *309:10 0.000185958
11 *3692:A *309:10 0
12 *121:22 *309:10 0
13 *131:11 *309:10 0
14 *136:13 *309:10 0.0116514
15 *153:22 *309:10 0.0052686
16 *186:26 *309:10 0.000133666
17 *227:18 *309:8 0.000271026
18 *307:10 *309:10 3.8743e-05
*RES
1 *3816:X *309:8 17.6214 
2 *309:8 *309:10 162.839 
3 *309:10 *3759:A 23.3714 
*END

*D_NET *310 0.0332934
*CONN
*I *3666:A I *D sky130_fd_sc_hd__dlygate4sd3_1
*I *3817:X O *D sky130_fd_sc_hd__buf_4
*CAP
1 *3666:A 0.000592781
2 *3817:X 0
3 *310:8 0.00455803
4 *310:6 0.00396525
5 *476:DIODE *310:8 0.000183717
6 *136:13 *310:8 0.0120182
7 *145:67 *310:8 0
8 *307:10 *310:8 0.0116718
9 *309:10 *310:8 0.000303723
*RES
1 *3817:X *310:6 13.8 
2 *310:6 *310:8 164.964 
3 *310:8 *3666:A 22.55 
*END

*D_NET *311 0.0332823
*CONN
*I *3694:A I *D sky130_fd_sc_hd__dlygate4sd3_1
*I *3818:X O *D sky130_fd_sc_hd__buf_4
*CAP
1 *3694:A 0.000894866
2 *3818:X 0.000270891
3 *311:10 0.00446206
4 *311:8 0.00383808
5 *311:10 *313:12 0.0134679
6 *311:10 *314:10 0.00434285
7 *311:10 *356:14 3.06696e-05
8 *519:DIODE *311:10 0
9 *3699:A *311:10 0.000119636
10 *3818:A *311:8 0.000398018
11 *114:13 *311:10 0.00545739
*RES
1 *3818:X *311:8 18.8536 
2 *311:8 *311:10 171.946 
3 *311:10 *3694:A 27.0679 
*END

*D_NET *312 0.018983
*CONN
*I *3715:A I *D sky130_fd_sc_hd__dlygate4sd3_1
*I *488:DIODE I *D sky130_fd_sc_hd__diode_2
*I *3819:X O *D sky130_fd_sc_hd__buf_4
*CAP
1 *3715:A 2.09908e-05
2 *488:DIODE 0
3 *3819:X 0.00131671
4 *312:54 0.000478908
5 *312:40 0.00141831
6 *312:32 0.0022771
7 *3715:A *327:73 0.000142011
8 *3715:A *329:80 0.000129574
9 *312:32 *3600:A_N 2.388e-05
10 *312:32 *3600:C 0.000105377
11 *312:32 *3607:A_N 9.41642e-05
12 *312:32 *3607:B 1.21258e-05
13 *312:32 *3607:C 0.00022266
14 *312:32 *3626:B 4.6025e-06
15 *312:32 *3628:A_N 6.09762e-05
16 *312:32 *3628:C 1.44395e-05
17 *312:32 *3864:A 8.6229e-06
18 *312:32 *3869:A 0.000994314
19 *312:32 *315:26 0.000125521
20 *312:32 *316:24 6.71797e-05
21 *312:32 *329:46 4.06087e-07
22 *312:32 *334:34 0.000247311
23 *312:32 *335:26 4.33174e-05
24 *312:32 *343:22 0.00011775
25 *312:32 *365:8 7.85063e-05
26 *312:32 *366:145 3.63587e-05
27 *312:32 *367:49 0.000289219
28 *312:32 *369:31 8.43535e-06
29 *312:40 *3713:A 0.000190917
30 *312:40 *318:8 0.00252136
31 *312:40 *367:49 0.000225338
32 *312:40 *367:59 0.000197888
33 *312:40 *367:74 0
34 *312:40 *369:31 0.00121491
35 *312:40 *369:44 1.10868e-05
36 *312:40 *371:63 0.00107957
37 *312:54 *3709:A 7.92934e-05
38 *312:54 *3713:A 2.77173e-05
39 *312:54 *327:73 0.000140088
40 *312:54 *329:80 0.000140088
41 *312:54 *367:74 9.83442e-05
42 *312:54 *371:63 0.000229207
43 *483:DIODE *312:32 0.000510402
44 *3603:D *312:32 0.000195241
45 *3610:D *312:54 2.12087e-05
46 *3626:D *312:32 0.000102312
47 *3626:D *312:40 1.98839e-05
48 *3823:A *312:32 0.000295545
49 *3825:A *312:40 5.52302e-05
50 *61:11 *312:32 5.33334e-05
51 *113:43 *312:40 0.000110633
52 *135:29 *312:32 2.64085e-05
53 *141:19 *312:32 5.20531e-05
54 *145:6 *312:40 0.000142856
55 *145:24 *312:40 0.00166721
56 *192:16 *312:40 0.000615969
57 *192:28 *312:54 0
58 *278:22 *312:32 1.69961e-05
59 *300:14 *312:32 0.000603134
*RES
1 *3819:X *312:32 46.6141 
2 *312:32 *312:40 48.3393 
3 *312:40 *312:54 17.875 
4 *312:54 *488:DIODE 9.3 
5 *312:54 *3715:A 10.6571 
*END

*D_NET *313 0.0291603
*CONN
*I *3700:A I *D sky130_fd_sc_hd__dlygate4sd3_1
*I *3820:X O *D sky130_fd_sc_hd__buf_4
*CAP
1 *3700:A 0.000821118
2 *3820:X 0.000204439
3 *313:12 0.00710799
4 *313:10 0.00649131
5 *313:10 *314:8 8.91646e-05
6 *313:12 *314:10 0.000144764
7 *313:12 *356:14 0.000771777
8 *3699:A *313:10 6.05161e-06
9 *3820:A *313:10 5.57989e-05
10 *311:10 *313:12 0.0134679
*RES
1 *3820:X *313:10 17.6393 
2 *313:10 *313:12 174.375 
3 *313:12 *3700:A 26.2464 
*END

*D_NET *314 0.0332557
*CONN
*I *3705:A I *D sky130_fd_sc_hd__dlygate4sd3_1
*I *3821:X O *D sky130_fd_sc_hd__buf_4
*CAP
1 *3705:A 0.000347588
2 *3821:X 0.000739003
3 *314:10 0.00435486
4 *314:8 0.00474628
5 *477:DIODE *314:10 5.11018e-05
6 *3692:A *314:10 0
7 *3699:A *314:8 9.60875e-05
8 *3820:A *314:8 0.000100684
9 *114:13 *314:10 0.00545739
10 *137:13 *314:10 0.0117026
11 *137:17 *314:10 0.000979697
12 *141:11 *314:10 0.000103698
13 *311:10 *314:10 0.00434285
14 *313:10 *314:8 8.91646e-05
15 *313:12 *314:10 0.000144764
*RES
1 *3821:X *314:8 25.0143 
2 *314:8 *314:10 180.143 
3 *314:10 *3705:A 18.8536 
*END

*D_NET *315 0.0215826
*CONN
*I *489:DIODE I *D sky130_fd_sc_hd__diode_2
*I *3744:A I *D sky130_fd_sc_hd__dlygate4sd3_1
*I *3822:X O *D sky130_fd_sc_hd__clkbuf_4
*CAP
1 *489:DIODE 2.89327e-05
2 *3744:A 1.645e-05
3 *3822:X 0.00114118
4 *315:50 0.000928818
5 *315:34 0.00411784
6 *315:32 0.00334072
7 *315:26 0.00124749
8 *489:DIODE *327:73 0.000230482
9 *3744:A *327:73 9.90367e-05
10 *315:26 *3600:B 4.60232e-06
11 *315:26 *3600:C 4.28081e-05
12 *315:26 *3638:A 4.04292e-05
13 *315:26 *316:24 0.000746624
14 *315:26 *317:24 3.88378e-06
15 *315:26 *327:63 0.00116045
16 *315:26 *329:46 0.000237316
17 *315:26 *334:34 0.000309469
18 *315:26 *335:26 9.11825e-07
19 *315:26 *370:127 1.44633e-05
20 *315:32 *3626:B 9.25014e-06
21 *315:32 *371:31 3.08878e-05
22 *315:34 *328:18 0.00498316
23 *315:50 *3713:A 0
24 *315:50 *329:80 0.000855814
25 *3665:A *315:26 1.2103e-05
26 *124:25 *315:32 4.40142e-05
27 *151:12 *489:DIODE 0.000218045
28 *151:12 *3744:A 9.90367e-05
29 *151:12 *315:50 7.90536e-05
30 *170:54 *315:26 0.00115792
31 *181:28 *315:26 0.000177545
32 *192:28 *315:50 7.83659e-05
33 *312:32 *315:26 0.000125521
*RES
1 *3822:X *315:26 47.5512 
2 *315:26 *315:32 10.9464 
3 *315:32 *315:34 47.3571 
4 *315:34 *315:50 30.6964 
5 *315:50 *3744:A 10.2464 
6 *315:50 *489:DIODE 11.4786 
*END

*D_NET *316 0.0142642
*CONN
*I *3724:A I *D sky130_fd_sc_hd__dlygate4sd3_1
*I *490:DIODE I *D sky130_fd_sc_hd__diode_2
*I *3823:X O *D sky130_fd_sc_hd__clkbuf_4
*CAP
1 *3724:A 6.30634e-05
2 *490:DIODE 0
3 *3823:X 0.00080943
4 *316:26 0.0038294
5 *316:24 0.00457577
6 *3724:A *3709:A 5.92869e-05
7 *316:24 *329:46 0.000350522
8 *316:24 *363:24 0.000117903
9 *316:26 *3597:A 0.000274932
10 *316:26 *3709:A 0.000418287
11 *3631:D *316:24 5.02932e-05
12 *3636:A *316:26 4.96254e-05
13 *3665:A *316:24 4.11173e-05
14 *3823:A *316:24 5.49489e-05
15 *114:21 *316:26 0.000196171
16 *140:23 *316:24 0
17 *141:19 *316:24 0.000117279
18 *142:37 *316:24 0
19 *146:14 *316:26 0.000127359
20 *157:14 *316:26 0.00040253
21 *192:28 *316:26 0.000151138
22 *300:24 *316:26 0.00176135
23 *312:32 *316:24 6.71797e-05
24 *315:26 *316:24 0.000746624
*RES
1 *3823:X *316:24 37.4619 
2 *316:24 *316:26 69.9464 
3 *316:26 *490:DIODE 9.3 
4 *316:26 *3724:A 10.675 
*END

*D_NET *317 0.0611136
*CONN
*I *392:DIODE I *D sky130_fd_sc_hd__diode_2
*I *3762:A I *D sky130_fd_sc_hd__dlygate4sd3_1
*I *391:DIODE I *D sky130_fd_sc_hd__diode_2
*I *3824:X O *D sky130_fd_sc_hd__buf_4
*CAP
1 *392:DIODE 5.47766e-05
2 *3762:A 0
3 *391:DIODE 0.00014055
4 *3824:X 0.00323723
5 *317:83 0.000352748
6 *317:68 0.00152383
7 *317:66 0.00241402
8 *317:54 0.00211645
9 *317:44 0.00400953
10 *317:42 0.0063283
11 *317:24 0.00634374
12 *317:24 *334:34 0
13 *317:24 *335:26 0.000599398
14 *317:24 *336:28 0.000571835
15 *317:24 *343:22 0.000111604
16 *317:24 *350:14 0.000133955
17 *317:24 *368:66 4.61011e-05
18 *317:42 *3769:A 2.01525e-05
19 *317:42 *3873:A 0.000299212
20 *317:42 *324:36 1.78465e-05
21 *317:42 *350:14 0.00122072
22 *317:44 *350:14 0.000283758
23 *317:44 *361:46 0.000226156
24 *317:66 *339:40 0.000308525
25 *317:68 *3757:A 0.000248155
26 *317:68 *361:56 0.00365308
27 wbs_dat_o[22] *317:44 0.000705686
28 wbs_dat_o[26] *317:44 0.000183477
29 *403:DIODE *317:24 4.81936e-05
30 *428:DIODE *317:44 5.52302e-05
31 *462:DIODE *317:54 4.22135e-05
32 *466:DIODE *317:54 5.49489e-05
33 *516:DIODE *317:44 5.71472e-05
34 *3754:A *317:44 0.00072821
35 *3756:A *317:24 2.06178e-05
36 *3768:A *317:24 3.57163e-05
37 *3772:A *317:24 0.00040765
38 *3781:DI[14] *317:66 5.67156e-05
39 *3781:DI[8] *392:DIODE 4.58194e-05
40 *3781:DI[8] *317:83 0.000188798
41 *3809:A *317:44 8.71079e-05
42 *3824:A *317:24 0
43 *3825:A *317:24 1.90936e-05
44 *3831:A *317:24 0.00011302
45 *57:9 *317:44 4.18895e-05
46 *103:11 *317:24 0
47 *110:12 *317:68 0.0041189
48 *110:12 *317:83 0.000242594
49 *111:14 *317:42 0.00247441
50 *133:25 *317:68 0.000291819
51 *133:25 *317:83 0.000240965
52 *133:27 *317:54 0.000429584
53 *134:26 *317:66 0.00019384
54 *134:28 *317:66 0.000193833
55 *134:30 *317:66 0.0001875
56 *134:32 *317:54 0
57 *134:32 *317:66 3.17148e-05
58 *134:34 *317:54 0
59 *134:38 *317:54 0
60 *134:40 *317:54 0
61 *134:46 *317:54 0
62 *148:30 *317:44 0.00468946
63 *173:16 *317:54 0.000269661
64 *177:44 *317:66 7.48927e-06
65 *181:28 *317:24 0.000569598
66 *192:16 *317:42 0.00011307
67 *203:6 *317:44 0.00372897
68 *244:44 *317:66 5.92431e-05
69 *244:46 *317:68 2.07414e-05
70 *258:52 *317:66 0.000966521
71 *258:56 *317:66 8.41284e-06
72 *259:54 *317:66 0.000112777
73 *259:58 *317:66 7.47029e-06
74 *281:24 *317:44 0.000478391
75 *292:22 *317:54 0.000145819
76 *301:30 *317:66 0.00157105
77 *303:10 *317:44 0.00160089
78 *303:38 *317:66 0.000502181
79 *304:18 *317:66 7.10041e-05
80 *305:12 *317:66 0.000265289
81 *306:8 *317:44 9.71197e-05
82 *306:12 *317:44 0.000256405
83 *306:28 *317:44 9.77264e-06
84 *315:26 *317:24 3.88378e-06
*RES
1 *3824:X *317:24 49.4821 
2 *317:24 *317:42 48.2191 
3 *317:42 *317:44 91.3036 
4 *317:44 *317:54 29.2679 
5 *317:54 *317:66 46.7321 
6 *317:66 *317:68 53.25 
7 *317:68 *391:DIODE 15.1571 
8 *317:68 *317:83 11.4821 
9 *317:83 *3762:A 9.3 
10 *317:83 *392:DIODE 10.2464 
*END

*D_NET *318 0.0152353
*CONN
*I *3713:A I *D sky130_fd_sc_hd__dlygate4sd3_1
*I *3825:X O *D sky130_fd_sc_hd__clkbuf_4
*CAP
1 *3713:A 0.00174143
2 *3825:X 0
3 *318:8 0.00279371
4 *318:4 0.00105228
5 *3713:A *3709:A 0.000447578
6 *3713:A *320:22 0
7 *3713:A *337:44 0
8 *3713:A *338:18 0.000533518
9 *3713:A *340:22 0.000107176
10 *3713:A *367:74 1.88967e-05
11 *3713:A *367:95 0.000137317
12 *3713:A *371:79 9.22103e-06
13 *318:8 *367:49 0.000175761
14 *318:8 *367:59 0.000197888
15 *3610:D *3713:A 0.000278334
16 *113:43 *318:8 0.0030008
17 *145:6 *318:8 0.000131439
18 *145:24 *318:8 0.00162472
19 *170:74 *3713:A 0
20 *192:28 *3713:A 0.000245227
21 *312:40 *3713:A 0.000190917
22 *312:40 *318:8 0.00252136
23 *312:54 *3713:A 2.77173e-05
24 *315:50 *3713:A 0
*RES
1 *3825:X *318:4 9.3 
2 *318:4 *318:8 41.2143 
3 *318:8 *3713:A 46.2821 
*END

*D_NET *319 0.0150308
*CONN
*I *3709:A I *D sky130_fd_sc_hd__dlygate4sd3_1
*I *3826:X O *D sky130_fd_sc_hd__clkbuf_4
*CAP
1 *3709:A 0.00108939
2 *3826:X 0.00138352
3 *319:16 0.00247291
4 *319:16 *322:16 5.17614e-05
5 *319:16 *361:14 0.0022682
6 *319:16 *363:24 0.000289077
7 *319:16 *367:49 0.000802857
8 *319:16 *367:59 0.00135003
9 *3634:A *3709:A 0.000145194
10 *3713:A *3709:A 0.000447578
11 *3724:A *3709:A 5.92869e-05
12 *3827:A *319:16 0.000182592
13 *120:56 *3709:A 0
14 *135:29 *319:16 0.00273009
15 *141:19 *319:16 0.000326528
16 *157:14 *3709:A 0.000285487
17 *164:22 *3709:A 1.61405e-05
18 *192:28 *3709:A 0.000632539
19 *312:54 *3709:A 7.92934e-05
20 *316:26 *3709:A 0.000418287
*RES
1 *3826:X *319:16 47.6606 
2 *319:16 *3709:A 39.2732 
*END

*D_NET *320 0.0141826
*CONN
*I *3707:A I *D sky130_fd_sc_hd__dlygate4sd3_1
*I *3827:X O *D sky130_fd_sc_hd__clkbuf_4
*CAP
1 *3707:A 5.54423e-05
2 *3827:X 0.000523601
3 *320:22 0.00128391
4 *320:12 0.00175207
5 *3707:A *327:73 0.000356864
6 *320:12 *361:14 0.00195408
7 *320:12 *361:22 2.05612e-05
8 *320:12 *365:8 0.00161873
9 *320:22 *340:22 4.87885e-05
10 *320:22 *361:22 0.00111947
11 *320:22 *369:72 0
12 *395:DIODE *320:22 0
13 *3713:A *320:22 0
14 *113:31 *320:22 0.00316218
15 *120:56 *320:22 0.00144166
16 *122:27 *320:22 0
17 *135:29 *320:12 0.000188464
18 *135:29 *320:22 0.000298256
19 *151:12 *3707:A 0.000358505
*RES
1 *3827:X *320:12 29.7107 
2 *320:12 *320:22 45.7679 
3 *320:22 *3707:A 17.2107 
*END

*D_NET *321 0.0161286
*CONN
*I *3698:A I *D sky130_fd_sc_hd__dlygate4sd3_1
*I *3828:X O *D sky130_fd_sc_hd__clkbuf_4
*CAP
1 *3698:A 0
2 *3828:X 0.00235589
3 *321:26 0.00277724
4 *321:16 0.00513313
5 *321:16 *3843:A 2.77289e-05
6 *321:16 *3844:A 0.000727065
7 *321:16 *336:36 0.000109097
8 *321:26 *322:26 0
9 *321:26 *328:36 3.22339e-05
10 *321:26 *336:36 0.000101545
11 *396:DIODE *321:26 4.62832e-05
12 *493:DIODE *321:16 4.38128e-05
13 *3725:A *321:26 0
14 *41:13 *321:16 0.00121923
15 *43:11 *321:16 0.000213265
16 *117:79 *321:16 0.00113665
17 *122:27 *321:26 0
18 *123:27 *321:26 0.000132631
19 *184:20 *321:26 2.89114e-05
20 *192:28 *321:26 0.000183726
21 *225:14 *321:26 0.00186017
*RES
1 *3828:X *321:16 45.1393 
2 *321:16 *321:26 49.9821 
3 *321:26 *3698:A 9.3 
*END

*D_NET *322 0.0152213
*CONN
*I *386:DIODE I *D sky130_fd_sc_hd__diode_2
*I *3687:A I *D sky130_fd_sc_hd__dlygate4sd3_1
*I *3829:X O *D sky130_fd_sc_hd__clkbuf_4
*CAP
1 *386:DIODE 5.59249e-05
2 *3687:A 0
3 *3829:X 0.000969035
4 *322:26 0.00143542
5 *322:16 0.00234853
6 *322:16 *324:36 0
7 *322:16 *361:14 3.45337e-05
8 *322:16 *361:22 0.00200982
9 *322:26 *341:18 9.8045e-05
10 *322:26 *350:14 0.000282685
11 *322:26 *369:97 1.94945e-05
12 *322:26 *371:102 3.37708e-05
13 *396:DIODE *322:26 1.37292e-05
14 *119:29 *322:26 9.54536e-05
15 *123:27 *322:26 9.22587e-05
16 *148:24 *322:16 0.00111832
17 *184:20 *386:DIODE 0.000197019
18 *184:20 *322:26 0.000225558
19 *192:28 *386:DIODE 0.000347396
20 *192:28 *322:26 0.000434524
21 *241:18 *322:26 4.99283e-06
22 *258:18 *322:16 0.000203224
23 *258:20 *322:26 0.00257297
24 *306:12 *322:26 0.00257681
25 *319:16 *322:16 5.17614e-05
26 *321:26 *322:26 0
*RES
1 *3829:X *322:16 41.9786 
2 *322:16 *322:26 49.25 
3 *322:26 *3687:A 9.3 
4 *322:26 *386:DIODE 12.7107 
*END

*D_NET *323 0.0186459
*CONN
*I *3769:A I *D sky130_fd_sc_hd__buf_12
*I *3830:X O *D sky130_fd_sc_hd__buf_12
*CAP
1 *3769:A 0.00104056
2 *3830:X 8.0388e-05
3 *323:22 0.00199717
4 *323:14 0.00218777
5 *323:10 0.00131154
6 *3769:A *324:36 0
7 *3769:A *336:36 0.000728578
8 *323:14 *325:24 6.83621e-05
9 *323:14 *343:22 2.84026e-05
10 *323:22 *324:26 0.00221974
11 *323:22 *325:24 0.000148157
12 wbs_dat_o[11] *3769:A 0.000178425
13 wbs_dat_o[11] *323:22 4.29573e-05
14 wbs_dat_o[5] *323:22 2.28598e-05
15 wbs_dat_o[7] *323:22 9.47613e-05
16 wbs_dat_o[8] *323:22 0.000113083
17 wbs_dat_o[9] *323:22 0.000208023
18 *498:DIODE *323:14 5.45307e-05
19 *524:DIODE *323:22 3.04394e-05
20 *526:DIODE *323:14 6.57032e-05
21 *528:DIODE *323:14 0.000104523
22 *3598:A *323:10 0.00015234
23 *3679:A *323:22 0.000835606
24 *3684:A *323:14 6.62783e-05
25 *3701:A *3769:A 6.66746e-05
26 *3708:A *323:14 9.80173e-05
27 *3710:A *3769:A 3.9506e-05
28 *3730:A *323:22 0.000527639
29 *3745:A *323:22 0.000275793
30 *3775:A *323:10 0
31 *3775:A *323:14 0.000147225
32 *3833:A *323:14 0.00103556
33 *7:21 *323:22 6.76823e-05
34 *36:9 *323:22 9.18273e-05
35 *41:13 *3769:A 0.000317997
36 *67:17 *323:14 0.000295644
37 *67:17 *323:22 0.000249439
38 *105:13 *323:14 0.000244093
39 *111:12 *3769:A 0
40 *115:57 *323:14 7.86048e-05
41 *115:57 *323:22 0.000185349
42 *117:59 *323:22 0.00124213
43 *117:87 *323:14 0.0018743
44 *164:22 *3769:A 8.09146e-06
45 *317:42 *3769:A 2.01525e-05
*RES
1 *3830:X *323:10 20.2464 
2 *323:10 *323:14 33.6161 
3 *323:14 *323:22 48.0268 
4 *323:22 *3769:A 37.3714 
*END

*D_NET *324 0.0208768
*CONN
*I *3766:A I *D sky130_fd_sc_hd__buf_12
*I *3831:X O *D sky130_fd_sc_hd__buf_12
*CAP
1 *3766:A 0
2 *3831:X 0.00206799
3 *324:36 0.00255064
4 *324:26 0.00313544
5 *324:18 0.00265279
6 *324:18 *3842:A 4.72487e-05
7 *324:18 *3864:A 0.000236355
8 *324:18 *3868:A 0.000135028
9 *324:18 *3870:A 0.000605987
10 *324:18 *336:32 0.000523507
11 *324:26 *3844:A 0
12 *324:26 *332:28 9.86094e-06
13 *324:36 *337:44 0.000288718
14 *324:36 *339:16 0.0021447
15 *324:36 *339:18 4.32969e-05
16 wbs_dat_o[4] *324:18 3.63775e-05
17 wbs_dat_o[6] *324:18 0
18 *523:DIODE *324:26 0
19 *529:DIODE *324:18 0.000218907
20 *3769:A *324:36 0
21 *3793:A *324:26 3.07021e-05
22 *3798:A *324:36 2.976e-05
23 *3826:A *324:18 8.6229e-06
24 *31:9 *324:18 0.000139323
25 *34:5 *324:18 6.24791e-05
26 *115:57 *324:26 0.00221617
27 *115:71 *324:18 5.1005e-05
28 *117:79 *324:18 9.35794e-06
29 *119:41 *324:36 2.1806e-05
30 *120:56 *324:36 0
31 *164:22 *324:36 0.000692001
32 *170:32 *324:18 0.000170467
33 *192:28 *324:36 0.000157818
34 *244:20 *324:36 0.000352875
35 *317:42 *324:36 1.78465e-05
36 *322:16 *324:36 0
37 *323:22 *324:26 0.00221974
*RES
1 *3831:X *324:18 48.6571 
2 *324:18 *324:26 33.8393 
3 *324:26 *324:36 49.2679 
4 *324:36 *3766:A 9.3 
*END

*D_NET *325 0.0564714
*CONN
*I *3773:A I *D sky130_fd_sc_hd__buf_12
*I *3832:X O *D sky130_fd_sc_hd__buf_12
*CAP
1 *3773:A 4.26984e-05
2 *3832:X 0.00181175
3 *325:70 0.00214132
4 *325:68 0.00379789
5 *325:56 0.0039474
6 *325:48 0.00538232
7 *325:40 0.00408358
8 *325:32 0.00350886
9 *325:24 0.00437122
10 *325:32 *334:54 0.00116592
11 *325:32 *364:34 0.00108419
12 *325:56 *3857:A 0.000346484
13 *325:56 *326:14 0.000118391
14 *325:68 *3860:A 0
15 *325:68 *3861:A 7.25458e-05
16 *325:68 *327:77 2.00659e-05
17 *325:68 *329:90 0.000149959
18 *325:70 *3776:A 0.00137419
19 wbs_dat_o[12] *325:32 7.83659e-05
20 wbs_dat_o[12] *325:40 0.000443654
21 wbs_dat_o[13] *325:40 0.000741672
22 wbs_dat_o[14] *325:40 3.92757e-05
23 wbs_dat_o[19] *325:56 0.000140088
24 wbs_dat_o[20] *325:48 1.9774e-05
25 wbs_dat_o[23] *325:68 0.00100411
26 wbs_dat_o[26] *325:68 0
27 wbs_dat_o[5] *325:24 0.000487473
28 *434:DIODE *325:56 2.27416e-05
29 *498:DIODE *325:24 5.45307e-05
30 *501:DIODE *325:56 0.000154501
31 *526:DIODE *325:24 7.20884e-05
32 *528:DIODE *325:24 0.000296829
33 *3645:A *325:40 8.87097e-05
34 *3668:A *325:68 0.000227599
35 *3684:A *325:24 0.000240898
36 *3690:A *325:40 9.25014e-06
37 *3728:A *325:56 0.000579959
38 *3732:A *325:56 0.000250809
39 *3750:A *325:24 0.000343528
40 *3752:A *325:68 0.000333322
41 *3758:A *325:24 0.000265031
42 *3815:A *325:68 0.00011888
43 *3833:A *325:24 9.41315e-05
44 *3:17 *325:68 7.51885e-05
45 *3:17 *325:70 0.0075504
46 *7:21 *325:32 0.00061109
47 *35:9 *325:24 7.6644e-05
48 *51:9 *325:48 3.6337e-05
49 *51:9 *325:56 0.000142718
50 *56:9 *325:56 9.91086e-05
51 *58:5 *325:68 0.000101233
52 *67:17 *325:24 0.000130469
53 *110:12 *325:70 0.00728802
54 *115:43 *325:56 3.30237e-05
55 *117:57 *325:56 8.63704e-05
56 *227:18 *325:68 9.38345e-05
57 *244:44 *325:68 0.000249981
58 *244:44 *325:70 6.91171e-05
59 *276:24 *325:56 8.53557e-05
60 *308:14 *325:68 0
61 *323:14 *325:24 6.83621e-05
62 *323:22 *325:24 0.000148157
*RES
1 *3832:X *325:24 46.175 
2 *325:24 *325:32 45.4821 
3 *325:32 *325:40 22.8929 
4 *325:40 *325:48 45.0714 
5 *325:48 *325:56 40.0357 
6 *325:56 *325:68 38.9732 
7 *325:68 *325:70 96.5089 
8 *325:70 *3773:A 14.3357 
*END

*D_NET *326 0.0661433
*CONN
*I *3776:A I *D sky130_fd_sc_hd__buf_12
*I *3833:X O *D sky130_fd_sc_hd__buf_12
*CAP
1 *3776:A 0.00852027
2 *3833:X 0.0155931
3 *326:14 0.0241133
4 *3776:A *3751:A 0.000177386
5 *3776:A *3781:vpwrpc 4.88584e-05
6 *3776:A *3781:vpwrac 0.0102114
7 *3776:A *339:40 0
8 *326:14 *334:34 2.26973e-05
9 wbs_dat_o[4] *326:14 2.11419e-05
10 *3679:A *326:14 0.000160191
11 *3:17 *3776:A 0.00165903
12 *110:12 *3776:A 0.00137419
13 *115:57 *326:14 0.00024142
14 *117:59 *326:14 0.000388803
15 *159:26 *326:14 0.00141634
16 *190:16 *3776:A 0.000233688
17 *195:16 *3776:A 0.000238726
18 *195:24 *3776:A 0.000115096
19 *234:10 *3776:A 0.000115096
20 *325:56 *326:14 0.000118391
21 *325:70 *3776:A 0.00137419
*RES
1 *3833:X *326:14 45.6987 
2 *326:14 *3776:A 48.5204 
*END

*D_NET *327 0.0484563
*CONN
*I *3625:C I *D sky130_fd_sc_hd__and4b_1
*I *3624:C I *D sky130_fd_sc_hd__and4b_1
*I *3622:C I *D sky130_fd_sc_hd__and4b_1
*I *3623:C I *D sky130_fd_sc_hd__and4b_1
*I *3640:A I *D sky130_fd_sc_hd__clkbuf_4
*I *3834:X O *D sky130_fd_sc_hd__buf_2
*CAP
1 *3625:C 0.000476333
2 *3624:C 5.06322e-05
3 *3622:C 2.70116e-05
4 *3623:C 0.000416164
5 *3640:A 0
6 *3834:X 0.000414034
7 *327:105 0.00134645
8 *327:83 0.000485905
9 *327:77 0.000917365
10 *327:73 0.00204749
11 *327:71 0.00257867
12 *327:63 0.00201372
13 *327:38 0.00363529
14 *327:18 0.00262194
15 *3622:C *329:103 9.41642e-05
16 *3623:C *329:103 5.7661e-06
17 *3624:C *3625:A_N 5.47001e-05
18 *3624:C *353:14 3.27461e-05
19 *3625:C *3625:A_N 0.000161815
20 *3625:C *356:14 0.000482172
21 *327:38 *329:24 0
22 *327:38 *368:10 4.32159e-05
23 *327:38 *368:14 9.21418e-06
24 *327:63 *3637:A 0.000163367
25 *327:63 *3638:A 0.000224583
26 *327:63 *3641:A 0.000271352
27 *327:63 *337:26 0.0018149
28 *327:63 *367:31 2.13997e-05
29 *327:63 *371:31 0.000276163
30 *327:71 *329:80 0.000248801
31 *327:71 *337:26 0.00123571
32 *327:73 *329:80 0.00102828
33 *327:77 *329:90 9.30093e-05
34 *327:83 *329:90 5.7616e-05
35 *327:83 *329:103 5.33005e-05
36 *327:105 *3625:A_N 9.37606e-06
37 *327:105 *329:103 0.000233543
38 *327:105 *353:14 0.000866382
39 wbs_dat_o[0] *327:38 0.000137179
40 *436:DIODE *327:38 9.91033e-05
41 *447:DIODE *327:38 0.000471022
42 *489:DIODE *327:73 0.000230482
43 *517:DIODE *327:38 1.48556e-05
44 *3604:D *327:63 1.90936e-05
45 *3607:D *327:38 0
46 *3625:B *3625:C 4.08025e-05
47 *3632:RESET_B *327:38 6.10463e-05
48 *3685:A *327:38 8.83452e-05
49 *3688:A *327:18 0.000127676
50 *3707:A *327:73 0.000356864
51 *3715:A *327:73 0.000142011
52 *3744:A *327:73 9.90367e-05
53 *3761:A *327:18 0.000180839
54 *3775:A *327:38 3.73182e-05
55 *3832:A *327:38 0.000162151
56 *3:17 *327:77 0.000148903
57 *3:17 *327:83 5.41794e-05
58 *39:9 *327:18 9.60293e-05
59 *39:9 *327:38 7.34896e-05
60 *107:7 *327:18 2.34858e-05
61 *111:8 *327:73 9.90431e-05
62 *114:21 *327:63 0
63 *115:73 *327:38 0.000252368
64 *116:23 *327:38 4.98686e-05
65 *116:23 *327:63 6.2589e-06
66 *116:27 *327:38 6.98101e-05
67 *121:22 *3625:C 0
68 *144:25 *327:38 0.00030237
69 *144:31 *327:38 0.00036224
70 *151:12 *327:73 0.000765614
71 *151:24 *327:73 0.00152554
72 *170:32 *327:18 0.000373608
73 *170:52 *327:63 0.000318909
74 *170:54 *327:63 0.000828017
75 *170:54 *327:71 0.00228758
76 *170:74 *327:71 0.000555939
77 *170:74 *327:73 0.00107891
78 *170:82 *327:73 0.00512727
79 *170:92 *3622:C 2.78512e-05
80 *170:92 *3623:C 0.000469148
81 *170:99 *3623:C 4.30071e-05
82 *182:12 *327:73 0.00306293
83 *182:32 *327:73 0.000195121
84 *214:32 *327:73 0.000293755
85 *219:8 *327:73 0.000610192
86 *219:36 *327:73 0.000816915
87 *219:48 *327:73 0.000180279
88 *307:10 *3624:C 5.54655e-05
89 *307:10 *3625:C 7.54868e-05
90 *309:10 *3625:C 0.000125724
91 *312:54 *327:73 0.000140088
92 *315:26 *327:63 0.00116045
93 *325:68 *327:77 2.00659e-05
*RES
1 *3834:X *327:18 35.4429 
2 *327:18 *327:38 43.0714 
3 *327:38 *3640:A 9.3 
4 *327:38 *327:63 49.117 
5 *327:63 *327:71 28.0089 
6 *327:71 *327:73 93.7679 
7 *327:73 *327:77 6.44643 
8 *327:77 *327:83 5.76786 
9 *327:83 *3623:C 15.3893 
10 *327:83 *3622:C 10.2464 
11 *327:77 *327:105 20.2143 
12 *327:105 *3624:C 15.0679 
13 *327:105 *3625:C 32.3 
*END

*D_NET *328 0.0575894
*CONN
*I *3764:A I *D sky130_fd_sc_hd__dlygate4sd3_1
*I *487:DIODE I *D sky130_fd_sc_hd__diode_2
*I *3835:X O *D sky130_fd_sc_hd__buf_4
*CAP
1 *3764:A 0.000362357
2 *487:DIODE 0
3 *3835:X 0.00128478
4 *328:52 0.000362357
5 *328:50 0.00157718
6 *328:48 0.00216487
7 *328:44 0.00275676
8 *328:36 0.00445376
9 *328:18 0.00342347
10 *328:16 0.00242355
11 *328:16 *3609:B 8.25843e-06
12 *328:16 *3609:C 5.4804e-05
13 *328:16 *332:20 0.000587961
14 *328:16 *337:20 0.0011076
15 *328:16 *366:6 4.54279e-05
16 *328:16 *368:10 5.33005e-05
17 *328:16 *368:41 0.000332821
18 *328:16 *369:24 2.92541e-05
19 *328:16 *370:127 0.00055655
20 *328:16 *370:142 0.000167421
21 *328:18 *3626:B 0.000207274
22 *328:18 *3627:B 6.46289e-06
23 *328:18 *3630:A_N 8.54131e-05
24 *328:18 *337:44 0.000992583
25 *328:18 *368:166 0.000216755
26 *328:18 *370:142 0.000137561
27 *328:36 *329:80 0.00160804
28 *328:36 *337:44 0.00112488
29 *328:44 *329:84 0.00251527
30 *328:50 *3781:vpwrac 0.00118081
31 *431:DIODE *328:44 1.02532e-05
32 *481:DIODE *328:16 9.0145e-05
33 *3630:D *328:18 1.3144e-05
34 *3689:A *328:18 0.00132084
35 *3722:A *3764:A 1.90303e-05
36 *3835:A *328:16 5.47001e-05
37 *3:17 *328:50 0.00606823
38 *119:19 *328:44 0
39 *119:55 *328:18 0.00046184
40 *123:27 *328:36 6.39829e-05
41 *126:27 *328:36 1.90936e-05
42 *130:59 *328:44 6.19035e-05
43 *130:61 *328:44 4.36621e-05
44 *131:27 *328:48 0.000330284
45 *140:23 *328:16 4.72917e-05
46 *145:63 *328:48 0.0025029
47 *153:16 *328:44 6.88818e-05
48 *157:14 *328:36 2.81993e-05
49 *177:14 *328:36 2.06178e-05
50 *182:32 *328:44 0.000122494
51 *199:12 *328:48 0.00183913
52 *219:50 *3764:A 0.000237336
53 *226:10 *3764:A 0.000235682
54 *234:8 *3764:A 3.06878e-06
55 *241:18 *328:36 0.00299816
56 *244:20 *328:36 9.37606e-06
57 *292:22 *328:50 0.00607623
58 *315:34 *328:18 0.00498316
59 *321:26 *328:36 3.22339e-05
*RES
1 *3835:X *328:16 38.675 
2 *328:16 *328:18 51.4643 
3 *328:18 *328:36 43.464 
4 *328:36 *328:44 40.9643 
5 *328:44 *328:48 28.8571 
6 *328:48 *328:50 77.2321 
7 *328:50 *328:52 4.5 
8 *328:52 *487:DIODE 9.3 
9 *328:52 *3764:A 24.5857 
*END

*D_NET *329 0.0496219
*CONN
*I *3638:A I *D sky130_fd_sc_hd__buf_4
*I *3625:A_N I *D sky130_fd_sc_hd__and4b_1
*I *3624:A_N I *D sky130_fd_sc_hd__and4b_1
*I *3623:A_N I *D sky130_fd_sc_hd__and4b_1
*I *3622:A_N I *D sky130_fd_sc_hd__and4b_1
*I *3836:X O *D sky130_fd_sc_hd__buf_2
*CAP
1 *3638:A 7.27969e-05
2 *3625:A_N 0.000231867
3 *3624:A_N 0
4 *3623:A_N 0
5 *3622:A_N 0
6 *3836:X 0.00124821
7 *329:114 0.000402387
8 *329:103 0.000350728
9 *329:90 0.00024476
10 *329:84 0.0014234
11 *329:82 0.00135885
12 *329:80 0.00293145
13 *329:60 0.00539993
14 *329:46 0.00337229
15 *329:24 0.00207922
16 *3625:A_N *353:14 5.06672e-05
17 *3625:A_N *356:14 1.30665e-05
18 *3638:A *337:20 8.70933e-06
19 *329:24 *339:8 9.77264e-06
20 *329:46 *3864:A 5.58533e-05
21 *329:46 *3867:A 0
22 *329:46 *332:20 6.09762e-05
23 *329:46 *334:34 6.47106e-05
24 *329:46 *335:26 0.000164299
25 *329:46 *337:20 2.99846e-05
26 *329:46 *363:24 0.000297706
27 *329:46 *369:24 0.000135028
28 *329:46 *370:127 2.22594e-05
29 *329:60 *332:20 0.000948271
30 *329:60 *332:28 0.0025755
31 *329:60 *337:20 0.000915274
32 *329:60 *367:31 9.11048e-06
33 *329:60 *371:31 0.000119056
34 *329:103 *353:14 0.000141734
35 *329:114 *353:14 0.000601285
36 *390:DIODE *329:46 6.25005e-05
37 *397:DIODE *329:46 1.03101e-05
38 *531:DIODE *329:24 0.000138571
39 *3603:D *329:24 8.66063e-05
40 *3622:C *329:103 9.41642e-05
41 *3622:D *329:103 1.14548e-05
42 *3623:C *329:103 5.7661e-06
43 *3623:D *329:114 0.000150427
44 *3624:C *3625:A_N 5.47001e-05
45 *3624:D *3625:A_N 1.29998e-05
46 *3625:B *3625:A_N 0.000499735
47 *3625:C *3625:A_N 0.000161815
48 *3631:D *329:46 0.000135789
49 *3632:RESET_B *329:24 0.00042912
50 *3665:A *329:46 0.000205015
51 *3685:A *329:24 0.00073665
52 *3715:A *329:80 0.000129574
53 *3750:A *329:24 2.36643e-05
54 *3761:A *329:24 0.00022245
55 *3823:A *329:46 1.76569e-05
56 *3837:A *329:24 0.000272217
57 *3837:A *329:46 6.46802e-05
58 *61:11 *329:24 0.000161463
59 *111:8 *329:80 9.90431e-05
60 *119:55 *329:60 5.25955e-05
61 *142:37 *329:46 0
62 *144:31 *329:24 0.000481575
63 *151:12 *329:80 5.71472e-05
64 *157:14 *329:80 8.0208e-05
65 *170:32 *329:24 0.000643086
66 *170:54 *3638:A 0.000224583
67 *170:54 *329:60 0.000192639
68 *170:54 *329:80 0.000981378
69 *170:74 *329:80 0.00286571
70 *170:82 *329:84 0.00504554
71 *170:92 *329:103 0.000109806
72 *170:92 *329:114 3.76716e-05
73 *170:99 *3625:A_N 0.000126886
74 *170:99 *329:114 0.000269716
75 *181:28 *329:46 0.000161098
76 *182:32 *329:84 0.000132088
77 *219:36 *329:84 0.00118826
78 *312:32 *329:46 4.06087e-07
79 *312:54 *329:80 0.000140088
80 *315:26 *3638:A 4.04292e-05
81 *315:26 *329:46 0.000237316
82 *315:50 *329:80 0.000855814
83 *316:24 *329:46 0.000350522
84 *325:68 *329:90 0.000149959
85 *327:38 *329:24 0
86 *327:63 *3638:A 0.000224583
87 *327:71 *329:80 0.000248801
88 *327:73 *329:80 0.00102828
89 *327:77 *329:90 9.30093e-05
90 *327:83 *329:90 5.7616e-05
91 *327:83 *329:103 5.33005e-05
92 *327:105 *3625:A_N 9.37606e-06
93 *327:105 *329:103 0.000233543
94 *328:36 *329:80 0.00160804
95 *328:44 *329:84 0.00251527
*RES
1 *3836:X *329:24 49.8179 
2 *329:24 *329:46 30.2924 
3 *329:46 *329:60 41.9537 
4 *329:60 *329:80 48.5363 
5 *329:80 *329:82 4.5 
6 *329:82 *329:84 48.5893 
7 *329:84 *329:90 10.9464 
8 *329:90 *3622:A_N 9.3 
9 *329:90 *329:103 5.21429 
10 *329:103 *3623:A_N 9.3 
11 *329:103 *329:114 6.83929 
12 *329:114 *3624:A_N 9.3 
13 *329:114 *3625:A_N 16.5679 
14 *329:46 *3638:A 16.5589 
*END

*D_NET *330 0.00779814
*CONN
*I *3841:A I *D sky130_fd_sc_hd__buf_12
*I *3632:Q O *D sky130_fd_sc_hd__dfrtp_1
*CAP
1 *3841:A 0
2 *3632:Q 0.000534688
3 *330:28 0.0015633
4 *330:16 0.00209799
5 *330:16 *3864:A 0.000334932
6 *330:16 *333:20 2.08721e-05
7 *330:16 *335:26 7.07131e-05
8 *507:DIODE *330:16 5.33005e-05
9 *3632:RESET_B *330:16 0.000144452
10 *3682:A *330:28 0.000137505
11 *3686:A *330:28 1.65558e-05
12 *3758:A *330:16 0
13 *3777:A *330:28 0.00113479
14 *28:17 *330:28 2.56601e-05
15 *32:7 *330:16 0.000146474
16 *106:9 *330:28 0.00142371
17 *147:26 *330:28 9.31893e-05
*RES
1 *3632:Q *330:16 29.0321 
2 *330:16 *330:28 45.3036 
3 *330:28 *3841:A 9.3 
*END

*D_NET *331 0.00889537
*CONN
*I *3842:A I *D sky130_fd_sc_hd__buf_12
*I *3626:X O *D sky130_fd_sc_hd__and4b_1
*CAP
1 *3842:A 0.00100426
2 *3626:X 0.00136465
3 *331:24 0.00236891
4 *3842:A *3864:A 0.000101001
5 *331:24 *3628:B 5.35686e-05
6 *331:24 *3868:A 0.000187081
7 *331:24 *3869:A 0
8 *331:24 *339:8 0.00101464
9 *331:24 *362:22 7.22944e-05
10 *331:24 *363:24 2.06178e-05
11 wbs_dat_o[2] *3842:A 0.000136958
12 wbs_dat_o[3] *3842:A 0.000139491
13 *403:DIODE *331:24 0
14 *529:DIODE *3842:A 3.83485e-05
15 *3598:A *3842:A 9.91692e-05
16 *3632:CLK *331:24 2.71149e-05
17 *3665:A *331:24 8.6229e-06
18 *3750:A *331:24 6.58682e-05
19 *3758:A *331:24 0.000162364
20 *3761:A *3842:A 0
21 *3838:A *331:24 0
22 *31:9 *3842:A 5.41609e-05
23 *115:71 *3842:A 0.000819443
24 *124:25 *331:24 1.789e-05
25 *124:29 *331:24 9.85141e-05
26 *124:44 *331:24 0.000116971
27 *145:24 *331:24 0
28 *170:32 *3842:A 0.000876188
29 *324:18 *3842:A 4.72487e-05
*RES
1 *3626:X *331:24 48.8536 
2 *331:24 *3842:A 40.9964 
*END

*D_NET *332 0.0144395
*CONN
*I *3843:A I *D sky130_fd_sc_hd__buf_12
*I *3604:X O *D sky130_fd_sc_hd__and4b_1
*CAP
1 *3843:A 0.000229303
2 *3604:X 0.000834409
3 *332:28 0.00156211
4 *332:20 0.00216722
5 *3843:A *3844:A 0.000117809
6 *3843:A *336:36 0.000853321
7 *332:20 *337:20 4.99671e-05
8 *332:20 *367:31 7.69776e-06
9 *332:20 *368:155 4.00349e-05
10 *332:28 *3597:A 0
11 *332:28 *3599:B 5.7248e-05
12 *332:28 *3844:A 0
13 *332:28 *3873:A 0
14 *332:28 *367:31 9.66977e-05
15 *332:28 *371:54 2.53281e-05
16 wbs_dat_o[10] *3843:A 5.33005e-05
17 *3648:A *3843:A 0.000135028
18 *3793:A *332:28 0.000117457
19 *117:79 *3843:A 0.000187004
20 *119:55 *332:20 0.000992123
21 *145:61 *332:28 0
22 *170:54 *332:28 0.00270315
23 *321:16 *3843:A 2.77289e-05
24 *324:26 *332:28 9.86094e-06
25 *328:16 *332:20 0.000587961
26 *329:46 *332:20 6.09762e-05
27 *329:60 *332:20 0.000948271
28 *329:60 *332:28 0.0025755
*RES
1 *3604:X *332:20 34.0918 
2 *332:20 *332:28 48.6786 
3 *332:28 *3843:A 17.6393 
*END

*D_NET *333 0.0137979
*CONN
*I *3844:A I *D sky130_fd_sc_hd__buf_12
*I *3605:X O *D sky130_fd_sc_hd__and4b_1
*CAP
1 *3844:A 0.000796414
2 *3605:X 0.00231684
3 *333:20 0.00311325
4 *3844:A *3873:A 0.000147085
5 *3844:A *336:36 0.000455289
6 *3844:A *350:14 0.000152412
7 *333:20 *3603:B 0.000137983
8 *333:20 *335:26 0.000432237
9 *333:20 *350:14 0.000101601
10 *333:20 *364:18 0.000194002
11 wbs_dat_o[10] *3844:A 0.000265453
12 wbs_dat_o[11] *3844:A 9.83442e-05
13 *507:DIODE *333:20 1.98839e-05
14 *3632:RESET_B *333:20 0.00013029
15 *3648:A *3844:A 0.000152641
16 *3677:A *3844:A 0.000117457
17 *3739:A *3844:A 7.6612e-06
18 *3822:A *333:20 2.14757e-05
19 *3829:A *3844:A 0.000122439
20 *3837:A *333:20 5.33005e-05
21 *3843:A *3844:A 0.000117809
22 *41:13 *3844:A 0.000116855
23 *111:14 *3844:A 0.00131358
24 *111:14 *333:20 1.21289e-05
25 *117:79 *3844:A 4.13122e-06
26 *145:24 *333:20 8.80306e-05
27 *145:28 *333:20 0.000169954
28 *148:16 *3844:A 0.000683018
29 *181:28 *333:20 0.000152376
30 *181:46 *333:20 0.00155606
31 *321:16 *3844:A 0.000727065
32 *324:26 *3844:A 0
33 *330:16 *333:20 2.08721e-05
34 *332:28 *3844:A 0
*RES
1 *3605:X *333:20 45.6929 
2 *333:20 *3844:A 47.6929 
*END

*D_NET *334 0.0174985
*CONN
*I *3845:A I *D sky130_fd_sc_hd__buf_12
*I *3606:X O *D sky130_fd_sc_hd__and4b_2
*CAP
1 *3845:A 0
2 *3606:X 0.00152399
3 *334:54 0.000873598
4 *334:44 0.00173541
5 *334:34 0.0023858
6 *334:34 *3864:A 0.00022459
7 *334:34 *3867:A 0.000264143
8 *334:34 *3869:A 8.75325e-05
9 *334:34 *343:22 0.000768631
10 *334:34 *362:22 8.44271e-06
11 *334:34 *365:8 0.000222666
12 *334:34 *366:70 9.41642e-05
13 *334:34 *368:66 0.00010231
14 *334:44 *335:30 0.000740925
15 *334:54 *335:30 0.00380364
16 *334:54 *364:34 0.00109056
17 wbs_dat_o[12] *334:54 3.50559e-05
18 wbs_dat_o[4] *334:34 0.0001587
19 *528:DIODE *334:34 0.000220448
20 *3682:A *334:44 0.000354105
21 *3723:A *334:34 0.000299559
22 *7:21 *334:54 0.000613013
23 *43:11 *334:54 0
24 *65:5 *334:34 4.15384e-05
25 *170:42 *334:34 2.04825e-05
26 *300:22 *334:34 1.90936e-05
27 *312:32 *334:34 0.000247311
28 *315:26 *334:34 0.000309469
29 *317:24 *334:34 0
30 *325:32 *334:54 0.00116592
31 *326:14 *334:34 2.26973e-05
32 *329:46 *334:34 6.47106e-05
*RES
1 *3606:X *334:34 49.4061 
2 *334:34 *334:44 20.6964 
3 *334:44 *334:54 48.0536 
4 *334:54 *3845:A 9.3 
*END

*D_NET *335 0.0151834
*CONN
*I *3846:A I *D sky130_fd_sc_hd__buf_12
*I *3607:X O *D sky130_fd_sc_hd__and4b_2
*CAP
1 *3846:A 0.000115586
2 *3607:X 0.00102743
3 *335:30 0.002549
4 *335:28 0.00243342
5 *335:26 0.00102743
6 *335:26 *3607:C 4.58194e-05
7 *335:26 *336:28 0.000146474
8 wbs_dat_o[14] *3846:A 0
9 *3603:D *335:26 0.000201489
10 *3661:A *335:26 1.04707e-05
11 *3682:A *335:30 6.09804e-05
12 *3800:A *3846:A 2.83284e-06
13 *3822:A *335:26 5.33005e-05
14 *3823:A *335:26 0.000129644
15 *3:13 *335:30 0
16 *32:7 *335:26 0
17 *44:7 *3846:A 0.000192212
18 *65:5 *335:26 0.000710822
19 *181:28 *335:26 0.000621092
20 *312:32 *335:26 4.33174e-05
21 *315:26 *335:26 9.11825e-07
22 *317:24 *335:26 0.000599398
23 *329:46 *335:26 0.000164299
24 *330:16 *335:26 7.07131e-05
25 *333:20 *335:26 0.000432237
26 *334:44 *335:30 0.000740925
27 *334:54 *335:30 0.00380364
*RES
1 *3607:X *335:26 49.336 
2 *335:26 *335:28 4.5 
3 *335:28 *335:30 62.5536 
4 *335:30 *3846:A 20.8536 
*END

*D_NET *336 0.018525
*CONN
*I *3847:A I *D sky130_fd_sc_hd__buf_12
*I *3608:X O *D sky130_fd_sc_hd__and4b_2
*CAP
1 *3847:A 0
2 *3608:X 0.002542
3 *336:36 0.00263886
4 *336:32 0.00326159
5 *336:28 0.00316473
6 *336:28 *3603:A_N 8.79515e-05
7 *336:28 *3603:B 0.00019034
8 *336:28 *366:21 5.33005e-05
9 *336:28 *366:25 3.97677e-05
10 *336:28 *366:42 3.84717e-05
11 *336:28 *366:70 0.000221634
12 *336:28 *366:83 2.44294e-05
13 *336:28 *366:90 8.51271e-05
14 *336:28 *368:58 1.81709e-05
15 *336:28 *368:66 2.5299e-05
16 *336:28 *370:23 0.000178847
17 *336:28 *370:30 8.36572e-05
18 *336:28 *370:81 0.000104055
19 *336:32 *3870:A 0.000174574
20 *336:36 *3870:A 0.00014211
21 wbs_dat_o[10] *336:36 0.000111501
22 wbs_dat_o[11] *336:36 1.51489e-05
23 wbs_dat_o[14] *336:36 2.89114e-05
24 wbs_dat_o[6] *336:36 0.000111805
25 *388:DIODE *336:28 9.90431e-05
26 *493:DIODE *336:36 3.18676e-05
27 *3602:D *336:28 4.18895e-05
28 *3603:D *336:28 0.000111771
29 *3605:D *336:28 1.71615e-05
30 *3606:D *336:28 9.60939e-05
31 *3649:A *336:36 0.000353619
32 *3653:A *336:28 4.15526e-05
33 *3685:A *336:28 7.69776e-06
34 *3710:A *336:36 5.47001e-05
35 *3769:A *336:36 0.000728578
36 *3828:A *336:36 9.6968e-05
37 *3843:A *336:36 0.000853321
38 *3844:A *336:36 0.000455289
39 *41:13 *336:36 0.000122159
40 *66:5 *336:28 7.44888e-05
41 *117:79 *336:36 0.000287791
42 *225:14 *336:36 0.000107121
43 *278:22 *336:28 0.00014455
44 *300:22 *336:28 4.60232e-06
45 *317:24 *336:28 0.000571835
46 *321:16 *336:36 0.000109097
47 *321:26 *336:36 0.000101545
48 *324:18 *336:32 0.000523507
49 *335:26 *336:28 0.000146474
*RES
1 *3608:X *336:28 44.6032 
2 *336:28 *336:32 8.76786 
3 *336:32 *336:36 49.8393 
4 *336:36 *3847:A 9.3 
*END

*D_NET *337 0.0239824
*CONN
*I *3848:A I *D sky130_fd_sc_hd__buf_12
*I *3609:X O *D sky130_fd_sc_hd__and4b_2
*CAP
1 *3848:A 0.000690312
2 *3609:X 0.000747403
3 *337:44 0.001618
4 *337:26 0.00408051
5 *337:20 0.00390022
6 *3848:A *340:22 0.000184246
7 *337:20 *3604:A_N 5.33005e-05
8 *337:20 *3609:C 7.05645e-05
9 *337:20 *369:24 0.000329188
10 *337:20 *371:31 0.00105825
11 *337:44 *338:18 8.41945e-05
12 *337:44 *340:22 0
13 *337:44 *361:22 0.000532305
14 *337:44 *367:95 2.61337e-05
15 *337:44 *369:72 4.1879e-05
16 wbs_dat_o[15] *3848:A 0.000182605
17 *3604:D *337:20 0.000189147
18 *3630:D *337:20 4.15592e-05
19 *3638:A *337:20 8.70933e-06
20 *3643:A *3848:A 3.03692e-05
21 *3689:A *337:44 0.000259019
22 *3713:A *337:44 0
23 *3778:A *3848:A 4.9792e-05
24 *46:7 *3848:A 0
25 *116:23 *337:20 1.21258e-05
26 *119:41 *337:44 9.64227e-05
27 *119:55 *337:20 3.20942e-05
28 *121:54 *337:44 0.000534222
29 *121:60 *337:44 1.37292e-05
30 *139:19 *337:20 9.54798e-06
31 *142:37 *337:20 0.000199608
32 *164:22 *337:44 0.000153874
33 *170:74 *337:26 0.00031407
34 *244:20 *337:44 0.000879394
35 *324:36 *337:44 0.000288718
36 *327:63 *337:26 0.0018149
37 *327:71 *337:26 0.00123571
38 *328:16 *337:20 0.0011076
39 *328:18 *337:44 0.000992583
40 *328:36 *337:44 0.00112488
41 *329:46 *337:20 2.99846e-05
42 *329:60 *337:20 0.000915274
43 *332:20 *337:20 4.99671e-05
*RES
1 *3609:X *337:20 40.9138 
2 *337:20 *337:26 49.2679 
3 *337:26 *337:44 49.75 
4 *337:44 *3848:A 25.1036 
*END

*D_NET *338 0.00531065
*CONN
*I *3849:A I *D sky130_fd_sc_hd__buf_12
*I *3610:X O *D sky130_fd_sc_hd__and4b_1
*CAP
1 *3849:A 0
2 *3610:X 0.00137634
3 *338:18 0.00137634
4 *338:18 *340:22 0
5 *338:18 *367:74 0.000450765
6 *338:18 *367:95 8.27532e-05
7 *3690:A *338:18 2.83284e-06
8 *3713:A *338:18 0.000533518
9 *3725:A *338:18 0.000114847
10 *3803:A *338:18 4.6025e-06
11 *121:60 *338:18 0.000207536
12 *214:16 *338:18 0
13 *236:22 *338:18 0.00107693
14 *337:44 *338:18 8.41945e-05
*RES
1 *3610:X *338:18 47.6036 
2 *338:18 *3849:A 13.8 
*END

*D_NET *339 0.0530846
*CONN
*I *3760:A I *D sky130_fd_sc_hd__dlygate4sd3_1
*I *3837:X O *D sky130_fd_sc_hd__buf_4
*CAP
1 *3760:A 4.06461e-05
2 *3837:X 0.00173046
3 *339:40 0.0051783
4 *339:18 0.00644498
5 *339:16 0.00197703
6 *339:8 0.00240016
7 *339:18 *3801:A 5.71472e-05
8 *339:18 *3855:A 0.000271904
9 *339:40 *3749:A 3.88429e-05
10 *339:40 *3751:A 0.00728388
11 *339:40 *3781:vpwrpc 0.000233057
12 *339:40 *350:14 0.00123601
13 *339:40 *372:14 1.97654e-05
14 wbs_dat_o[21] *339:18 5.52302e-05
15 wbs_dat_o[22] *339:40 1.95266e-05
16 *497:DIODE *339:8 5.61411e-05
17 *505:DIODE *339:18 0.000361075
18 *506:DIODE *339:18 1.21258e-05
19 *511:DIODE *339:8 0.000139975
20 *523:DIODE *339:8 9.77118e-05
21 *523:DIODE *339:16 0.000199336
22 *525:DIODE *339:8 0.000117611
23 *3643:A *339:18 5.52302e-05
24 *3650:A *339:8 0.00010645
25 *3653:A *339:8 0.000138947
26 *3665:A *339:8 0.000385905
27 *3676:A *339:16 0.000186669
28 *3677:A *339:16 0.000185118
29 *3685:A *339:8 9.90367e-05
30 *3695:A *339:18 0.000228784
31 *3701:A *339:16 9.60875e-05
32 *3712:A *339:8 0.00114678
33 *3717:A *339:16 5.65955e-05
34 *3719:A *339:18 0.000431857
35 *3721:A *339:18 0.000137983
36 *3722:A *3760:A 6.05161e-06
37 *3730:A *339:16 0.00018372
38 *3731:A *339:40 0.00021505
39 *3746:A *339:40 0.00278959
40 *3747:A *339:8 5.52302e-05
41 *3750:A *339:8 0.000262679
42 *3776:A *339:40 0
43 *3779:A *339:18 5.68722e-05
44 *3792:A *339:8 4.37999e-05
45 *3793:A *339:16 5.33005e-05
46 *3798:A *339:18 5.71472e-05
47 *3808:A *339:40 0
48 *3825:A *339:8 7.45454e-05
49 *3837:A *339:8 4.60153e-05
50 *3838:A *339:8 3.53079e-05
51 *3839:A *339:8 4.37999e-05
52 *53:9 *339:18 4.87953e-05
53 *69:9 *339:8 0.000311351
54 *128:49 *339:40 0
55 *159:10 *339:16 0.000579199
56 *159:10 *339:18 1.28856e-05
57 *159:18 *339:18 0.000276032
58 *193:18 *339:40 9.23805e-05
59 *214:16 *339:18 0.000971065
60 *221:8 *339:40 0.000128154
61 *236:22 *339:18 0.0009812
62 *236:38 *339:18 0.000656813
63 *247:8 *339:18 0.00375685
64 *258:52 *339:40 0.000242338
65 *259:16 *339:18 0.000108229
66 *270:22 *339:18 0.000425188
67 *270:34 *339:40 0.00173749
68 *281:24 *339:18 1.69961e-05
69 *281:42 *339:18 0.000884725
70 *281:72 *339:40 0.00026144
71 *301:30 *339:40 0.000285129
72 *301:32 *339:40 0.000754179
73 *303:38 *339:40 0.000923685
74 *304:18 *339:40 0.000208351
75 *304:26 *339:40 0.000751757
76 *317:66 *339:40 0.000308525
77 *324:36 *339:16 0.0021447
78 *324:36 *339:18 4.32969e-05
79 *329:24 *339:8 9.77264e-06
80 *331:24 *339:8 0.00101464
*RES
1 *3837:X *339:8 49.2821 
2 *339:8 *339:16 25.0268 
3 *339:16 *339:18 58.6518 
4 *339:18 *339:40 49.5468 
5 *339:40 *3760:A 9.83571 
*END

*D_NET *340 0.00570248
*CONN
*I *3850:A I *D sky130_fd_sc_hd__buf_12
*I *3611:X O *D sky130_fd_sc_hd__and4b_1
*CAP
1 *3850:A 0
2 *3611:X 0.00140573
3 *340:22 0.00140573
4 *340:22 *367:95 0.000241234
5 wbs_dat_o[15] *340:22 0.000202658
6 wbs_dat_o[17] *340:22 7.72745e-05
7 *3643:A *340:22 0.000119179
8 *3690:A *340:22 9.90431e-05
9 *3713:A *340:22 0.000107176
10 *3725:A *340:22 0.000614411
11 *3778:A *340:22 0.000141729
12 *3803:A *340:22 0.000487467
13 *3848:A *340:22 0.000184246
14 *45:17 *340:22 0.00018831
15 *117:59 *340:22 0.000379502
16 *320:22 *340:22 4.87885e-05
17 *337:44 *340:22 0
18 *338:18 *340:22 0
*RES
1 *3611:X *340:22 49.675 
2 *340:22 *3850:A 9.3 
*END

*D_NET *341 0.00476723
*CONN
*I *3851:A I *D sky130_fd_sc_hd__buf_12
*I *3612:X O *D sky130_fd_sc_hd__and4b_1
*CAP
1 *3851:A 0
2 *3612:X 0.0011065
3 *341:18 0.0011065
4 *341:18 *342:20 0
5 *341:18 *361:34 9.16558e-05
6 *341:18 *367:99 0.00044852
7 *341:18 *367:112 0.000126572
8 *396:DIODE *341:18 4.80553e-05
9 *3711:A *341:18 0.000121441
10 *3714:A *341:18 7.35649e-05
11 *113:31 *341:18 0.000859212
12 *120:56 *341:18 0.000687152
13 *159:18 *341:18 0
14 *322:26 *341:18 9.8045e-05
*RES
1 *3612:X *341:18 45.6571 
2 *341:18 *3851:A 13.8 
*END

*D_NET *342 0.00488991
*CONN
*I *3852:A I *D sky130_fd_sc_hd__buf_12
*I *3613:X O *D sky130_fd_sc_hd__and4b_1
*CAP
1 *3852:A 0
2 *3613:X 0.00127519
3 *342:20 0.00127519
4 *342:20 *367:112 0.000233389
5 wbs_dat_o[17] *342:20 0.00021768
6 wbs_dat_o[19] *342:20 0.000126639
7 *499:DIODE *342:20 1.55885e-05
8 *3711:A *342:20 0
9 *3714:A *342:20 0.000230482
10 *3719:A *342:20 0.000116879
11 *48:9 *342:20 9.02047e-05
12 *117:59 *342:20 0.0011712
13 *159:18 *342:20 0
14 *214:32 *342:20 0.000137474
15 *341:18 *342:20 0
*RES
1 *3613:X *342:20 45.2643 
2 *342:20 *3852:A 9.3 
*END

*D_NET *343 0.00809035
*CONN
*I *3853:A I *D sky130_fd_sc_hd__buf_12
*I *3627:X O *D sky130_fd_sc_hd__and4b_1
*CAP
1 *3853:A 0
2 *3627:X 0.00309974
3 *343:22 0.00309974
4 *343:22 *3867:A 1.41029e-05
5 *343:22 *366:12 2.05728e-05
6 *343:22 *366:134 0.000181796
7 *343:22 *366:145 1.21258e-05
8 *510:DIODE *343:22 0.000230035
9 *3629:D *343:22 4.15183e-05
10 *3763:A *343:22 5.3251e-05
11 *3831:A *343:22 0.000192883
12 *61:11 *343:22 0
13 *104:9 *343:22 6.15978e-05
14 *105:13 *343:22 5.65955e-05
15 *312:32 *343:22 0.00011775
16 *317:24 *343:22 0.000111604
17 *323:14 *343:22 2.84026e-05
18 *334:34 *343:22 0.000768631
*RES
1 *3627:X *343:22 45.0197 
2 *343:22 *3853:A 9.3 
*END

*D_NET *344 0.00377332
*CONN
*I *3854:A I *D sky130_fd_sc_hd__buf_12
*I *3614:X O *D sky130_fd_sc_hd__and4b_1
*CAP
1 *3854:A 0.000924216
2 *3614:X 0.000924216
3 *3854:A *3855:A 0.0002683
4 *3854:A *367:121 0.000230606
5 *3854:A *367:140 0.000208442
6 wbs_dat_o[20] *3854:A 5.49544e-05
7 *399:DIODE *3854:A 0.000315158
8 *3615:D *3854:A 8.7131e-05
9 *3696:A *3854:A 0.000304678
10 *3721:A *3854:A 0.000119636
11 *121:52 *3854:A 0.000206693
12 *259:16 *3854:A 0.000106934
13 *292:16 *3854:A 2.2351e-05
*RES
1 *3614:X *3854:A 48.9929 
*END

*D_NET *345 0.00243378
*CONN
*I *3855:A I *D sky130_fd_sc_hd__buf_12
*I *3615:X O *D sky130_fd_sc_hd__and4b_1
*CAP
1 *3855:A 0.000621147
2 *3615:X 0.000621147
3 *3855:A *367:140 8.43535e-06
4 *3721:A *3855:A 4.13122e-06
5 *3854:A *3855:A 0.0002683
6 *121:52 *3855:A 0.000174736
7 *236:38 *3855:A 0.000190436
8 *270:22 *3855:A 0.000273545
9 *339:18 *3855:A 0.000271904
*RES
1 *3615:X *3855:A 39.9929 
*END

*D_NET *346 0.00090496
*CONN
*I *3856:A I *D sky130_fd_sc_hd__buf_12
*I *3616:X O *D sky130_fd_sc_hd__and4b_1
*CAP
1 *3856:A 0.000321029
2 *3616:X 0.000321029
3 *3856:A *367:140 3.47641e-06
4 *400:DIODE *3856:A 0.000117235
5 *3693:A *3856:A 0
6 *121:52 *3856:A 9.58126e-05
7 *236:38 *3856:A 4.63768e-05
*RES
1 *3616:X *3856:A 32.6179 
*END

*D_NET *347 0.00804822
*CONN
*I *3857:A I *D sky130_fd_sc_hd__buf_12
*I *3617:X O *D sky130_fd_sc_hd__and4b_1
*CAP
1 *3857:A 0.000216371
2 *3617:X 0.00128413
3 *347:16 0.0015005
4 *347:16 *348:16 6.04596e-05
5 wbs_dat_o[24] *347:16 0.000189832
6 *449:DIODE *3857:A 0.000139491
7 *509:DIODE *347:16 0
8 *56:9 *3857:A 0.000293124
9 *115:43 *3857:A 0.000630671
10 *120:48 *347:16 8.19176e-05
11 *121:34 *347:16 4.13496e-05
12 *128:43 *347:16 0
13 *131:68 *347:16 0.000134271
14 *258:30 *347:16 0.00156006
15 *276:24 *3857:A 9.41642e-05
16 *301:8 *347:16 0.00147539
17 *325:56 *3857:A 0.000346484
*RES
1 *3617:X *347:16 49.8 
2 *347:16 *3857:A 23.1036 
*END

*D_NET *348 0.00488193
*CONN
*I *3858:A I *D sky130_fd_sc_hd__buf_12
*I *3618:X O *D sky130_fd_sc_hd__and4b_1
*CAP
1 *3858:A 0
2 *3618:X 0.00125865
3 *348:16 0.00125865
4 *348:16 *3619:A_N 1.02821e-05
5 *348:16 *3859:A 0.000139907
6 *348:16 *367:163 0.000144788
7 *348:16 *369:153 1.35082e-05
8 *509:DIODE *348:16 6.1205e-05
9 *3619:D *348:16 0.000239663
10 *3736:A *348:16 0.000183291
11 *120:28 *348:16 2.51133e-05
12 *131:68 *348:16 6.09965e-05
13 *159:26 *348:16 0
14 *259:44 *348:16 0.000245978
15 *276:24 *348:16 2.84026e-05
16 *292:20 *348:16 0.00103221
17 *301:18 *348:16 0.000118824
18 *347:16 *348:16 6.04596e-05
*RES
1 *3618:X *348:16 43.1393 
2 *348:16 *3858:A 9.3 
*END

*D_NET *349 0.00391982
*CONN
*I *3859:A I *D sky130_fd_sc_hd__buf_12
*I *3619:X O *D sky130_fd_sc_hd__and4b_1
*CAP
1 *3859:A 0.000930431
2 *3619:X 0.000930431
3 *3859:A *369:153 1.55885e-05
4 wbs_dat_o[25] *3859:A 0.00014183
5 *438:DIODE *3859:A 0.000219289
6 *459:DIODE *3859:A 2.50022e-05
7 *120:28 *3859:A 0.000980558
8 *132:45 *3859:A 4.05155e-05
9 *132:47 *3859:A 8.32066e-05
10 *132:49 *3859:A 8.90962e-05
11 *132:51 *3859:A 8.32278e-05
12 *259:54 *3859:A 2.52164e-05
13 *281:56 *3859:A 0.000215523
14 *348:16 *3859:A 0.000139907
*RES
1 *3619:X *3859:A 48.1714 
*END

*D_NET *350 0.0584676
*CONN
*I *3751:A I *D sky130_fd_sc_hd__dlygate4sd3_1
*I *3838:X O *D sky130_fd_sc_hd__buf_4
*CAP
1 *3751:A 0.00245595
2 *3838:X 0.00925553
3 *350:14 0.0117115
4 *3751:A *3781:vpwrpc 0.00568844
5 *350:14 *3869:A 2.21972e-05
6 *350:14 *364:18 4.6025e-06
7 *350:14 *372:14 0.0141407
8 *403:DIODE *350:14 0.000164936
9 *3731:A *3751:A 6.99087e-05
10 *3776:A *3751:A 0.000177386
11 *3844:A *350:14 0.000152412
12 *111:14 *350:14 0.00013886
13 *117:17 *3751:A 0.000143652
14 *117:25 *3751:A 0.0001973
15 *141:19 *350:14 0.000168615
16 *145:24 *350:14 0.000149123
17 *148:16 *350:14 0.000348498
18 *148:30 *350:14 0.000408471
19 *203:6 *350:14 0.000329954
20 *258:20 *350:14 0.000416588
21 *258:56 *3751:A 0.000600828
22 *259:16 *350:14 0.000189599
23 *281:70 *3751:A 0.000233066
24 *281:72 *3751:A 0.000106299
25 *304:26 *3751:A 0.000264208
26 *306:12 *350:14 0.000282685
27 *306:28 *350:14 0.000103646
28 *317:24 *350:14 0.000133955
29 *317:42 *350:14 0.00122072
30 *317:44 *350:14 0.000283758
31 *322:26 *350:14 0.000282685
32 *333:20 *350:14 0.000101601
33 *339:40 *3751:A 0.00728388
34 *339:40 *350:14 0.00123601
*RES
1 *3838:X *350:14 44.978 
2 *350:14 *3751:A 39.2623 
*END

*D_NET *351 0.00330716
*CONN
*I *3860:A I *D sky130_fd_sc_hd__buf_12
*I *3620:X O *D sky130_fd_sc_hd__and4b_1
*CAP
1 *3860:A 0.00102626
2 *3620:X 0.00102626
3 *177:30 *3860:A 0.000344232
4 *219:48 *3860:A 2.00112e-05
5 *227:18 *3860:A 0
6 *244:32 *3860:A 0.000890393
7 *308:14 *3860:A 0
8 *325:68 *3860:A 0
*RES
1 *3620:X *3860:A 44.0643 
*END

*D_NET *352 0.00366747
*CONN
*I *3861:A I *D sky130_fd_sc_hd__buf_12
*I *3621:X O *D sky130_fd_sc_hd__and4b_1
*CAP
1 *3861:A 0.000761828
2 *3621:X 0.000761828
3 wbs_dat_o[27] *3861:A 0.00040279
4 *3752:A *3861:A 0.000373644
5 *3:17 *3861:A 0.000535124
6 *120:28 *3861:A 0.000686487
7 *292:20 *3861:A 7.32272e-05
8 *325:68 *3861:A 7.25458e-05
*RES
1 *3621:X *3861:A 46.0464 
*END

*D_NET *353 0.00438184
*CONN
*I *3862:A I *D sky130_fd_sc_hd__buf_12
*I *3622:X O *D sky130_fd_sc_hd__and4b_1
*CAP
1 *3862:A 0
2 *3622:X 0.000858858
3 *353:14 0.000858858
4 *353:14 *3863:A 0.000407289
5 wbs_dat_o[28] *353:14 5.49544e-05
6 *3624:C *353:14 3.27461e-05
7 *3625:A_N *353:14 5.06672e-05
8 *3817:A *353:14 0.000150096
9 *60:11 *353:14 1.32056e-05
10 *117:33 *353:14 0
11 *270:36 *353:14 0
12 *307:10 *353:14 0.000345762
13 *309:10 *353:14 0
14 *327:105 *353:14 0.000866382
15 *329:103 *353:14 0.000141734
16 *329:114 *353:14 0.000601285
*RES
1 *3622:X *353:14 42.4786 
2 *353:14 *3862:A 9.3 
*END

*D_NET *354 0.00316283
*CONN
*I *3863:A I *D sky130_fd_sc_hd__buf_12
*I *3623:X O *D sky130_fd_sc_hd__and4b_1
*CAP
1 *3863:A 0.00092588
2 *3623:X 0.00092588
3 wbs_dat_o[29] *3863:A 2.89114e-05
4 *170:99 *3863:A 0.000349336
5 *227:18 *3863:A 0.000182982
6 *270:36 *3863:A 0.000217929
7 *307:8 *3863:A 5.60962e-05
8 *309:8 *3863:A 6.8529e-05
9 *353:14 *3863:A 0.000407289
*RES
1 *3623:X *3863:A 46.3143 
*END

*D_NET *355 0.00408934
*CONN
*I *3864:A I *D sky130_fd_sc_hd__buf_12
*I *3628:X O *D sky130_fd_sc_hd__and4b_1
*CAP
1 *3864:A 0.000917157
2 *3628:X 0.000917157
3 *3864:A *3600:C 9.18765e-06
4 *3864:A *362:22 3.8274e-05
5 *3864:A *364:18 0
6 *3864:A *365:8 0.000199436
7 wbs_dat_o[3] *3864:A 0.000139491
8 *387:DIODE *3864:A 9.41642e-05
9 *390:DIODE *3864:A 7.48679e-06
10 *482:DIODE *3864:A 0.000103553
11 *529:DIODE *3864:A 9.41642e-05
12 *3628:D *3864:A 2.00029e-05
13 *3632:RESET_B *3864:A 1.95625e-05
14 *3661:A *3864:A 0.000266479
15 *3758:A *3864:A 0
16 *3823:A *3864:A 0.000181803
17 *3842:A *3864:A 0.000101001
18 *115:71 *3864:A 8.18783e-05
19 *141:19 *3864:A 1.90936e-05
20 *181:28 *3864:A 1.90936e-05
21 *312:32 *3864:A 8.6229e-06
22 *324:18 *3864:A 0.000236355
23 *329:46 *3864:A 5.58533e-05
24 *330:16 *3864:A 0.000334932
25 *334:34 *3864:A 0.00022459
*RES
1 *3628:X *3864:A 48.8679 
*END

*D_NET *356 0.00425153
*CONN
*I *3865:A I *D sky130_fd_sc_hd__buf_12
*I *3624:X O *D sky130_fd_sc_hd__and4b_1
*CAP
1 *3865:A 0
2 *3624:X 0.00124294
3 *356:14 0.00124294
4 *356:14 *3866:A 3.75972e-05
5 wbs_dat_o[30] *356:14 0.000242137
6 *518:DIODE *356:14 5.71472e-05
7 *519:DIODE *356:14 0
8 *3625:A_N *356:14 1.30665e-05
9 *3625:C *356:14 0.000482172
10 *3625:D *356:14 1.14548e-05
11 *3699:A *356:14 0.000119636
12 *62:5 *356:14 0
13 *311:10 *356:14 3.06696e-05
14 *313:12 *356:14 0.000771777
*RES
1 *3624:X *356:14 43.7107 
2 *356:14 *3865:A 9.3 
*END

*D_NET *357 0.00264472
*CONN
*I *3866:A I *D sky130_fd_sc_hd__buf_12
*I *3625:X O *D sky130_fd_sc_hd__and4b_1
*CAP
1 *3866:A 0.00130356
2 *3625:X 0.00130356
3 *356:14 *3866:A 3.75972e-05
*RES
1 *3625:X *3866:A 46.0643 
*END

*D_NET *358 0.00200342
*CONN
*I *3867:A I *D sky130_fd_sc_hd__buf_12
*I *3629:X O *D sky130_fd_sc_hd__and4b_1
*CAP
1 *3867:A 0.000547979
2 *3629:X 0.000547979
3 *3867:A *3869:A 3.97398e-05
4 *3867:A *366:134 2.12355e-05
5 *397:DIODE *3867:A 1.34355e-05
6 *3629:D *3867:A 3.23542e-05
7 *3661:A *3867:A 0.000207253
8 *65:5 *3867:A 0.000315201
9 *329:46 *3867:A 0
10 *334:34 *3867:A 0.000264143
11 *343:22 *3867:A 1.41029e-05
*RES
1 *3629:X *3867:A 38.7071 
*END

*D_NET *359 0.00246634
*CONN
*I *3868:A I *D sky130_fd_sc_hd__buf_12
*I *3630:X O *D sky130_fd_sc_hd__and4b_1
*CAP
1 *3868:A 0.000932903
2 *3630:X 0.000932903
3 *3868:A *3627:B 5.24182e-05
4 *3868:A *362:22 1.84093e-05
5 wbs_dat_o[4] *3868:A 6.81786e-05
6 *124:44 *3868:A 0.000139414
7 *324:18 *3868:A 0.000135028
8 *331:24 *3868:A 0.000187081
*RES
1 *3630:X *3868:A 40.4393 
*END

*D_NET *360 0.00457598
*CONN
*I *3869:A I *D sky130_fd_sc_hd__buf_12
*I *3631:X O *D sky130_fd_sc_hd__and4b_1
*CAP
1 *3869:A 0.00109266
2 *3631:X 0.00109266
3 *3869:A *3628:A_N 3.84377e-05
4 *3869:A *3628:C 1.78394e-05
5 *3869:A *364:18 2.31284e-05
6 *397:DIODE *3869:A 0.000601168
7 *3653:A *3869:A 0
8 *3683:A *3869:A 0
9 *3708:A *3869:A 0.000123295
10 *3825:A *3869:A 0
11 *3838:A *3869:A 6.02554e-05
12 *3867:A *3869:A 3.97398e-05
13 *34:5 *3869:A 0
14 *66:5 *3869:A 0
15 *135:29 *3869:A 9.12204e-05
16 *141:19 *3869:A 0.000161168
17 *145:24 *3869:A 0.000130366
18 *312:32 *3869:A 0.000994314
19 *331:24 *3869:A 0
20 *334:34 *3869:A 8.75325e-05
21 *350:14 *3869:A 2.21972e-05
*RES
1 *3631:X *3869:A 48.1418 
*END

*D_NET *361 0.0493311
*CONN
*I *3757:A I *D sky130_fd_sc_hd__dlygate4sd3_1
*I *393:DIODE I *D sky130_fd_sc_hd__diode_2
*I *3839:X O *D sky130_fd_sc_hd__buf_4
*CAP
1 *3757:A 0.000232631
2 *393:DIODE 0.000172536
3 *3839:X 0.000524853
4 *361:56 0.00132784
5 *361:54 0.00161907
6 *361:46 0.00212378
7 *361:34 0.00237355
8 *361:22 0.00208528
9 *361:14 0.00166397
10 *361:14 *363:24 7.2693e-05
11 *361:14 *365:8 0.000495833
12 *3810:A *361:34 9.54798e-06
13 *3826:A *361:14 5.31631e-05
14 *110:12 *361:54 0.00197961
15 *110:12 *361:56 7.99721e-05
16 *113:27 *361:46 4.31358e-05
17 *113:31 *361:34 0.00204237
18 *116:15 *361:46 0.000555474
19 *118:11 *361:56 0
20 *118:13 *361:46 2.12005e-05
21 *120:48 *361:34 0.00144878
22 *120:56 *361:22 0.00289825
23 *120:56 *361:34 0.000141729
24 *121:52 *361:34 0.000227258
25 *121:54 *361:22 0.000894077
26 *121:54 *361:34 6.37907e-05
27 *131:68 *361:46 0.000218404
28 *131:79 *361:46 8.42609e-05
29 *132:39 *361:46 0.000274478
30 *132:41 *361:46 8.00806e-05
31 *132:43 *361:46 0.000228187
32 *132:45 *361:46 0.000142955
33 *132:47 *361:46 0.000189329
34 *132:49 *361:46 5.42764e-05
35 *133:25 *3757:A 0.000165123
36 *135:29 *361:34 0.00011307
37 *141:19 *361:14 0.000349031
38 *141:19 *361:22 0.000543264
39 *144:15 *3757:A 0.000421074
40 *144:21 *361:46 9.77264e-06
41 *144:21 *361:54 0.000181727
42 *145:63 *361:46 1.64621e-05
43 *148:24 *361:22 0.000163416
44 *164:50 *361:46 0.000473264
45 *177:30 *361:46 9.36095e-05
46 *199:22 *361:46 0.000345604
47 *199:22 *361:54 4.57504e-05
48 *206:8 *393:DIODE 7.90814e-06
49 *244:44 *361:54 0.00202738
50 *244:44 *361:56 3.27359e-05
51 *244:46 *3757:A 0.000241286
52 *244:46 *361:56 0.00375371
53 *301:8 *361:34 0.00126221
54 *302:8 *361:46 0.000412336
55 *303:10 *361:46 0.00142693
56 *303:32 *361:46 0.000262222
57 *306:28 *361:46 0.00040279
58 *317:44 *361:46 0.000226156
59 *317:68 *3757:A 0.000248155
60 *317:68 *361:56 0.00365308
61 *319:16 *361:14 0.0022682
62 *320:12 *361:14 0.00195408
63 *320:12 *361:22 2.05612e-05
64 *320:22 *361:22 0.00111947
65 *322:16 *361:14 3.45337e-05
66 *322:16 *361:22 0.00200982
67 *337:44 *361:22 0.000532305
68 *341:18 *361:34 9.16558e-05
*RES
1 *3839:X *361:14 36.7107 
2 *361:14 *361:22 49.5714 
3 *361:22 *361:34 43.6429 
4 *361:34 *361:46 49.7143 
5 *361:46 *361:54 32.7321 
6 *361:54 *361:56 48.0893 
7 *361:56 *393:DIODE 15.5679 
8 *361:56 *3757:A 21.1929 
*END

*D_NET *362 0.00543057
*CONN
*I *3870:A I *D sky130_fd_sc_hd__buf_12
*I *3600:X O *D sky130_fd_sc_hd__and4b_1
*CAP
1 *3870:A 0.000235006
2 *3600:X 0.000740131
3 *362:22 0.000975137
4 wbs_dat_o[6] *3870:A 0.000186669
5 *3653:A *362:22 6.4264e-05
6 *3661:A *362:22 0.000222666
7 *3681:A *3870:A 9.61455e-05
8 *3712:A *362:22 0.000384667
9 *3723:A *362:22 0.000480121
10 *3823:A *362:22 0.000142991
11 *3838:A *362:22 0.000382744
12 *3864:A *362:22 3.8274e-05
13 *3868:A *362:22 1.84093e-05
14 *66:5 *362:22 0.000114854
15 *117:79 *3870:A 0.000345089
16 *324:18 *3870:A 0.000605987
17 *331:24 *362:22 7.22944e-05
18 *334:34 *362:22 8.44271e-06
19 *336:32 *3870:A 0.000174574
20 *336:36 *3870:A 0.00014211
*RES
1 *3600:X *362:22 42.7107 
2 *362:22 *3870:A 19.6929 
*END

*D_NET *363 0.00780467
*CONN
*I *3871:A I *D sky130_fd_sc_hd__buf_12
*I *3601:X O *D sky130_fd_sc_hd__and4b_1
*CAP
1 *3871:A 0.000634914
2 *3601:X 0.00166616
3 *363:24 0.00230108
4 *3871:A *364:34 0
5 *3871:A *367:49 9.11048e-06
6 *363:24 *3600:B 0.000185588
7 *363:24 *3628:A_N 0.00012001
8 *363:24 *364:18 0.000198814
9 *363:24 *365:8 2.15442e-05
10 *363:24 *366:113 5.33005e-05
11 *482:DIODE *363:24 2.95746e-06
12 *3628:D *363:24 8.68263e-05
13 *3745:A *3871:A 0
14 *3792:A *3871:A 0
15 *3826:A *363:24 0.000136958
16 *3827:A *3871:A 2.93003e-05
17 *3827:A *363:24 9.83388e-05
18 *3840:A *3871:A 0
19 *68:9 *3871:A 0
20 *141:19 *363:24 0.00105923
21 *181:28 *363:24 0.000402544
22 *316:24 *363:24 0.000117903
23 *319:16 *363:24 0.000289077
24 *329:46 *363:24 0.000297706
25 *331:24 *363:24 2.06178e-05
26 *361:14 *363:24 7.2693e-05
*RES
1 *3601:X *363:24 49.8252 
2 *363:24 *3871:A 23.0321 
*END

*D_NET *364 0.0115612
*CONN
*I *3872:A I *D sky130_fd_sc_hd__buf_12
*I *3602:X O *D sky130_fd_sc_hd__and4b_1
*CAP
1 *3872:A 0
2 *3602:X 0.00163536
3 *364:34 0.000845314
4 *364:18 0.00248067
5 *364:18 *366:90 5.96516e-05
6 *364:18 *366:94 9.66977e-05
7 *364:18 *366:113 0.000122591
8 *364:34 *372:14 3.23542e-05
9 wbs_dat_o[8] *364:34 6.02288e-05
10 *482:DIODE *364:18 2.26995e-05
11 *507:DIODE *364:18 0.000257619
12 *525:DIODE *364:34 0.000233685
13 *3665:A *364:18 0.000366042
14 *3683:A *364:18 5.48376e-05
15 *3683:A *364:34 0.000309266
16 *3758:A *364:18 5.20298e-05
17 *3825:A *364:18 0
18 *3840:A *364:34 7.33708e-05
19 *3864:A *364:18 0
20 *3869:A *364:18 2.31284e-05
21 *3871:A *364:34 0
22 *35:9 *364:34 0.000304464
23 *37:5 *364:34 4.49313e-05
24 *68:9 *364:34 0.000162575
25 *111:14 *364:18 0.000398297
26 *111:14 *364:34 0.000261236
27 *145:24 *364:18 6.00218e-05
28 *145:28 *364:18 0.00024564
29 *181:46 *364:34 0.000786335
30 *325:32 *364:34 0.00108419
31 *333:20 *364:18 0.000194002
32 *334:54 *364:34 0.00109056
33 *350:14 *364:18 4.6025e-06
34 *363:24 *364:18 0.000198814
*RES
1 *3602:X *364:18 46.7286 
2 *364:18 *364:34 47.3929 
3 *364:34 *3872:A 13.8 
*END

*D_NET *365 0.0127577
*CONN
*I *3873:A I *D sky130_fd_sc_hd__buf_12
*I *3603:X O *D sky130_fd_sc_hd__and4b_1
*CAP
1 *3873:A 0.000965757
2 *3603:X 0
3 *365:8 0.00407698
4 *365:4 0.00311122
5 *3873:A *367:49 5.06655e-05
6 *365:8 *3600:A_N 9.41642e-05
7 *365:8 *3628:A_N 4.35452e-05
8 *365:8 *3628:C 0.000225989
9 wbs_dat_o[10] *3873:A 0.000189483
10 *387:DIODE *365:8 6.57032e-05
11 *483:DIODE *365:8 0.000103567
12 *521:DIODE *3873:A 0
13 *3628:D *365:8 3.82239e-05
14 *3730:A *3873:A 0.000101375
15 *3823:A *365:8 8.43535e-06
16 *3829:A *3873:A 0
17 *3844:A *3873:A 0.000147085
18 *3864:A *365:8 0.000199436
19 *40:13 *3873:A 9.53291e-05
20 *135:29 *365:8 0.000396286
21 *258:18 *3873:A 0.000107933
22 *312:32 *365:8 7.85063e-05
23 *317:42 *3873:A 0.000299212
24 *320:12 *365:8 0.00161873
25 *332:28 *3873:A 0
26 *334:34 *365:8 0.000222666
27 *361:14 *365:8 0.000495833
28 *363:24 *365:8 2.15442e-05
*RES
1 *3603:X *365:4 9.3 
2 *365:4 *365:8 46.5179 
3 *365:8 *3873:A 33.4062 
*END

*D_NET *366 0.0121734
*CONN
*I *3609:A_N I *D sky130_fd_sc_hd__and4b_2
*I *3606:A_N I *D sky130_fd_sc_hd__and4b_2
*I *3601:A_N I *D sky130_fd_sc_hd__and4b_1
*I *3626:A_N I *D sky130_fd_sc_hd__and4b_1
*I *3630:A_N I *D sky130_fd_sc_hd__and4b_1
*I *3628:A_N I *D sky130_fd_sc_hd__and4b_1
*I *3629:A_N I *D sky130_fd_sc_hd__and4b_1
*I *3631:A_N I *D sky130_fd_sc_hd__and4b_1
*I *3600:A_N I *D sky130_fd_sc_hd__and4b_1
*I *3602:A_N I *D sky130_fd_sc_hd__and4b_1
*I *3603:A_N I *D sky130_fd_sc_hd__and4b_1
*I *3604:A_N I *D sky130_fd_sc_hd__and4b_1
*I *3605:A_N I *D sky130_fd_sc_hd__and4b_1
*I *3607:A_N I *D sky130_fd_sc_hd__and4b_2
*I *3608:A_N I *D sky130_fd_sc_hd__and4b_2
*I *3637:X O *D sky130_fd_sc_hd__clkbuf_2
*CAP
1 *3609:A_N 0
2 *3606:A_N 0
3 *3601:A_N 0
4 *3626:A_N 0
5 *3630:A_N 0.000190971
6 *3628:A_N 0.000198019
7 *3629:A_N 0
8 *3631:A_N 0
9 *3600:A_N 0.00014796
10 *3602:A_N 0
11 *3603:A_N 0.000106301
12 *3604:A_N 0.000153852
13 *3605:A_N 0.000189942
14 *3607:A_N 0.000116694
15 *3608:A_N 6.45944e-05
16 *3637:X 8.34038e-05
17 *366:147 0.000388991
18 *366:145 0.000243366
19 *366:134 0.00058076
20 *366:113 0.000480834
21 *366:94 0.000352029
22 *366:90 0.000251476
23 *366:83 0.000199668
24 *366:70 0.000197917
25 *366:46 0.000385164
26 *366:42 0.00022415
27 *366:25 0.000302452
28 *366:21 0.000220828
29 *366:12 0.000316437
30 *366:6 0.000200191
31 *3603:A_N *3607:C 3.47641e-06
32 *3604:A_N *368:14 1.3807e-05
33 *3604:A_N *369:12 9.54798e-06
34 *3604:A_N *369:24 5.33005e-05
35 *3604:A_N *370:38 1.33809e-05
36 *3605:A_N *370:38 6.58968e-05
37 *3605:A_N *370:44 9.80173e-05
38 *3607:A_N *370:38 4.75812e-05
39 *3628:A_N *3626:B 6.87834e-06
40 *3630:A_N *3626:B 3.51532e-05
41 *3630:A_N *368:166 5.33005e-05
42 *366:21 *3608:B 0.000105163
43 *366:21 *370:23 1.54142e-05
44 *366:90 *368:106 0.000199739
45 *366:94 *368:106 2.8078e-05
46 *366:113 *368:106 1.21258e-05
47 *366:113 *368:113 3.51053e-05
48 *366:134 *368:113 5.52302e-05
49 *366:134 *368:130 0.00013369
50 *366:134 *368:137 0.000240269
51 *366:134 *369:24 2.77143e-05
52 *366:145 *3627:A_N 5.33005e-05
53 *366:145 *3627:B 5.49489e-05
54 *366:145 *369:24 0.000175892
55 *366:145 *369:31 0.000506396
56 *403:DIODE *3628:A_N 6.39932e-05
57 *447:DIODE *3607:A_N 0.000171375
58 *483:DIODE *3600:A_N 0.000169905
59 *483:DIODE *366:113 9.60939e-05
60 *510:DIODE *366:12 3.28838e-05
61 *3601:D *366:113 1.19057e-05
62 *3602:D *366:90 3.37161e-05
63 *3606:D *366:42 9.80173e-05
64 *3607:D *3605:A_N 0.000171375
65 *3608:D *366:12 3.78949e-05
66 *3626:D *366:145 0.000166445
67 *3627:D *366:134 2.73212e-06
68 *3627:D *366:145 1.54209e-05
69 *3628:D *3628:A_N 0.000100685
70 *3629:D *366:134 2.3541e-05
71 *3631:D *366:134 1.784e-05
72 *3822:A *3605:A_N 9.60875e-05
73 *3867:A *366:134 2.12355e-05
74 *3869:A *3628:A_N 3.84377e-05
75 *116:23 *3604:A_N 2.03997e-05
76 *119:55 *3630:A_N 0.00022105
77 *124:25 *3628:A_N 7.53309e-05
78 *124:25 *3630:A_N 0.000159533
79 *124:25 *366:145 4.82765e-06
80 *124:29 *366:145 8.23811e-05
81 *144:25 *366:12 0
82 *170:42 *3603:A_N 1.09026e-05
83 *170:42 *3604:A_N 0.00018147
84 *170:42 *3605:A_N 0.000375993
85 *278:22 *3607:A_N 7.83659e-05
86 *300:22 *3603:A_N 0.000105354
87 *312:32 *3600:A_N 2.388e-05
88 *312:32 *3607:A_N 9.41642e-05
89 *312:32 *3628:A_N 6.09762e-05
90 *312:32 *366:145 3.63587e-05
91 *328:16 *366:6 4.54279e-05
92 *328:18 *3630:A_N 8.54131e-05
93 *334:34 *366:70 9.41642e-05
94 *336:28 *3603:A_N 8.79515e-05
95 *336:28 *366:21 5.33005e-05
96 *336:28 *366:25 3.97677e-05
97 *336:28 *366:42 3.84717e-05
98 *336:28 *366:70 0.000221634
99 *336:28 *366:83 2.44294e-05
100 *336:28 *366:90 8.51271e-05
101 *337:20 *3604:A_N 5.33005e-05
102 *343:22 *366:12 2.05728e-05
103 *343:22 *366:134 0.000181796
104 *343:22 *366:145 1.21258e-05
105 *363:24 *3628:A_N 0.00012001
106 *363:24 *366:113 5.33005e-05
107 *364:18 *366:90 5.96516e-05
108 *364:18 *366:94 9.66977e-05
109 *364:18 *366:113 0.000122591
110 *365:8 *3600:A_N 9.41642e-05
111 *365:8 *3628:A_N 4.35452e-05
*RES
1 *3637:X *366:6 10.6571 
2 *366:6 *366:12 11.25 
3 *366:12 *3608:A_N 10.2464 
4 *366:12 *366:21 3 
5 *366:21 *366:25 1.375 
6 *366:25 *3607:A_N 21.4964 
7 *366:25 *366:42 2.19643 
8 *366:42 *366:46 5.03571 
9 *366:46 *3605:A_N 19.7286 
10 *366:46 *3604:A_N 16.8893 
11 *366:42 *366:70 2.17857 
12 *366:70 *3603:A_N 20.8536 
13 *366:70 *366:83 0.245536 
14 *366:83 *3602:A_N 9.3 
15 *366:83 *366:90 4.11161 
16 *366:90 *366:94 1.375 
17 *366:94 *3600:A_N 21.3179 
18 *366:94 *366:113 3.32143 
19 *366:113 *3631:A_N 9.3 
20 *366:113 *366:134 8.375 
21 *366:134 *3629:A_N 9.3 
22 *366:134 *366:145 7.55357 
23 *366:145 *366:147 4.5 
24 *366:147 *3628:A_N 18.8357 
25 *366:147 *3630:A_N 18.2286 
26 *366:145 *3626:A_N 9.3 
27 *366:90 *3601:A_N 9.3 
28 *366:21 *3606:A_N 9.3 
29 *366:6 *3609:A_N 9.3 
*END

*D_NET *367 0.0406896
*CONN
*I *3627:A_N I *D sky130_fd_sc_hd__and4b_1
*I *3597:A I *D sky130_fd_sc_hd__clkinv_4
*I *3612:A_N I *D sky130_fd_sc_hd__and4b_1
*I *3619:A_N I *D sky130_fd_sc_hd__and4b_1
*I *3620:A_N I *D sky130_fd_sc_hd__and4b_1
*I *3621:A_N I *D sky130_fd_sc_hd__and4b_1
*I *3618:A_N I *D sky130_fd_sc_hd__and4b_1
*I *3617:A_N I *D sky130_fd_sc_hd__and4b_1
*I *3616:A_N I *D sky130_fd_sc_hd__and4b_1
*I *3615:A_N I *D sky130_fd_sc_hd__and4b_1
*I *3614:A_N I *D sky130_fd_sc_hd__and4b_1
*I *3613:A_N I *D sky130_fd_sc_hd__and4b_1
*I *3611:A_N I *D sky130_fd_sc_hd__and4b_1
*I *3610:A_N I *D sky130_fd_sc_hd__and4b_1
*I *3637:A I *D sky130_fd_sc_hd__clkbuf_2
*I *3638:X O *D sky130_fd_sc_hd__buf_4
*CAP
1 *3627:A_N 1.69531e-05
2 *3597:A 0.000670254
3 *3612:A_N 0
4 *3619:A_N 1.648e-05
5 *3620:A_N 0.000136255
6 *3621:A_N 0.000320854
7 *3618:A_N 0
8 *3617:A_N 0
9 *3616:A_N 0
10 *3615:A_N 0
11 *3614:A_N 0
12 *3613:A_N 2.23854e-05
13 *3611:A_N 0
14 *3610:A_N 0
15 *3637:A 0.000981438
16 *3638:X 4.06336e-05
17 *367:173 0.00104051
18 *367:163 0.000722617
19 *367:156 0.000237614
20 *367:147 0.000191306
21 *367:140 0.000437577
22 *367:121 0.000555334
23 *367:112 0.000487969
24 *367:99 0.000504012
25 *367:95 0.000460447
26 *367:74 0.000426602
27 *367:59 0.00188102
28 *367:49 0.00482838
29 *367:31 0.00362698
30 *367:6 0.00220099
31 *3597:A *371:54 0
32 *3619:A_N *369:146 5.33005e-05
33 *3621:A_N *3621:C 0.000507796
34 *3621:A_N *369:153 0.000305466
35 *367:31 *3628:B 0.000151901
36 *367:31 *368:155 0.000441043
37 *367:31 *368:166 2.50601e-05
38 *367:31 *370:146 7.54141e-05
39 *367:31 *371:31 2.89272e-05
40 *367:49 *3628:B 4.22986e-05
41 *367:49 *3628:C 4.19624e-06
42 *367:49 *368:166 5.46078e-06
43 *367:74 *371:63 2.96677e-05
44 *367:74 *371:70 0.000382459
45 *367:95 *371:79 0.000454113
46 *367:99 *369:83 0.000341255
47 *367:99 *371:79 4.7812e-05
48 *367:99 *371:86 7.92229e-06
49 *367:112 *369:83 2.28499e-05
50 *367:112 *371:102 0.000163915
51 *367:121 *371:102 0.000143375
52 *367:121 *371:109 0.000599097
53 *367:140 *369:117 3.04117e-05
54 *367:140 *369:132 0.000118271
55 *367:140 *371:109 0.000142856
56 *367:140 *371:118 0.000771971
57 *367:147 *369:132 0.000290226
58 *367:156 *369:132 0.000185643
59 *367:156 *369:139 0.000436161
60 *367:163 *369:139 0.000182003
61 *367:163 *369:146 0.000480018
62 *385:DIODE *367:74 5.71472e-05
63 *385:DIODE *367:95 5.52238e-05
64 *395:DIODE *367:95 1.59373e-05
65 *395:DIODE *367:99 0.000228508
66 *398:DIODE *367:112 3.08664e-05
67 *398:DIODE *367:121 7.35137e-05
68 *400:DIODE *367:140 5.97217e-06
69 *510:DIODE *3637:A 6.78025e-05
70 *3610:D *367:74 0.000219267
71 *3611:D *367:95 0.000157995
72 *3613:D *3613:A_N 0
73 *3613:D *367:112 0.000205552
74 *3614:D *367:121 2.3541e-05
75 *3615:D *367:140 8.7131e-05
76 *3616:D *367:140 2.77624e-05
77 *3617:D *367:156 0.000198574
78 *3618:D *367:163 0.00019521
79 *3619:D *3619:A_N 6.05161e-06
80 *3693:A *367:140 5.20232e-05
81 *3713:A *367:74 1.88967e-05
82 *3713:A *367:95 0.000137317
83 *3827:A *367:49 8.37087e-05
84 *3829:A *367:49 1.38247e-05
85 *3835:A *3637:A 8.6229e-06
86 *3854:A *367:121 0.000230606
87 *3854:A *367:140 0.000208442
88 *3855:A *367:140 8.43535e-06
89 *3856:A *367:140 3.47641e-06
90 *3871:A *367:49 9.11048e-06
91 *3873:A *367:49 5.06655e-05
92 *113:43 *367:49 0.000189527
93 *119:55 *3637:A 0.00108202
94 *119:55 *367:31 0.000109073
95 *120:28 *3621:A_N 0.00081491
96 *121:52 *367:140 0.000218989
97 *121:52 *367:147 0.000524735
98 *121:52 *367:156 0.000225091
99 *121:52 *367:163 1.51489e-05
100 *124:29 *3627:A_N 5.33005e-05
101 *127:25 *367:147 0.000106944
102 *127:25 *367:156 0.000101623
103 *127:25 *367:163 0.000105136
104 *130:63 *367:173 0.00011333
105 *131:60 *3620:A_N 4.56535e-05
106 *131:60 *3621:A_N 0.000114847
107 *135:29 *367:49 0.000459312
108 *135:29 *367:59 5.02092e-05
109 *141:19 *367:49 0.000203224
110 *145:24 *367:49 0.000186845
111 *151:20 *367:173 4.77415e-05
112 *170:52 *3637:A 0.000316746
113 *170:54 *367:31 0.000371354
114 *181:46 *367:49 0
115 *244:28 *3620:A_N 6.57032e-05
116 *244:28 *367:173 0.000158781
117 *300:24 *3597:A 0.000522432
118 *312:32 *367:49 0.000289219
119 *312:40 *367:49 0.000225338
120 *312:40 *367:59 0.000197888
121 *312:40 *367:74 0
122 *312:54 *367:74 9.83442e-05
123 *316:26 *3597:A 0.000274932
124 *318:8 *367:49 0.000175761
125 *318:8 *367:59 0.000197888
126 *319:16 *367:49 0.000802857
127 *319:16 *367:59 0.00135003
128 *327:63 *3637:A 0.000163367
129 *327:63 *367:31 2.13997e-05
130 *329:60 *367:31 9.11048e-06
131 *332:20 *367:31 7.69776e-06
132 *332:28 *3597:A 0
133 *332:28 *367:31 9.66977e-05
134 *337:44 *367:95 2.61337e-05
135 *338:18 *367:74 0.000450765
136 *338:18 *367:95 8.27532e-05
137 *340:22 *367:95 0.000241234
138 *341:18 *367:99 0.00044852
139 *341:18 *367:112 0.000126572
140 *342:20 *367:112 0.000233389
141 *348:16 *3619:A_N 1.02821e-05
142 *348:16 *367:163 0.000144788
143 *366:145 *3627:A_N 5.33005e-05
*RES
1 *3638:X *367:6 10.0321 
2 *367:6 *3637:A 29.6887 
3 *367:6 *367:31 21.4286 
4 *367:31 *367:49 39.0768 
5 *367:49 *367:59 15.7516 
6 *367:59 *3610:A_N 9.3 
7 *367:59 *367:74 8.21429 
8 *367:74 *3611:A_N 9.3 
9 *367:74 *367:95 17.6429 
10 *367:95 *367:99 7.83929 
11 *367:99 *3613:A_N 9.72857 
12 *367:99 *367:112 7.66071 
13 *367:112 *3614:A_N 9.3 
14 *367:112 *367:121 7.53571 
15 *367:121 *3615:A_N 9.3 
16 *367:121 *367:140 21 
17 *367:140 *3616:A_N 9.3 
18 *367:140 *367:147 5.05357 
19 *367:147 *3617:A_N 9.3 
20 *367:147 *367:156 6.30357 
21 *367:156 *3618:A_N 9.3 
22 *367:156 *367:163 6.28571 
23 *367:163 *367:173 21.0179 
24 *367:173 *3621:A_N 23.3714 
25 *367:173 *3620:A_N 15.8893 
26 *367:163 *3619:A_N 9.83571 
27 *367:95 *3612:A_N 9.3 
28 *367:49 *3597:A 26.4161 
29 *367:31 *3627:A_N 14.3357 
*END

*D_NET *368 0.0137778
*CONN
*I *3629:C I *D sky130_fd_sc_hd__and4b_1
*I *3626:C I *D sky130_fd_sc_hd__and4b_1
*I *3628:C I *D sky130_fd_sc_hd__and4b_1
*I *3630:C I *D sky130_fd_sc_hd__and4b_1
*I *3631:C I *D sky130_fd_sc_hd__and4b_1
*I *3600:C I *D sky130_fd_sc_hd__and4b_1
*I *3601:C I *D sky130_fd_sc_hd__and4b_1
*I *3602:C I *D sky130_fd_sc_hd__and4b_1
*I *3603:C I *D sky130_fd_sc_hd__and4b_1
*I *3607:C I *D sky130_fd_sc_hd__and4b_2
*I *3605:C I *D sky130_fd_sc_hd__and4b_1
*I *3604:C I *D sky130_fd_sc_hd__and4b_1
*I *3609:C I *D sky130_fd_sc_hd__and4b_2
*I *3606:C I *D sky130_fd_sc_hd__and4b_2
*I *3608:C I *D sky130_fd_sc_hd__and4b_2
*I *3639:X O *D sky130_fd_sc_hd__clkbuf_2
*CAP
1 *3629:C 0
2 *3626:C 0
3 *3628:C 0.000201094
4 *3630:C 0
5 *3631:C 0
6 *3600:C 0.000257577
7 *3601:C 0
8 *3602:C 0
9 *3603:C 0
10 *3607:C 8.98886e-05
11 *3605:C 8.2233e-05
12 *3604:C 6.48054e-05
13 *3609:C 0.000158765
14 *3606:C 0
15 *3608:C 0.000296256
16 *3639:X 0
17 *368:166 0.000416148
18 *368:155 0.000627507
19 *368:137 0.000639299
20 *368:130 0.000293019
21 *368:113 0.000390761
22 *368:106 0.000232204
23 *368:95 0.000165193
24 *368:66 0.000401979
25 *368:58 0.000354452
26 *368:56 0.000328688
27 *368:41 0.000592916
28 *368:14 0.000372289
29 *368:10 0.000326433
30 *368:4 0.000415652
31 *3600:C *3600:B 0.000267917
32 *3604:C *369:24 5.33005e-05
33 *3607:C *3607:B 6.05161e-06
34 *3608:C *3608:B 0.000139907
35 *3608:C *370:23 0.000219711
36 *3608:C *370:30 5.33005e-05
37 *3609:C *3609:B 5.33005e-05
38 *3628:C *3626:B 9.54798e-06
39 *3628:C *3628:B 0
40 *368:106 *370:101 0.000296985
41 *368:106 *370:108 4.18895e-05
42 *368:113 *3631:B 8.36572e-05
43 *368:113 *370:108 0.000137983
44 *368:130 *3631:B 9.60875e-05
45 *368:155 *3629:B 0.000115446
46 *368:155 *370:142 6.99044e-05
47 *368:155 *370:146 5.25337e-05
48 *368:166 *3626:B 0.000202826
49 *368:166 *3627:B 3.90661e-05
50 *368:166 *371:31 7.22944e-05
51 *482:DIODE *3600:C 3.10819e-05
52 *483:DIODE *368:106 2.59355e-05
53 *483:DIODE *368:113 1.98839e-05
54 *3601:D *368:113 1.14548e-05
55 *3602:D *368:106 6.67451e-05
56 *3603:A_N *3607:C 3.47641e-06
57 *3603:D *3605:C 5.21877e-05
58 *3604:A_N *368:14 1.3807e-05
59 *3605:D *3605:C 1.02504e-05
60 *3607:D *3607:C 5.52238e-05
61 *3628:D *3628:C 0.00017467
62 *3629:D *368:155 0.000271233
63 *3630:A_N *368:166 5.33005e-05
64 *3630:D *368:155 0.000109135
65 *3864:A *3600:C 9.18765e-06
66 *3869:A *3628:C 1.78394e-05
67 *116:23 *3609:C 5.33005e-05
68 *116:23 *368:10 9.7632e-05
69 *116:23 *368:14 2.95642e-05
70 *116:27 *368:14 7.14469e-05
71 *119:55 *368:166 1.98839e-05
72 *141:19 *3600:C 1.04707e-05
73 *143:63 *3604:C 4.00349e-05
74 *143:63 *368:41 7.636e-05
75 *170:42 *3605:C 0.000184322
76 *170:42 *3607:C 1.12323e-05
77 *170:54 *368:155 0.000429512
78 *278:22 *3604:C 8.6229e-06
79 *278:22 *368:56 0.000105299
80 *278:22 *368:58 0.000146135
81 *312:32 *3600:C 0.000105377
82 *312:32 *3607:C 0.00022266
83 *312:32 *3628:C 1.44395e-05
84 *315:26 *3600:C 4.28081e-05
85 *317:24 *368:66 4.61011e-05
86 *327:38 *368:10 4.32159e-05
87 *327:38 *368:14 9.21418e-06
88 *328:16 *3609:C 5.4804e-05
89 *328:16 *368:10 5.33005e-05
90 *328:16 *368:41 0.000332821
91 *328:18 *368:166 0.000216755
92 *332:20 *368:155 4.00349e-05
93 *334:34 *368:66 0.00010231
94 *335:26 *3607:C 4.58194e-05
95 *336:28 *368:58 1.81709e-05
96 *336:28 *368:66 2.5299e-05
97 *337:20 *3609:C 7.05645e-05
98 *365:8 *3628:C 0.000225989
99 *366:90 *368:106 0.000199739
100 *366:94 *368:106 2.8078e-05
101 *366:113 *368:106 1.21258e-05
102 *366:113 *368:113 3.51053e-05
103 *366:134 *368:113 5.52302e-05
104 *366:134 *368:130 0.00013369
105 *366:134 *368:137 0.000240269
106 *367:31 *368:155 0.000441043
107 *367:31 *368:166 2.50601e-05
108 *367:49 *3628:C 4.19624e-06
109 *367:49 *368:166 5.46078e-06
*RES
1 *3639:X *368:4 9.3 
2 *368:4 *368:10 6.375 
3 *368:10 *368:14 5.83929 
4 *368:14 *3608:C 13.1214 
5 *368:14 *3606:C 9.3 
6 *368:10 *3609:C 16.8 
7 *368:4 *368:41 9.09821 
8 *368:41 *3604:C 14.9161 
9 *368:41 *368:56 3.04464 
10 *368:56 *368:58 2.55357 
11 *368:58 *368:66 7.87976 
12 *368:66 *3605:C 16.2018 
13 *368:66 *3607:C 16.2554 
14 *368:58 *3603:C 13.8 
15 *368:56 *368:95 4.5 
16 *368:95 *3602:C 9.3 
17 *368:95 *368:106 4.78571 
18 *368:106 *3601:C 9.3 
19 *368:106 *368:113 2.17857 
20 *368:113 *3600:C 22.6036 
21 *368:113 *368:130 1.78571 
22 *368:130 *3631:C 9.3 
23 *368:130 *368:137 3 
24 *368:137 *368:155 28.6071 
25 *368:155 *3630:C 9.3 
26 *368:155 *368:166 9.53571 
27 *368:166 *3628:C 18.3536 
28 *368:166 *3626:C 13.8 
29 *368:137 *3629:C 9.3 
*END

*D_NET *369 0.036399
*CONN
*I *3639:A I *D sky130_fd_sc_hd__clkbuf_2
*I *3613:C I *D sky130_fd_sc_hd__and4b_1
*I *3621:C I *D sky130_fd_sc_hd__and4b_1
*I *3620:C I *D sky130_fd_sc_hd__and4b_1
*I *3619:C I *D sky130_fd_sc_hd__and4b_1
*I *3618:C I *D sky130_fd_sc_hd__and4b_1
*I *3617:C I *D sky130_fd_sc_hd__and4b_1
*I *3616:C I *D sky130_fd_sc_hd__and4b_1
*I *3615:C I *D sky130_fd_sc_hd__and4b_1
*I *3614:C I *D sky130_fd_sc_hd__and4b_1
*I *3612:C I *D sky130_fd_sc_hd__and4b_1
*I *3611:C I *D sky130_fd_sc_hd__and4b_1
*I *3610:C I *D sky130_fd_sc_hd__and4b_1
*I *3599:B I *D sky130_fd_sc_hd__and2_4
*I *3627:C I *D sky130_fd_sc_hd__and4b_1
*I *3640:X O *D sky130_fd_sc_hd__clkbuf_4
*CAP
1 *3639:A 0
2 *3613:C 2.4688e-05
3 *3621:C 0.000162195
4 *3620:C 9.26067e-05
5 *3619:C 0
6 *3618:C 0
7 *3617:C 0
8 *3616:C 0
9 *3615:C 0
10 *3614:C 0
11 *3612:C 0
12 *3611:C 0
13 *3610:C 0
14 *3599:B 1.66532e-05
15 *3627:C 0
16 *3640:X 0.00014232
17 *369:153 0.000436826
18 *369:146 0.00028638
19 *369:139 0.00019496
20 *369:132 0.000275901
21 *369:117 0.000713332
22 *369:104 0.00103448
23 *369:97 0.00143413
24 *369:83 0.00112838
25 *369:72 0.00104828
26 *369:51 0.00135449
27 *369:44 0.00248632
28 *369:31 0.00397201
29 *369:24 0.00303454
30 *369:12 0.00122562
31 *3599:B *371:54 5.63498e-05
32 *3613:C *3613:B 6.05161e-06
33 *3620:C *3620:B 7.29712e-05
34 *3621:C *3621:B 0.000644338
35 *369:12 *3641:A 1.58163e-05
36 *369:24 *3629:B 9.60227e-05
37 *369:24 *370:127 0.00055655
38 *369:44 *371:63 0.00289146
39 *369:44 *371:70 5.49544e-05
40 *369:51 *371:70 0.000696649
41 *369:51 *371:79 5.52238e-05
42 *369:72 *371:79 4.08637e-05
43 *369:83 *3613:B 2.14658e-05
44 *369:83 *371:86 0.000337354
45 *369:104 *371:109 0.00069769
46 *369:104 *371:118 5.71472e-05
47 *369:117 *371:118 0.000687295
48 *369:132 *371:125 0.000758786
49 *369:132 *371:132 4.38128e-05
50 *369:139 *371:132 0.000575499
51 *369:139 *371:139 4.27935e-05
52 *369:146 *371:139 0.000664635
53 *369:146 *371:146 4.38128e-05
54 *369:153 *3621:B 4.17433e-05
55 *369:153 *371:146 0.000643299
56 *395:DIODE *369:72 4.3588e-05
57 *3604:A_N *369:12 9.54798e-06
58 *3604:A_N *369:24 5.33005e-05
59 *3604:C *369:24 5.33005e-05
60 *3604:D *369:24 0.000190547
61 *3612:D *369:83 2.3541e-05
62 *3613:D *3613:C 4.18895e-05
63 *3613:D *369:83 9.90431e-05
64 *3616:D *369:117 8.6229e-06
65 *3619:A_N *369:146 5.33005e-05
66 *3619:D *369:146 6.79057e-05
67 *3619:D *369:153 1.72676e-05
68 *3621:A_N *3621:C 0.000507796
69 *3621:A_N *369:153 0.000305466
70 *3621:D *3621:C 0.000139485
71 *3693:A *369:117 0
72 *3693:A *369:132 2.42516e-05
73 *3825:A *369:31 5.52302e-05
74 *3859:A *369:153 1.55885e-05
75 *116:23 *369:12 0.000138916
76 *120:28 *3621:C 1.51489e-05
77 *120:28 *369:153 0.00010985
78 *121:52 *369:132 0.000108024
79 *123:27 *369:97 1.0562e-05
80 *135:29 *369:72 0.000193942
81 *135:29 *369:97 0.000182846
82 *148:48 *369:146 0.000100368
83 *170:42 *369:12 5.62653e-05
84 *236:38 *369:117 0
85 *278:22 *369:24 0.00022105
86 *306:38 *3620:C 2.87782e-05
87 *312:32 *369:31 8.43535e-06
88 *312:40 *369:31 0.00121491
89 *312:40 *369:44 1.10868e-05
90 *320:22 *369:72 0
91 *322:26 *369:97 1.94945e-05
92 *328:16 *369:24 2.92541e-05
93 *329:46 *369:24 0.000135028
94 *332:28 *3599:B 5.7248e-05
95 *337:20 *369:24 0.000329188
96 *337:44 *369:72 4.1879e-05
97 *348:16 *369:153 1.35082e-05
98 *366:134 *369:24 2.77143e-05
99 *366:145 *369:24 0.000175892
100 *366:145 *369:31 0.000506396
101 *367:99 *369:83 0.000341255
102 *367:112 *369:83 2.28499e-05
103 *367:140 *369:117 3.04117e-05
104 *367:140 *369:132 0.000118271
105 *367:147 *369:132 0.000290226
106 *367:156 *369:132 0.000185643
107 *367:156 *369:139 0.000436161
108 *367:163 *369:139 0.000182003
109 *367:163 *369:146 0.000480018
*RES
1 *3640:X *369:12 20.7821 
2 *369:12 *369:24 28.2679 
3 *369:24 *3627:C 9.3 
4 *369:24 *369:31 27.2321 
5 *369:31 *3599:B 19.0321 
6 *369:31 *369:44 28.4643 
7 *369:44 *3610:C 9.3 
8 *369:44 *369:51 7.10714 
9 *369:51 *3611:C 9.3 
10 *369:51 *369:72 18.7165 
11 *369:72 *3612:C 9.3 
12 *369:72 *369:83 7.25 
13 *369:83 *369:97 18.0213 
14 *369:97 *3614:C 9.3 
15 *369:97 *369:104 7.10714 
16 *369:104 *3615:C 9.3 
17 *369:104 *369:117 16.7321 
18 *369:117 *3616:C 9.3 
19 *369:117 *369:132 18.1964 
20 *369:132 *3617:C 9.3 
21 *369:132 *369:139 5.875 
22 *369:139 *3618:C 9.3 
23 *369:139 *369:146 6.69643 
24 *369:146 *3619:C 9.3 
25 *369:146 *369:153 6.69643 
26 *369:153 *3620:C 19.9429 
27 *369:153 *3621:C 15.9964 
28 *369:83 *3613:C 9.83571 
29 *369:12 *3639:A 9.3 
*END

*D_NET *370 0.014537
*CONN
*I *3609:B I *D sky130_fd_sc_hd__and4b_2
*I *3631:B I *D sky130_fd_sc_hd__and4b_1
*I *3626:B I *D sky130_fd_sc_hd__and4b_1
*I *3630:B I *D sky130_fd_sc_hd__and4b_1
*I *3628:B I *D sky130_fd_sc_hd__and4b_1
*I *3629:B I *D sky130_fd_sc_hd__and4b_1
*I *3600:B I *D sky130_fd_sc_hd__and4b_1
*I *3601:B I *D sky130_fd_sc_hd__and4b_1
*I *3602:B I *D sky130_fd_sc_hd__and4b_1
*I *3604:B I *D sky130_fd_sc_hd__and4b_1
*I *3607:B I *D sky130_fd_sc_hd__and4b_2
*I *3605:B I *D sky130_fd_sc_hd__and4b_1
*I *3603:B I *D sky130_fd_sc_hd__and4b_1
*I *3606:B I *D sky130_fd_sc_hd__and4b_2
*I *3608:B I *D sky130_fd_sc_hd__and4b_2
*I *3641:X O *D sky130_fd_sc_hd__clkbuf_2
*CAP
1 *3609:B 8.01606e-05
2 *3631:B 0.000134237
3 *3626:B 0.000352576
4 *3630:B 0
5 *3628:B 0.000283215
6 *3629:B 7.15594e-05
7 *3600:B 0.000182547
8 *3601:B 0
9 *3602:B 0
10 *3604:B 4.20184e-05
11 *3607:B 4.86742e-05
12 *3605:B 1.91209e-05
13 *3603:B 0.000426821
14 *3606:B 0
15 *3608:B 4.53268e-05
16 *3641:X 0.000131636
17 *370:146 0.000319331
18 *370:142 0.000816544
19 *370:127 0.00072195
20 *370:110 0.000405085
21 *370:108 0.000269045
22 *370:101 0.000452209
23 *370:94 0.000420186
24 *370:81 0.000369452
25 *370:44 0.000618855
26 *370:38 0.000419209
27 *370:30 0.000455358
28 *370:23 9.17394e-05
29 *370:14 0.000171908
30 *370:10 0.000279726
31 *3626:B *371:31 1.89554e-05
32 *3628:B *3627:B 4.84147e-05
33 *388:DIODE *370:81 5.52302e-05
34 *388:DIODE *370:94 4.18895e-05
35 *447:DIODE *3603:B 0
36 *447:DIODE *370:38 4.98055e-06
37 *447:DIODE *370:44 6.8646e-06
38 *3600:C *3600:B 0.000267917
39 *3602:D *370:94 9.71197e-05
40 *3602:D *370:101 9.5172e-05
41 *3603:D *3603:B 5.33005e-05
42 *3604:A_N *370:38 1.33809e-05
43 *3605:A_N *370:38 6.58968e-05
44 *3605:A_N *370:44 9.80173e-05
45 *3605:D *3603:B 1.14548e-05
46 *3606:D *370:38 4.11173e-05
47 *3607:A_N *370:38 4.75812e-05
48 *3607:C *3607:B 6.05161e-06
49 *3607:D *370:38 1.76135e-05
50 *3607:D *370:44 8.68665e-05
51 *3608:C *3608:B 0.000139907
52 *3608:C *370:23 0.000219711
53 *3608:C *370:30 5.33005e-05
54 *3608:D *370:10 0.000217477
55 *3608:D *370:14 3.37708e-05
56 *3609:C *3609:B 5.33005e-05
57 *3628:A_N *3626:B 6.87834e-06
58 *3628:C *3626:B 9.54798e-06
59 *3628:C *3628:B 0
60 *3630:A_N *3626:B 3.51532e-05
61 *3630:D *3628:B 2.83284e-06
62 *3630:D *370:146 3.7374e-06
63 *3665:A *3600:B 1.02532e-05
64 *3822:A *3603:B 4.84692e-05
65 *3822:A *370:44 4.29414e-05
66 *116:27 *370:38 1.28443e-05
67 *119:55 *370:10 6.95627e-05
68 *124:25 *3626:B 0
69 *124:44 *3628:B 6.12391e-06
70 *142:37 *3600:B 3.32054e-05
71 *142:37 *370:127 4.67962e-05
72 *143:63 *3604:B 7.29712e-05
73 *144:25 *370:10 6.44086e-05
74 *144:25 *370:14 9.23883e-05
75 *278:22 *370:38 0.000117189
76 *278:22 *370:44 0.000146474
77 *300:22 *3604:B 7.29712e-05
78 *312:32 *3607:B 1.21258e-05
79 *312:32 *3626:B 4.6025e-06
80 *315:26 *3600:B 4.60232e-06
81 *315:26 *370:127 1.44633e-05
82 *315:32 *3626:B 9.25014e-06
83 *328:16 *3609:B 8.25843e-06
84 *328:16 *370:127 0.00055655
85 *328:16 *370:142 0.000167421
86 *328:18 *3626:B 0.000207274
87 *328:18 *370:142 0.000137561
88 *329:46 *370:127 2.22594e-05
89 *331:24 *3628:B 5.35686e-05
90 *333:20 *3603:B 0.000137983
91 *336:28 *3603:B 0.00019034
92 *336:28 *370:23 0.000178847
93 *336:28 *370:30 8.36572e-05
94 *336:28 *370:81 0.000104055
95 *363:24 *3600:B 0.000185588
96 *366:21 *3608:B 0.000105163
97 *366:21 *370:23 1.54142e-05
98 *367:31 *3628:B 0.000151901
99 *367:31 *370:146 7.54141e-05
100 *367:49 *3628:B 4.22986e-05
101 *368:106 *370:101 0.000296985
102 *368:106 *370:108 4.18895e-05
103 *368:113 *3631:B 8.36572e-05
104 *368:113 *370:108 0.000137983
105 *368:130 *3631:B 9.60875e-05
106 *368:155 *3629:B 0.000115446
107 *368:155 *370:142 6.99044e-05
108 *368:155 *370:146 5.25337e-05
109 *368:166 *3626:B 0.000202826
110 *369:24 *3629:B 9.60227e-05
111 *369:24 *370:127 0.00055655
*RES
1 *3641:X *370:10 17.1929 
2 *370:10 *370:14 5.83929 
3 *370:14 *3608:B 11.0679 
4 *370:14 *370:23 2.17857 
5 *370:23 *3606:B 9.3 
6 *370:23 *370:30 0.946429 
7 *370:30 *370:38 8.92857 
8 *370:38 *370:44 8.51786 
9 *370:44 *3603:B 24.8179 
10 *370:44 *3605:B 9.72857 
11 *370:38 *3607:B 14.3357 
12 *370:30 *370:81 3.01786 
13 *370:81 *3604:B 19.3357 
14 *370:81 *370:94 1.35714 
15 *370:94 *3602:B 9.3 
16 *370:94 *370:101 4.23214 
17 *370:101 *3601:B 9.3 
18 *370:101 *370:108 1.76786 
19 *370:108 *370:110 4.5 
20 *370:110 *3600:B 17.8714 
21 *370:110 *370:127 16.1071 
22 *370:127 *3629:B 15.4429 
23 *370:127 *370:142 10.1786 
24 *370:142 *370:146 5.53571 
25 *370:146 *3628:B 18.4786 
26 *370:146 *3630:B 13.8 
27 *370:142 *3626:B 23.9429 
28 *370:108 *3631:B 11.0679 
29 *370:10 *3609:B 14.7464 
*END

*D_NET *371 0.0373511
*CONN
*I *3613:B I *D sky130_fd_sc_hd__and4b_1
*I *3621:B I *D sky130_fd_sc_hd__and4b_1
*I *3620:B I *D sky130_fd_sc_hd__and4b_1
*I *3619:B I *D sky130_fd_sc_hd__and4b_1
*I *3618:B I *D sky130_fd_sc_hd__and4b_1
*I *3617:B I *D sky130_fd_sc_hd__and4b_1
*I *3616:B I *D sky130_fd_sc_hd__and4b_1
*I *3615:B I *D sky130_fd_sc_hd__and4b_1
*I *3614:B I *D sky130_fd_sc_hd__and4b_1
*I *3612:B I *D sky130_fd_sc_hd__and4b_1
*I *3611:B I *D sky130_fd_sc_hd__and4b_1
*I *3610:B I *D sky130_fd_sc_hd__and4b_1
*I *3599:A I *D sky130_fd_sc_hd__and2_4
*I *3627:B I *D sky130_fd_sc_hd__and4b_1
*I *3641:A I *D sky130_fd_sc_hd__clkbuf_2
*I *3642:X O *D sky130_fd_sc_hd__clkbuf_4
*CAP
1 *3613:B 4.36973e-05
2 *3621:B 0.000502903
3 *3620:B 6.6727e-05
4 *3619:B 0
5 *3618:B 0
6 *3617:B 0
7 *3616:B 0
8 *3615:B 0
9 *3614:B 0
10 *3612:B 0
11 *3611:B 0
12 *3610:B 0
13 *3599:A 0
14 *3627:B 0.000276998
15 *3641:A 0.000417915
16 *3642:X 0
17 *371:146 0.00107117
18 *371:139 0.000958718
19 *371:132 0.000857553
20 *371:125 0.000918661
21 *371:118 0.000678982
22 *371:109 0.000304119
23 *371:102 0.000719489
24 *371:86 0.00111058
25 *371:79 0.00083594
26 *371:70 0.000457756
27 *371:63 0.000681308
28 *371:54 0.00241582
29 *371:31 0.00342952
30 *371:4 0.0017233
31 *385:DIODE *371:70 9.90367e-05
32 *3597:A *371:54 0
33 *3599:B *371:54 5.63498e-05
34 *3611:D *371:70 9.90431e-05
35 *3611:D *371:79 9.65886e-05
36 *3612:D *371:86 2.3541e-05
37 *3613:C *3613:B 6.05161e-06
38 *3620:C *3620:B 7.29712e-05
39 *3621:C *3621:B 0.000644338
40 *3626:B *371:31 1.89554e-05
41 *3628:B *3627:B 4.84147e-05
42 *3630:D *3627:B 6.05161e-06
43 *3642:A *3641:A 5.49544e-05
44 *3713:A *371:79 9.22103e-06
45 *3868:A *3627:B 5.24182e-05
46 *114:21 *371:31 0
47 *119:29 *371:102 2.95642e-05
48 *119:41 *371:102 5.33005e-05
49 *119:55 *3627:B 5.47001e-05
50 *119:55 *371:31 0.000134869
51 *119:55 *371:54 0.00257362
52 *123:27 *371:102 0.000114854
53 *124:25 *371:31 0
54 *124:29 *3627:B 5.65955e-05
55 *143:59 *371:31 0
56 *164:26 *371:102 0.00014021
57 *170:42 *3641:A 8.58049e-05
58 *170:52 *371:31 4.37027e-05
59 *192:16 *371:63 0.000614039
60 *214:32 *371:102 5.94868e-05
61 *244:20 *371:102 0.000192488
62 *312:40 *371:63 0.00107957
63 *312:54 *371:63 0.000229207
64 *315:32 *371:31 3.08878e-05
65 *322:26 *371:102 3.37708e-05
66 *327:63 *3641:A 0.000271352
67 *327:63 *371:31 0.000276163
68 *328:18 *3627:B 6.46289e-06
69 *329:60 *371:31 0.000119056
70 *332:28 *371:54 2.53281e-05
71 *337:20 *371:31 0.00105825
72 *366:145 *3627:B 5.49489e-05
73 *367:31 *371:31 2.89272e-05
74 *367:74 *371:63 2.96677e-05
75 *367:74 *371:70 0.000382459
76 *367:95 *371:79 0.000454113
77 *367:99 *371:79 4.7812e-05
78 *367:99 *371:86 7.92229e-06
79 *367:112 *371:102 0.000163915
80 *367:121 *371:102 0.000143375
81 *367:121 *371:109 0.000599097
82 *367:140 *371:109 0.000142856
83 *367:140 *371:118 0.000771971
84 *368:166 *3627:B 3.90661e-05
85 *368:166 *371:31 7.22944e-05
86 *369:12 *3641:A 1.58163e-05
87 *369:44 *371:63 0.00289146
88 *369:44 *371:70 5.49544e-05
89 *369:51 *371:70 0.000696649
90 *369:51 *371:79 5.52238e-05
91 *369:72 *371:79 4.08637e-05
92 *369:83 *3613:B 2.14658e-05
93 *369:83 *371:86 0.000337354
94 *369:104 *371:109 0.00069769
95 *369:104 *371:118 5.71472e-05
96 *369:117 *371:118 0.000687295
97 *369:132 *371:125 0.000758786
98 *369:132 *371:132 4.38128e-05
99 *369:139 *371:132 0.000575499
100 *369:139 *371:139 4.27935e-05
101 *369:146 *371:139 0.000664635
102 *369:146 *371:146 4.38128e-05
103 *369:153 *3621:B 4.17433e-05
104 *369:153 *371:146 0.000643299
*RES
1 *3642:X *371:4 9.3 
2 *371:4 *3641:A 17.3893 
3 *371:4 *371:31 23.1776 
4 *371:31 *3627:B 22.6571 
5 *371:31 *371:54 35.4107 
6 *371:54 *3599:A 9.3 
7 *371:54 *371:63 28.0714 
8 *371:63 *3610:B 9.3 
9 *371:63 *371:70 7.10714 
10 *371:70 *3611:B 9.3 
11 *371:70 *371:79 7.53571 
12 *371:79 *3612:B 9.3 
13 *371:79 *371:86 6.69643 
14 *371:86 *371:102 29.2321 
15 *371:102 *3614:B 9.3 
16 *371:102 *371:109 7.10714 
17 *371:109 *3615:B 9.3 
18 *371:109 *371:118 7.94643 
19 *371:118 *3616:B 9.3 
20 *371:118 *371:125 7.51786 
21 *371:125 *3617:B 9.3 
22 *371:125 *371:132 5.875 
23 *371:132 *3618:B 9.3 
24 *371:132 *371:139 6.69643 
25 *371:139 *3619:B 9.3 
26 *371:139 *371:146 6.69643 
27 *371:146 *3620:B 19.3357 
28 *371:146 *3621:B 15.9964 
29 *371:86 *3613:B 9.83571 
*END

*D_NET *372 0.0521785
*CONN
*I *3749:A I *D sky130_fd_sc_hd__dlygate4sd3_1
*I *3840:X O *D sky130_fd_sc_hd__buf_4
*CAP
1 *3749:A 0.00372855
2 *3840:X 0.00505504
3 *372:14 0.00878358
4 *3746:A *3749:A 0.00731758
5 *113:27 *372:14 0.00240061
6 *134:11 *3749:A 0.00103878
7 *141:19 *372:14 0.00558539
8 *223:8 *3749:A 2.79421e-05
9 *258:18 *372:14 0.00186399
10 *270:34 *372:14 0
11 *270:36 *3749:A 0.000260071
12 *306:60 *3749:A 0.0013736
13 *308:16 *3749:A 0.000511681
14 *339:40 *3749:A 3.88429e-05
15 *339:40 *372:14 1.97654e-05
16 *350:14 *372:14 0.0141407
17 *364:34 *372:14 3.23542e-05
*RES
1 *3840:X *372:14 45.2401 
2 *372:14 *3749:A 41.0266 
*END

*D_NET *373 0.00150705
*CONN
*I *3781:SM I *D CF_SRAM_1024x32
*I *3782:LO O *D sky130_fd_sc_hd__conb_1
*CAP
1 *3781:SM 0.000753523
2 *3782:LO 0.000753523
3 *3781:SM *3781:WLOFF 0
4 *3781:SM *3781:ScanInDR 0
*RES
1 *3782:LO *3781:SM 20.6705 
*END

*D_NET *374 0.00220362
*CONN
*I *3781:ScanInCC I *D CF_SRAM_1024x32
*I *3783:LO O *D sky130_fd_sc_hd__conb_1
*CAP
1 *3781:ScanInCC 0.000555606
2 *3783:LO 0.000555606
3 *3781:AD[3] *3781:ScanInCC 0.00107907
4 *113:9 *3781:ScanInCC 0
5 *226:25 *3781:ScanInCC 1.33343e-05
*RES
1 *3783:LO *3781:ScanInCC 20.6304 
*END

*D_NET *375 0.00172936
*CONN
*I *3781:ScanInDL I *D CF_SRAM_1024x32
*I *3784:LO O *D sky130_fd_sc_hd__conb_1
*CAP
1 *3781:ScanInDL 0.000794466
2 *3784:LO 0.000794466
3 *3781:DI[0] *3781:ScanInDL 0.000140431
4 *113:9 *3781:ScanInDL 0
*RES
1 *3784:LO *3781:ScanInDL 21.3625 
*END

*D_NET *376 0.00186224
*CONN
*I *3781:ScanInDR I *D CF_SRAM_1024x32
*I *3785:LO O *D sky130_fd_sc_hd__conb_1
*CAP
1 *3781:ScanInDR 0.000635812
2 *3785:LO 0.000635812
3 *3781:SM *3781:ScanInDR 0
4 *120:16 *3781:ScanInDR 0.000590615
*RES
1 *3785:LO *3781:ScanInDR 21.5857 
*END

*D_NET *377 0.00276181
*CONN
*I *3781:TM I *D CF_SRAM_1024x32
*I *3786:LO O *D sky130_fd_sc_hd__conb_1
*CAP
1 *3781:TM 0.000660761
2 *3786:LO 0.000660761
3 *3781:TM *3781:WLBI 1.86074e-05
4 *3781:DI[17] *3781:TM 0.000262679
5 *121:20 *3781:TM 0.000955214
6 *248:27 *3781:TM 0.000203787
*RES
1 *3786:LO *3781:TM 32.0946 
*END

*D_NET *378 0.00209367
*CONN
*I *3781:WLBI I *D CF_SRAM_1024x32
*I *3787:LO O *D sky130_fd_sc_hd__conb_1
*CAP
1 *3781:WLBI 0.000688979
2 *3787:LO 0.000688979
3 *3781:TM *3781:WLBI 1.86074e-05
4 *121:20 *3781:WLBI 0.000697104
5 *248:27 *3781:WLBI 0
*RES
1 *3787:LO *3781:WLBI 22.9473 
*END

*D_NET *379 0.00182157
*CONN
*I *3781:WLOFF I *D CF_SRAM_1024x32
*I *3788:LO O *D sky130_fd_sc_hd__conb_1
*CAP
1 *3781:WLOFF 0.000820599
2 *3788:LO 0.000820599
3 *3781:EN *3781:WLOFF 8.25976e-05
4 *3781:R_WB *3781:WLOFF 0
5 *3781:SM *3781:WLOFF 0
6 *128:11 *3781:WLOFF 9.77731e-05
*RES
1 *3788:LO *3781:WLOFF 31.4473 
*END

*D_NET *380 0.0432459
*CONN
*I *3781:vpwrac I *D CF_SRAM_1024x32
*I *3789:HI O *D sky130_fd_sc_hd__conb_1
*CAP
1 *3781:vpwrac 0.00579465
2 *3789:HI 6.47284e-05
3 *380:14 0.00585938
4 *3781:vpwrac *3781:vpwrpc 0.00729186
5 *3776:A *3781:vpwrac 0.0102114
6 *3781:BEN[15] *3781:vpwrac 0.00216998
7 *115:25 *3781:vpwrac 0.00169817
8 *126:27 *3781:vpwrac 6.34565e-05
9 *138:31 *3781:vpwrac 0.000369378
10 *160:14 *380:14 2.11419e-05
11 *188:18 *3781:vpwrac 0.0001051
12 *217:10 *3781:vpwrac 0.000135432
13 *228:10 *3781:vpwrac 0.000146512
14 *228:10 *380:14 2.26973e-05
15 *230:20 *3781:vpwrac 0.00341547
16 *234:10 *3781:vpwrac 0.00100238
17 *234:30 *3781:vpwrac 0.000173055
18 *239:8 *3781:vpwrac 0.00119984
19 *239:24 *3781:vpwrac 0.00028578
20 *292:22 *3781:vpwrac 0.00133159
21 *303:32 *3781:vpwrac 0.000703054
22 *328:50 *3781:vpwrac 0.00118081
*RES
1 *3789:HI *380:14 20.9798 
2 *380:14 *3781:vpwrac 43.6432 
*END

*D_NET *381 0.0459499
*CONN
*I *3781:vpwrpc I *D CF_SRAM_1024x32
*I *3790:HI O *D sky130_fd_sc_hd__conb_1
*CAP
1 *3781:vpwrpc 0.00780966
2 *3790:HI 9.46933e-05
3 *381:14 0.00790435
4 *3722:A *3781:vpwrpc 0.000409708
5 *3751:A *3781:vpwrpc 0.00568844
6 *3776:A *3781:vpwrpc 4.88584e-05
7 *3781:BEN[15] *3781:vpwrpc 2.72212e-05
8 *3781:DI[3] *3781:vpwrpc 0.000121805
9 *3781:DI[14] *3781:vpwrpc 0.000230454
10 *3781:DI[15] *3781:vpwrpc 0.00169807
11 *3781:vpwrac *3781:vpwrpc 0.00729186
12 *110:35 *3781:vpwrpc 0.000396192
13 *115:25 *3781:vpwrpc 0.00169382
14 *119:13 *3781:vpwrpc 0.000245429
15 *119:19 *3781:vpwrpc 0.000108085
16 *126:27 *3781:vpwrpc 0.00213554
17 *133:27 *3781:vpwrpc 0.0010183
18 *139:19 *3781:vpwrpc 0
19 *143:53 *3781:vpwrpc 0.000122494
20 *162:20 *3781:vpwrpc 0.00014281
21 *168:10 *3781:vpwrpc 0.000408162
22 *175:8 *3781:vpwrpc 0.000105199
23 *195:28 *3781:vpwrpc 0.000574151
24 *212:10 *3781:vpwrpc 0.000689164
25 *212:20 *381:14 2.11419e-05
26 *219:50 *3781:vpwrpc 0.00128819
27 *221:8 *3781:vpwrpc 0.00133807
28 *226:10 *3781:vpwrpc 0.000817786
29 *226:20 *3781:vpwrpc 0.000474055
30 *234:30 *3781:vpwrpc 0.000184786
31 *239:24 *381:14 2.26973e-05
32 *251:8 *3781:vpwrpc 0.00023328
33 *281:72 *3781:vpwrpc 0.00110021
34 *301:18 *3781:vpwrpc 0.000132088
35 *302:26 *3781:vpwrpc 0.000402469
36 *303:32 *3781:vpwrpc 0.000404578
37 *303:38 *3781:vpwrpc 0.000333018
38 *339:40 *3781:vpwrpc 0.000233057
*RES
1 *3790:HI *381:14 21.0519 
2 *381:14 *3781:vpwrpc 46.112 
*END

*D_NET *382 0.000126884
*CONN
*I *3801:A I *D sky130_fd_sc_hd__buf_2
*I *3643:X O *D sky130_fd_sc_hd__dlygate4sd3_1
*CAP
1 *3801:A 6.29488e-06
2 *3643:X 6.29488e-06
3 *236:22 *3801:A 5.71472e-05
4 *339:18 *3801:A 5.71472e-05
*RES
1 *3643:X *3801:A 19.1357 
*END
