*SPEF "ieee 1481-1999"
*DESIGN "user_project_wrapper"
*DATE "07:11:40 Wednesday September 30, 2026"
*VENDOR "The OpenROAD Project"
*PROGRAM "OpenROAD"
*VERSION "edf00dff99f6c40d67a30c0e22a8191c5d2ed9d6"
*DESIGN_FLOW "NAME_SCOPE LOCAL" "PIN_CAP NONE"
*DIVIDER /
*DELIMITER :
*BUS_DELIMITER []
*T_UNIT 1 NS
*C_UNIT 1 PF
*R_UNIT 1 OHM
*L_UNIT 1 HENRY

*NAME_MAP
*1 analog_io[0]
*2 analog_io[10]
*3 analog_io[11]
*4 analog_io[12]
*5 analog_io[13]
*6 analog_io[14]
*7 analog_io[15]
*8 analog_io[16]
*9 analog_io[17]
*10 analog_io[18]
*11 analog_io[19]
*12 analog_io[1]
*13 analog_io[20]
*14 analog_io[21]
*15 analog_io[22]
*16 analog_io[23]
*17 analog_io[24]
*18 analog_io[25]
*19 analog_io[26]
*20 analog_io[27]
*21 analog_io[28]
*22 analog_io[2]
*23 analog_io[3]
*24 analog_io[4]
*25 analog_io[5]
*26 analog_io[6]
*27 analog_io[7]
*28 analog_io[8]
*29 analog_io[9]
*30 io_in[0]
*31 io_in[10]
*32 io_in[11]
*33 io_in[12]
*34 io_in[13]
*35 io_in[14]
*36 io_in[15]
*37 io_in[16]
*38 io_in[17]
*39 io_in[18]
*40 io_in[19]
*41 io_in[1]
*42 io_in[20]
*43 io_in[21]
*44 io_in[22]
*45 io_in[23]
*46 io_in[24]
*47 io_in[25]
*48 io_in[26]
*49 io_in[27]
*50 io_in[28]
*51 io_in[29]
*52 io_in[2]
*53 io_in[30]
*54 io_in[31]
*55 io_in[32]
*56 io_in[33]
*57 io_in[34]
*58 io_in[35]
*59 io_in[36]
*60 io_in[37]
*61 io_in[3]
*62 io_in[4]
*63 io_in[5]
*64 io_in[6]
*65 io_in[7]
*66 io_in[8]
*67 io_in[9]
*68 io_oeb[0]
*69 io_oeb[10]
*70 io_oeb[11]
*71 io_oeb[12]
*72 io_oeb[13]
*73 io_oeb[14]
*74 io_oeb[15]
*75 io_oeb[16]
*76 io_oeb[17]
*77 io_oeb[18]
*78 io_oeb[19]
*79 io_oeb[1]
*80 io_oeb[20]
*81 io_oeb[21]
*82 io_oeb[22]
*83 io_oeb[23]
*84 io_oeb[24]
*85 io_oeb[25]
*86 io_oeb[26]
*87 io_oeb[27]
*88 io_oeb[28]
*89 io_oeb[29]
*90 io_oeb[2]
*91 io_oeb[30]
*92 io_oeb[31]
*93 io_oeb[32]
*94 io_oeb[33]
*95 io_oeb[34]
*96 io_oeb[35]
*97 io_oeb[36]
*98 io_oeb[37]
*99 io_oeb[3]
*100 io_oeb[4]
*101 io_oeb[5]
*102 io_oeb[6]
*103 io_oeb[7]
*104 io_oeb[8]
*105 io_oeb[9]
*106 io_out[0]
*107 io_out[10]
*108 io_out[11]
*109 io_out[12]
*110 io_out[13]
*111 io_out[14]
*112 io_out[15]
*113 io_out[16]
*114 io_out[17]
*115 io_out[18]
*116 io_out[19]
*117 io_out[1]
*118 io_out[20]
*119 io_out[21]
*120 io_out[22]
*121 io_out[23]
*122 io_out[24]
*123 io_out[25]
*124 io_out[26]
*125 io_out[27]
*126 io_out[28]
*127 io_out[29]
*128 io_out[2]
*129 io_out[30]
*130 io_out[31]
*131 io_out[32]
*132 io_out[33]
*133 io_out[34]
*134 io_out[35]
*135 io_out[36]
*136 io_out[37]
*137 io_out[3]
*138 io_out[4]
*139 io_out[5]
*140 io_out[6]
*141 io_out[7]
*142 io_out[8]
*143 io_out[9]
*144 la_data_in[0]
*145 la_data_in[100]
*146 la_data_in[101]
*147 la_data_in[102]
*148 la_data_in[103]
*149 la_data_in[104]
*150 la_data_in[105]
*151 la_data_in[106]
*152 la_data_in[107]
*153 la_data_in[108]
*154 la_data_in[109]
*155 la_data_in[10]
*156 la_data_in[110]
*157 la_data_in[111]
*158 la_data_in[112]
*159 la_data_in[113]
*160 la_data_in[114]
*161 la_data_in[115]
*162 la_data_in[116]
*163 la_data_in[117]
*164 la_data_in[118]
*165 la_data_in[119]
*166 la_data_in[11]
*167 la_data_in[120]
*168 la_data_in[121]
*169 la_data_in[122]
*170 la_data_in[123]
*171 la_data_in[124]
*172 la_data_in[125]
*173 la_data_in[126]
*174 la_data_in[127]
*175 la_data_in[12]
*176 la_data_in[13]
*177 la_data_in[14]
*178 la_data_in[15]
*179 la_data_in[16]
*180 la_data_in[17]
*181 la_data_in[18]
*182 la_data_in[19]
*183 la_data_in[1]
*184 la_data_in[20]
*185 la_data_in[21]
*186 la_data_in[22]
*187 la_data_in[23]
*188 la_data_in[24]
*189 la_data_in[25]
*190 la_data_in[26]
*191 la_data_in[27]
*192 la_data_in[28]
*193 la_data_in[29]
*194 la_data_in[2]
*195 la_data_in[30]
*196 la_data_in[31]
*197 la_data_in[32]
*198 la_data_in[33]
*199 la_data_in[34]
*200 la_data_in[35]
*201 la_data_in[36]
*202 la_data_in[37]
*203 la_data_in[38]
*204 la_data_in[39]
*205 la_data_in[3]
*206 la_data_in[40]
*207 la_data_in[41]
*208 la_data_in[42]
*209 la_data_in[43]
*210 la_data_in[44]
*211 la_data_in[45]
*212 la_data_in[46]
*213 la_data_in[47]
*214 la_data_in[48]
*215 la_data_in[49]
*216 la_data_in[4]
*217 la_data_in[50]
*218 la_data_in[51]
*219 la_data_in[52]
*220 la_data_in[53]
*221 la_data_in[54]
*222 la_data_in[55]
*223 la_data_in[56]
*224 la_data_in[57]
*225 la_data_in[58]
*226 la_data_in[59]
*227 la_data_in[5]
*228 la_data_in[60]
*229 la_data_in[61]
*230 la_data_in[62]
*231 la_data_in[63]
*232 la_data_in[64]
*233 la_data_in[65]
*234 la_data_in[66]
*235 la_data_in[67]
*236 la_data_in[68]
*237 la_data_in[69]
*238 la_data_in[6]
*239 la_data_in[70]
*240 la_data_in[71]
*241 la_data_in[72]
*242 la_data_in[73]
*243 la_data_in[74]
*244 la_data_in[75]
*245 la_data_in[76]
*246 la_data_in[77]
*247 la_data_in[78]
*248 la_data_in[79]
*249 la_data_in[7]
*250 la_data_in[80]
*251 la_data_in[81]
*252 la_data_in[82]
*253 la_data_in[83]
*254 la_data_in[84]
*255 la_data_in[85]
*256 la_data_in[86]
*257 la_data_in[87]
*258 la_data_in[88]
*259 la_data_in[89]
*260 la_data_in[8]
*261 la_data_in[90]
*262 la_data_in[91]
*263 la_data_in[92]
*264 la_data_in[93]
*265 la_data_in[94]
*266 la_data_in[95]
*267 la_data_in[96]
*268 la_data_in[97]
*269 la_data_in[98]
*270 la_data_in[99]
*271 la_data_in[9]
*272 la_data_out[0]
*273 la_data_out[100]
*274 la_data_out[101]
*275 la_data_out[102]
*276 la_data_out[103]
*277 la_data_out[104]
*278 la_data_out[105]
*279 la_data_out[106]
*280 la_data_out[107]
*281 la_data_out[108]
*282 la_data_out[109]
*283 la_data_out[10]
*284 la_data_out[110]
*285 la_data_out[111]
*286 la_data_out[112]
*287 la_data_out[113]
*288 la_data_out[114]
*289 la_data_out[115]
*290 la_data_out[116]
*291 la_data_out[117]
*292 la_data_out[118]
*293 la_data_out[119]
*294 la_data_out[11]
*295 la_data_out[120]
*296 la_data_out[121]
*297 la_data_out[122]
*298 la_data_out[123]
*299 la_data_out[124]
*300 la_data_out[125]
*301 la_data_out[126]
*302 la_data_out[127]
*303 la_data_out[12]
*304 la_data_out[13]
*305 la_data_out[14]
*306 la_data_out[15]
*307 la_data_out[16]
*308 la_data_out[17]
*309 la_data_out[18]
*310 la_data_out[19]
*311 la_data_out[1]
*312 la_data_out[20]
*313 la_data_out[21]
*314 la_data_out[22]
*315 la_data_out[23]
*316 la_data_out[24]
*317 la_data_out[25]
*318 la_data_out[26]
*319 la_data_out[27]
*320 la_data_out[28]
*321 la_data_out[29]
*322 la_data_out[2]
*323 la_data_out[30]
*324 la_data_out[31]
*325 la_data_out[32]
*326 la_data_out[33]
*327 la_data_out[34]
*328 la_data_out[35]
*329 la_data_out[36]
*330 la_data_out[37]
*331 la_data_out[38]
*332 la_data_out[39]
*333 la_data_out[3]
*334 la_data_out[40]
*335 la_data_out[41]
*336 la_data_out[42]
*337 la_data_out[43]
*338 la_data_out[44]
*339 la_data_out[45]
*340 la_data_out[46]
*341 la_data_out[47]
*342 la_data_out[48]
*343 la_data_out[49]
*344 la_data_out[4]
*345 la_data_out[50]
*346 la_data_out[51]
*347 la_data_out[52]
*348 la_data_out[53]
*349 la_data_out[54]
*350 la_data_out[55]
*351 la_data_out[56]
*352 la_data_out[57]
*353 la_data_out[58]
*354 la_data_out[59]
*355 la_data_out[5]
*356 la_data_out[60]
*357 la_data_out[61]
*358 la_data_out[62]
*359 la_data_out[63]
*360 la_data_out[64]
*361 la_data_out[65]
*362 la_data_out[66]
*363 la_data_out[67]
*364 la_data_out[68]
*365 la_data_out[69]
*366 la_data_out[6]
*367 la_data_out[70]
*368 la_data_out[71]
*369 la_data_out[72]
*370 la_data_out[73]
*371 la_data_out[74]
*372 la_data_out[75]
*373 la_data_out[76]
*374 la_data_out[77]
*375 la_data_out[78]
*376 la_data_out[79]
*377 la_data_out[7]
*378 la_data_out[80]
*379 la_data_out[81]
*380 la_data_out[82]
*381 la_data_out[83]
*382 la_data_out[84]
*383 la_data_out[85]
*384 la_data_out[86]
*385 la_data_out[87]
*386 la_data_out[88]
*387 la_data_out[89]
*388 la_data_out[8]
*389 la_data_out[90]
*390 la_data_out[91]
*391 la_data_out[92]
*392 la_data_out[93]
*393 la_data_out[94]
*394 la_data_out[95]
*395 la_data_out[96]
*396 la_data_out[97]
*397 la_data_out[98]
*398 la_data_out[99]
*399 la_data_out[9]
*400 la_oenb[0]
*401 la_oenb[100]
*402 la_oenb[101]
*403 la_oenb[102]
*404 la_oenb[103]
*405 la_oenb[104]
*406 la_oenb[105]
*407 la_oenb[106]
*408 la_oenb[107]
*409 la_oenb[108]
*410 la_oenb[109]
*411 la_oenb[10]
*412 la_oenb[110]
*413 la_oenb[111]
*414 la_oenb[112]
*415 la_oenb[113]
*416 la_oenb[114]
*417 la_oenb[115]
*418 la_oenb[116]
*419 la_oenb[117]
*420 la_oenb[118]
*421 la_oenb[119]
*422 la_oenb[11]
*423 la_oenb[120]
*424 la_oenb[121]
*425 la_oenb[122]
*426 la_oenb[123]
*427 la_oenb[124]
*428 la_oenb[125]
*429 la_oenb[126]
*430 la_oenb[127]
*431 la_oenb[12]
*432 la_oenb[13]
*433 la_oenb[14]
*434 la_oenb[15]
*435 la_oenb[16]
*436 la_oenb[17]
*437 la_oenb[18]
*438 la_oenb[19]
*439 la_oenb[1]
*440 la_oenb[20]
*441 la_oenb[21]
*442 la_oenb[22]
*443 la_oenb[23]
*444 la_oenb[24]
*445 la_oenb[25]
*446 la_oenb[26]
*447 la_oenb[27]
*448 la_oenb[28]
*449 la_oenb[29]
*450 la_oenb[2]
*451 la_oenb[30]
*452 la_oenb[31]
*453 la_oenb[32]
*454 la_oenb[33]
*455 la_oenb[34]
*456 la_oenb[35]
*457 la_oenb[36]
*458 la_oenb[37]
*459 la_oenb[38]
*460 la_oenb[39]
*461 la_oenb[3]
*462 la_oenb[40]
*463 la_oenb[41]
*464 la_oenb[42]
*465 la_oenb[43]
*466 la_oenb[44]
*467 la_oenb[45]
*468 la_oenb[46]
*469 la_oenb[47]
*470 la_oenb[48]
*471 la_oenb[49]
*472 la_oenb[4]
*473 la_oenb[50]
*474 la_oenb[51]
*475 la_oenb[52]
*476 la_oenb[53]
*477 la_oenb[54]
*478 la_oenb[55]
*479 la_oenb[56]
*480 la_oenb[57]
*481 la_oenb[58]
*482 la_oenb[59]
*483 la_oenb[5]
*484 la_oenb[60]
*485 la_oenb[61]
*486 la_oenb[62]
*487 la_oenb[63]
*488 la_oenb[64]
*489 la_oenb[65]
*490 la_oenb[66]
*491 la_oenb[67]
*492 la_oenb[68]
*493 la_oenb[69]
*494 la_oenb[6]
*495 la_oenb[70]
*496 la_oenb[71]
*497 la_oenb[72]
*498 la_oenb[73]
*499 la_oenb[74]
*500 la_oenb[75]
*501 la_oenb[76]
*502 la_oenb[77]
*503 la_oenb[78]
*504 la_oenb[79]
*505 la_oenb[7]
*506 la_oenb[80]
*507 la_oenb[81]
*508 la_oenb[82]
*509 la_oenb[83]
*510 la_oenb[84]
*511 la_oenb[85]
*512 la_oenb[86]
*513 la_oenb[87]
*514 la_oenb[88]
*515 la_oenb[89]
*516 la_oenb[8]
*517 la_oenb[90]
*518 la_oenb[91]
*519 la_oenb[92]
*520 la_oenb[93]
*521 la_oenb[94]
*522 la_oenb[95]
*523 la_oenb[96]
*524 la_oenb[97]
*525 la_oenb[98]
*526 la_oenb[99]
*527 la_oenb[9]
*528 user_clock2
*529 user_irq[0]
*530 user_irq[1]
*531 user_irq[2]
*540 wb_clk_i
*541 wb_rst_i
*542 wbs_ack_o
*543 wbs_adr_i[0]
*544 wbs_adr_i[10]
*545 wbs_adr_i[11]
*546 wbs_adr_i[12]
*547 wbs_adr_i[13]
*548 wbs_adr_i[14]
*549 wbs_adr_i[15]
*550 wbs_adr_i[16]
*551 wbs_adr_i[17]
*552 wbs_adr_i[18]
*553 wbs_adr_i[19]
*554 wbs_adr_i[1]
*555 wbs_adr_i[20]
*556 wbs_adr_i[21]
*557 wbs_adr_i[22]
*558 wbs_adr_i[23]
*559 wbs_adr_i[24]
*560 wbs_adr_i[25]
*561 wbs_adr_i[26]
*562 wbs_adr_i[27]
*563 wbs_adr_i[28]
*564 wbs_adr_i[29]
*565 wbs_adr_i[2]
*566 wbs_adr_i[30]
*567 wbs_adr_i[31]
*568 wbs_adr_i[3]
*569 wbs_adr_i[4]
*570 wbs_adr_i[5]
*571 wbs_adr_i[6]
*572 wbs_adr_i[7]
*573 wbs_adr_i[8]
*574 wbs_adr_i[9]
*575 wbs_cyc_i
*576 wbs_dat_i[0]
*577 wbs_dat_i[10]
*578 wbs_dat_i[11]
*579 wbs_dat_i[12]
*580 wbs_dat_i[13]
*581 wbs_dat_i[14]
*582 wbs_dat_i[15]
*583 wbs_dat_i[16]
*584 wbs_dat_i[17]
*585 wbs_dat_i[18]
*586 wbs_dat_i[19]
*587 wbs_dat_i[1]
*588 wbs_dat_i[20]
*589 wbs_dat_i[21]
*590 wbs_dat_i[22]
*591 wbs_dat_i[23]
*592 wbs_dat_i[24]
*593 wbs_dat_i[25]
*594 wbs_dat_i[26]
*595 wbs_dat_i[27]
*596 wbs_dat_i[28]
*597 wbs_dat_i[29]
*598 wbs_dat_i[2]
*599 wbs_dat_i[30]
*600 wbs_dat_i[31]
*601 wbs_dat_i[3]
*602 wbs_dat_i[4]
*603 wbs_dat_i[5]
*604 wbs_dat_i[6]
*605 wbs_dat_i[7]
*606 wbs_dat_i[8]
*607 wbs_dat_i[9]
*608 wbs_dat_o[0]
*609 wbs_dat_o[10]
*610 wbs_dat_o[11]
*611 wbs_dat_o[12]
*612 wbs_dat_o[13]
*613 wbs_dat_o[14]
*614 wbs_dat_o[15]
*615 wbs_dat_o[16]
*616 wbs_dat_o[17]
*617 wbs_dat_o[18]
*618 wbs_dat_o[19]
*619 wbs_dat_o[1]
*620 wbs_dat_o[20]
*621 wbs_dat_o[21]
*622 wbs_dat_o[22]
*623 wbs_dat_o[23]
*624 wbs_dat_o[24]
*625 wbs_dat_o[25]
*626 wbs_dat_o[26]
*627 wbs_dat_o[27]
*628 wbs_dat_o[28]
*629 wbs_dat_o[29]
*630 wbs_dat_o[2]
*631 wbs_dat_o[30]
*632 wbs_dat_o[31]
*633 wbs_dat_o[3]
*634 wbs_dat_o[4]
*635 wbs_dat_o[5]
*636 wbs_dat_o[6]
*637 wbs_dat_o[7]
*638 wbs_dat_o[8]
*639 wbs_dat_o[9]
*640 wbs_sel_i[0]
*641 wbs_sel_i[1]
*642 wbs_sel_i[2]
*643 wbs_sel_i[3]
*644 wbs_stb_i
*645 wbs_we_i
*646 afe_chopclk
*647 afe_dout\[0\]
*648 afe_dout\[1\]
*649 afe_dout\[2\]
*650 afe_dout\[3\]
*651 afe_dout\[4\]
*652 afe_dout\[5\]
*653 afe_dout\[6\]
*654 afe_dout\[7\]
*655 afe_ibias
*656 afe_nbias
*657 afe_out1
*658 afe_ov_one
*659 afe_ov_zero
*660 afe_scanout
*661 afe_test\[0\]
*662 afe_test\[1\]
*663 afe_test\[2\]
*664 afe_test\[3\]
*665 afe_test\[4\]
*666 afe_test\[5\]
*667 afe_test\[6\]
*668 afe_test\[7\]
*669 afe_test_dig
*670 afe_vref
*671 analog_ctrl\[0\]
*672 analog_ctrl\[100\]
*673 analog_ctrl\[101\]
*674 analog_ctrl\[102\]
*675 analog_ctrl\[103\]
*676 analog_ctrl\[104\]
*677 analog_ctrl\[105\]
*678 analog_ctrl\[106\]
*679 analog_ctrl\[107\]
*680 analog_ctrl\[108\]
*681 analog_ctrl\[109\]
*682 analog_ctrl\[10\]
*683 analog_ctrl\[110\]
*684 analog_ctrl\[111\]
*685 analog_ctrl\[112\]
*686 analog_ctrl\[113\]
*687 analog_ctrl\[114\]
*688 analog_ctrl\[115\]
*689 analog_ctrl\[116\]
*690 analog_ctrl\[117\]
*691 analog_ctrl\[118\]
*692 analog_ctrl\[119\]
*693 analog_ctrl\[11\]
*694 analog_ctrl\[120\]
*695 analog_ctrl\[121\]
*696 analog_ctrl\[122\]
*697 analog_ctrl\[123\]
*698 analog_ctrl\[124\]
*699 analog_ctrl\[125\]
*700 analog_ctrl\[126\]
*701 analog_ctrl\[127\]
*702 analog_ctrl\[128\]
*703 analog_ctrl\[129\]
*704 analog_ctrl\[12\]
*705 analog_ctrl\[130\]
*706 analog_ctrl\[131\]
*707 analog_ctrl\[132\]
*708 analog_ctrl\[133\]
*709 analog_ctrl\[134\]
*710 analog_ctrl\[135\]
*711 analog_ctrl\[136\]
*712 analog_ctrl\[137\]
*713 analog_ctrl\[138\]
*714 analog_ctrl\[139\]
*715 analog_ctrl\[13\]
*716 analog_ctrl\[140\]
*717 analog_ctrl\[141\]
*718 analog_ctrl\[142\]
*719 analog_ctrl\[143\]
*720 analog_ctrl\[144\]
*721 analog_ctrl\[145\]
*722 analog_ctrl\[146\]
*723 analog_ctrl\[147\]
*724 analog_ctrl\[148\]
*725 analog_ctrl\[149\]
*726 analog_ctrl\[14\]
*727 analog_ctrl\[150\]
*728 analog_ctrl\[151\]
*729 analog_ctrl\[152\]
*730 analog_ctrl\[153\]
*731 analog_ctrl\[154\]
*732 analog_ctrl\[155\]
*733 analog_ctrl\[156\]
*734 analog_ctrl\[157\]
*735 analog_ctrl\[158\]
*736 analog_ctrl\[159\]
*737 analog_ctrl\[15\]
*738 analog_ctrl\[160\]
*739 analog_ctrl\[161\]
*740 analog_ctrl\[162\]
*741 analog_ctrl\[163\]
*742 analog_ctrl\[164\]
*743 analog_ctrl\[165\]
*744 analog_ctrl\[166\]
*745 analog_ctrl\[167\]
*746 analog_ctrl\[168\]
*747 analog_ctrl\[169\]
*748 analog_ctrl\[16\]
*749 analog_ctrl\[170\]
*750 analog_ctrl\[171\]
*751 analog_ctrl\[172\]
*752 analog_ctrl\[173\]
*753 analog_ctrl\[174\]
*754 analog_ctrl\[175\]
*755 analog_ctrl\[176\]
*756 analog_ctrl\[177\]
*757 analog_ctrl\[178\]
*758 analog_ctrl\[179\]
*759 analog_ctrl\[17\]
*760 analog_ctrl\[180\]
*761 analog_ctrl\[181\]
*762 analog_ctrl\[182\]
*763 analog_ctrl\[183\]
*764 analog_ctrl\[184\]
*765 analog_ctrl\[185\]
*766 analog_ctrl\[186\]
*767 analog_ctrl\[187\]
*768 analog_ctrl\[188\]
*769 analog_ctrl\[189\]
*770 analog_ctrl\[18\]
*771 analog_ctrl\[190\]
*772 analog_ctrl\[191\]
*773 analog_ctrl\[192\]
*774 analog_ctrl\[193\]
*775 analog_ctrl\[194\]
*776 analog_ctrl\[195\]
*777 analog_ctrl\[196\]
*778 analog_ctrl\[197\]
*779 analog_ctrl\[198\]
*780 analog_ctrl\[199\]
*781 analog_ctrl\[19\]
*782 analog_ctrl\[1\]
*783 analog_ctrl\[200\]
*784 analog_ctrl\[201\]
*785 analog_ctrl\[202\]
*786 analog_ctrl\[203\]
*787 analog_ctrl\[204\]
*788 analog_ctrl\[205\]
*789 analog_ctrl\[206\]
*790 analog_ctrl\[20\]
*791 analog_ctrl\[21\]
*792 analog_ctrl\[22\]
*793 analog_ctrl\[23\]
*794 analog_ctrl\[24\]
*795 analog_ctrl\[25\]
*796 analog_ctrl\[26\]
*797 analog_ctrl\[27\]
*798 analog_ctrl\[28\]
*799 analog_ctrl\[29\]
*800 analog_ctrl\[2\]
*801 analog_ctrl\[30\]
*802 analog_ctrl\[31\]
*803 analog_ctrl\[32\]
*804 analog_ctrl\[33\]
*805 analog_ctrl\[34\]
*806 analog_ctrl\[35\]
*807 analog_ctrl\[36\]
*808 analog_ctrl\[37\]
*809 analog_ctrl\[38\]
*810 analog_ctrl\[39\]
*811 analog_ctrl\[3\]
*812 analog_ctrl\[40\]
*813 analog_ctrl\[41\]
*814 analog_ctrl\[42\]
*815 analog_ctrl\[43\]
*816 analog_ctrl\[44\]
*817 analog_ctrl\[45\]
*818 analog_ctrl\[46\]
*819 analog_ctrl\[47\]
*820 analog_ctrl\[48\]
*821 analog_ctrl\[49\]
*822 analog_ctrl\[4\]
*823 analog_ctrl\[50\]
*824 analog_ctrl\[51\]
*825 analog_ctrl\[52\]
*826 analog_ctrl\[53\]
*827 analog_ctrl\[54\]
*828 analog_ctrl\[55\]
*829 analog_ctrl\[56\]
*830 analog_ctrl\[57\]
*831 analog_ctrl\[58\]
*832 analog_ctrl\[59\]
*833 analog_ctrl\[5\]
*834 analog_ctrl\[60\]
*835 analog_ctrl\[61\]
*836 analog_ctrl\[62\]
*837 analog_ctrl\[63\]
*838 analog_ctrl\[64\]
*839 analog_ctrl\[65\]
*840 analog_ctrl\[66\]
*841 analog_ctrl\[67\]
*842 analog_ctrl\[68\]
*843 analog_ctrl\[69\]
*844 analog_ctrl\[6\]
*845 analog_ctrl\[70\]
*846 analog_ctrl\[71\]
*847 analog_ctrl\[72\]
*848 analog_ctrl\[73\]
*849 analog_ctrl\[74\]
*850 analog_ctrl\[75\]
*851 analog_ctrl\[76\]
*852 analog_ctrl\[77\]
*853 analog_ctrl\[78\]
*854 analog_ctrl\[79\]
*855 analog_ctrl\[7\]
*856 analog_ctrl\[80\]
*857 analog_ctrl\[81\]
*858 analog_ctrl\[82\]
*859 analog_ctrl\[83\]
*860 analog_ctrl\[84\]
*861 analog_ctrl\[85\]
*862 analog_ctrl\[86\]
*863 analog_ctrl\[87\]
*864 analog_ctrl\[88\]
*865 analog_ctrl\[89\]
*866 analog_ctrl\[8\]
*867 analog_ctrl\[90\]
*868 analog_ctrl\[91\]
*869 analog_ctrl\[92\]
*870 analog_ctrl\[93\]
*871 analog_ctrl\[94\]
*872 analog_ctrl\[95\]
*873 analog_ctrl\[96\]
*874 analog_ctrl\[97\]
*875 analog_ctrl\[98\]
*876 analog_ctrl\[99\]
*877 analog_ctrl\[9\]
*878 dsm_sumn
*879 dsm_sump
*880 sram_ack
*881 sram_adr\[0\]
*882 sram_adr\[10\]
*883 sram_adr\[11\]
*884 sram_adr\[12\]
*885 sram_adr\[13\]
*886 sram_adr\[14\]
*887 sram_adr\[15\]
*888 sram_adr\[16\]
*889 sram_adr\[17\]
*890 sram_adr\[18\]
*891 sram_adr\[19\]
*892 sram_adr\[1\]
*893 sram_adr\[20\]
*894 sram_adr\[21\]
*895 sram_adr\[22\]
*896 sram_adr\[23\]
*897 sram_adr\[24\]
*898 sram_adr\[25\]
*899 sram_adr\[26\]
*900 sram_adr\[27\]
*901 sram_adr\[28\]
*902 sram_adr\[29\]
*903 sram_adr\[2\]
*904 sram_adr\[30\]
*905 sram_adr\[31\]
*906 sram_adr\[3\]
*907 sram_adr\[4\]
*908 sram_adr\[5\]
*909 sram_adr\[6\]
*910 sram_adr\[7\]
*911 sram_adr\[8\]
*912 sram_adr\[9\]
*913 sram_cyc
*914 sram_rdat\[0\]
*915 sram_rdat\[10\]
*916 sram_rdat\[11\]
*917 sram_rdat\[12\]
*918 sram_rdat\[13\]
*919 sram_rdat\[14\]
*920 sram_rdat\[15\]
*921 sram_rdat\[16\]
*922 sram_rdat\[17\]
*923 sram_rdat\[18\]
*924 sram_rdat\[19\]
*925 sram_rdat\[1\]
*926 sram_rdat\[20\]
*927 sram_rdat\[21\]
*928 sram_rdat\[22\]
*929 sram_rdat\[23\]
*930 sram_rdat\[24\]
*931 sram_rdat\[25\]
*932 sram_rdat\[26\]
*933 sram_rdat\[27\]
*934 sram_rdat\[28\]
*935 sram_rdat\[29\]
*936 sram_rdat\[2\]
*937 sram_rdat\[30\]
*938 sram_rdat\[31\]
*939 sram_rdat\[3\]
*940 sram_rdat\[4\]
*941 sram_rdat\[5\]
*942 sram_rdat\[6\]
*943 sram_rdat\[7\]
*944 sram_rdat\[8\]
*945 sram_rdat\[9\]
*946 sram_sel\[0\]
*947 sram_sel\[1\]
*948 sram_sel\[2\]
*949 sram_sel\[3\]
*950 sram_stb
*951 sram_wdat\[0\]
*952 sram_wdat\[10\]
*953 sram_wdat\[11\]
*954 sram_wdat\[12\]
*955 sram_wdat\[13\]
*956 sram_wdat\[14\]
*957 sram_wdat\[15\]
*958 sram_wdat\[16\]
*959 sram_wdat\[17\]
*960 sram_wdat\[18\]
*961 sram_wdat\[19\]
*962 sram_wdat\[1\]
*963 sram_wdat\[20\]
*964 sram_wdat\[21\]
*965 sram_wdat\[22\]
*966 sram_wdat\[23\]
*967 sram_wdat\[24\]
*968 sram_wdat\[25\]
*969 sram_wdat\[26\]
*970 sram_wdat\[27\]
*971 sram_wdat\[28\]
*972 sram_wdat\[29\]
*973 sram_wdat\[2\]
*974 sram_wdat\[30\]
*975 sram_wdat\[31\]
*976 sram_wdat\[3\]
*977 sram_wdat\[4\]
*978 sram_wdat\[5\]
*979 sram_wdat\[6\]
*980 sram_wdat\[7\]
*981 sram_wdat\[8\]
*982 sram_wdat\[9\]
*983 sram_we
*984 u_cf_adc_dsm20
*985 u_cf_bgr
*986 u_cf_buf_hiz
*987 u_cf_refbuf
*988 u_soc_sys
*989 u_sram

*PORTS
analog_io[0] I
analog_io[10] I
analog_io[11] I
analog_io[12] I
analog_io[13] I
analog_io[14] I
analog_io[15] I
analog_io[16] I
analog_io[17] I
analog_io[18] I
analog_io[19] I
analog_io[1] I
analog_io[20] I
analog_io[21] I
analog_io[22] I
analog_io[23] I
analog_io[24] I
analog_io[25] I
analog_io[26] I
analog_io[27] I
analog_io[28] I
analog_io[2] I
analog_io[3] I
analog_io[4] I
analog_io[5] I
analog_io[6] I
analog_io[7] I
analog_io[8] I
analog_io[9] I
io_in[0] I
io_in[10] I
io_in[11] I
io_in[12] I
io_in[13] I
io_in[14] I
io_in[15] I
io_in[16] I
io_in[17] I
io_in[18] I
io_in[19] I
io_in[1] I
io_in[20] I
io_in[21] I
io_in[22] I
io_in[23] I
io_in[24] I
io_in[25] I
io_in[26] I
io_in[27] I
io_in[28] I
io_in[29] I
io_in[2] I
io_in[30] I
io_in[31] I
io_in[32] I
io_in[33] I
io_in[34] I
io_in[35] I
io_in[36] I
io_in[37] I
io_in[3] I
io_in[4] I
io_in[5] I
io_in[6] I
io_in[7] I
io_in[8] I
io_in[9] I
io_oeb[0] O
io_oeb[10] O
io_oeb[11] O
io_oeb[12] O
io_oeb[13] O
io_oeb[14] O
io_oeb[15] O
io_oeb[16] O
io_oeb[17] O
io_oeb[18] O
io_oeb[19] O
io_oeb[1] O
io_oeb[20] O
io_oeb[21] O
io_oeb[22] O
io_oeb[23] O
io_oeb[24] O
io_oeb[25] O
io_oeb[26] O
io_oeb[27] O
io_oeb[28] O
io_oeb[29] O
io_oeb[2] O
io_oeb[30] O
io_oeb[31] O
io_oeb[32] O
io_oeb[33] O
io_oeb[34] O
io_oeb[35] O
io_oeb[36] O
io_oeb[37] O
io_oeb[3] O
io_oeb[4] O
io_oeb[5] O
io_oeb[6] O
io_oeb[7] O
io_oeb[8] O
io_oeb[9] O
io_out[0] O
io_out[10] O
io_out[11] O
io_out[12] O
io_out[13] O
io_out[14] O
io_out[15] O
io_out[16] O
io_out[17] O
io_out[18] O
io_out[19] O
io_out[1] O
io_out[20] O
io_out[21] O
io_out[22] O
io_out[23] O
io_out[24] O
io_out[25] O
io_out[26] O
io_out[27] O
io_out[28] O
io_out[29] O
io_out[2] O
io_out[30] O
io_out[31] O
io_out[32] O
io_out[33] O
io_out[34] O
io_out[35] O
io_out[36] O
io_out[37] O
io_out[3] O
io_out[4] O
io_out[5] O
io_out[6] O
io_out[7] O
io_out[8] O
io_out[9] O
la_data_in[0] I
la_data_in[100] I
la_data_in[101] I
la_data_in[102] I
la_data_in[103] I
la_data_in[104] I
la_data_in[105] I
la_data_in[106] I
la_data_in[107] I
la_data_in[108] I
la_data_in[109] I
la_data_in[10] I
la_data_in[110] I
la_data_in[111] I
la_data_in[112] I
la_data_in[113] I
la_data_in[114] I
la_data_in[115] I
la_data_in[116] I
la_data_in[117] I
la_data_in[118] I
la_data_in[119] I
la_data_in[11] I
la_data_in[120] I
la_data_in[121] I
la_data_in[122] I
la_data_in[123] I
la_data_in[124] I
la_data_in[125] I
la_data_in[126] I
la_data_in[127] I
la_data_in[12] I
la_data_in[13] I
la_data_in[14] I
la_data_in[15] I
la_data_in[16] I
la_data_in[17] I
la_data_in[18] I
la_data_in[19] I
la_data_in[1] I
la_data_in[20] I
la_data_in[21] I
la_data_in[22] I
la_data_in[23] I
la_data_in[24] I
la_data_in[25] I
la_data_in[26] I
la_data_in[27] I
la_data_in[28] I
la_data_in[29] I
la_data_in[2] I
la_data_in[30] I
la_data_in[31] I
la_data_in[32] I
la_data_in[33] I
la_data_in[34] I
la_data_in[35] I
la_data_in[36] I
la_data_in[37] I
la_data_in[38] I
la_data_in[39] I
la_data_in[3] I
la_data_in[40] I
la_data_in[41] I
la_data_in[42] I
la_data_in[43] I
la_data_in[44] I
la_data_in[45] I
la_data_in[46] I
la_data_in[47] I
la_data_in[48] I
la_data_in[49] I
la_data_in[4] I
la_data_in[50] I
la_data_in[51] I
la_data_in[52] I
la_data_in[53] I
la_data_in[54] I
la_data_in[55] I
la_data_in[56] I
la_data_in[57] I
la_data_in[58] I
la_data_in[59] I
la_data_in[5] I
la_data_in[60] I
la_data_in[61] I
la_data_in[62] I
la_data_in[63] I
la_data_in[64] I
la_data_in[65] I
la_data_in[66] I
la_data_in[67] I
la_data_in[68] I
la_data_in[69] I
la_data_in[6] I
la_data_in[70] I
la_data_in[71] I
la_data_in[72] I
la_data_in[73] I
la_data_in[74] I
la_data_in[75] I
la_data_in[76] I
la_data_in[77] I
la_data_in[78] I
la_data_in[79] I
la_data_in[7] I
la_data_in[80] I
la_data_in[81] I
la_data_in[82] I
la_data_in[83] I
la_data_in[84] I
la_data_in[85] I
la_data_in[86] I
la_data_in[87] I
la_data_in[88] I
la_data_in[89] I
la_data_in[8] I
la_data_in[90] I
la_data_in[91] I
la_data_in[92] I
la_data_in[93] I
la_data_in[94] I
la_data_in[95] I
la_data_in[96] I
la_data_in[97] I
la_data_in[98] I
la_data_in[99] I
la_data_in[9] I
la_data_out[0] O
la_data_out[100] O
la_data_out[101] O
la_data_out[102] O
la_data_out[103] O
la_data_out[104] O
la_data_out[105] O
la_data_out[106] O
la_data_out[107] O
la_data_out[108] O
la_data_out[109] O
la_data_out[10] O
la_data_out[110] O
la_data_out[111] O
la_data_out[112] O
la_data_out[113] O
la_data_out[114] O
la_data_out[115] O
la_data_out[116] O
la_data_out[117] O
la_data_out[118] O
la_data_out[119] O
la_data_out[11] O
la_data_out[120] O
la_data_out[121] O
la_data_out[122] O
la_data_out[123] O
la_data_out[124] O
la_data_out[125] O
la_data_out[126] O
la_data_out[127] O
la_data_out[12] O
la_data_out[13] O
la_data_out[14] O
la_data_out[15] O
la_data_out[16] O
la_data_out[17] O
la_data_out[18] O
la_data_out[19] O
la_data_out[1] O
la_data_out[20] O
la_data_out[21] O
la_data_out[22] O
la_data_out[23] O
la_data_out[24] O
la_data_out[25] O
la_data_out[26] O
la_data_out[27] O
la_data_out[28] O
la_data_out[29] O
la_data_out[2] O
la_data_out[30] O
la_data_out[31] O
la_data_out[32] O
la_data_out[33] O
la_data_out[34] O
la_data_out[35] O
la_data_out[36] O
la_data_out[37] O
la_data_out[38] O
la_data_out[39] O
la_data_out[3] O
la_data_out[40] O
la_data_out[41] O
la_data_out[42] O
la_data_out[43] O
la_data_out[44] O
la_data_out[45] O
la_data_out[46] O
la_data_out[47] O
la_data_out[48] O
la_data_out[49] O
la_data_out[4] O
la_data_out[50] O
la_data_out[51] O
la_data_out[52] O
la_data_out[53] O
la_data_out[54] O
la_data_out[55] O
la_data_out[56] O
la_data_out[57] O
la_data_out[58] O
la_data_out[59] O
la_data_out[5] O
la_data_out[60] O
la_data_out[61] O
la_data_out[62] O
la_data_out[63] O
la_data_out[64] O
la_data_out[65] O
la_data_out[66] O
la_data_out[67] O
la_data_out[68] O
la_data_out[69] O
la_data_out[6] O
la_data_out[70] O
la_data_out[71] O
la_data_out[72] O
la_data_out[73] O
la_data_out[74] O
la_data_out[75] O
la_data_out[76] O
la_data_out[77] O
la_data_out[78] O
la_data_out[79] O
la_data_out[7] O
la_data_out[80] O
la_data_out[81] O
la_data_out[82] O
la_data_out[83] O
la_data_out[84] O
la_data_out[85] O
la_data_out[86] O
la_data_out[87] O
la_data_out[88] O
la_data_out[89] O
la_data_out[8] O
la_data_out[90] O
la_data_out[91] O
la_data_out[92] O
la_data_out[93] O
la_data_out[94] O
la_data_out[95] O
la_data_out[96] O
la_data_out[97] O
la_data_out[98] O
la_data_out[99] O
la_data_out[9] O
la_oenb[0] I
la_oenb[100] I
la_oenb[101] I
la_oenb[102] I
la_oenb[103] I
la_oenb[104] I
la_oenb[105] I
la_oenb[106] I
la_oenb[107] I
la_oenb[108] I
la_oenb[109] I
la_oenb[10] I
la_oenb[110] I
la_oenb[111] I
la_oenb[112] I
la_oenb[113] I
la_oenb[114] I
la_oenb[115] I
la_oenb[116] I
la_oenb[117] I
la_oenb[118] I
la_oenb[119] I
la_oenb[11] I
la_oenb[120] I
la_oenb[121] I
la_oenb[122] I
la_oenb[123] I
la_oenb[124] I
la_oenb[125] I
la_oenb[126] I
la_oenb[127] I
la_oenb[12] I
la_oenb[13] I
la_oenb[14] I
la_oenb[15] I
la_oenb[16] I
la_oenb[17] I
la_oenb[18] I
la_oenb[19] I
la_oenb[1] I
la_oenb[20] I
la_oenb[21] I
la_oenb[22] I
la_oenb[23] I
la_oenb[24] I
la_oenb[25] I
la_oenb[26] I
la_oenb[27] I
la_oenb[28] I
la_oenb[29] I
la_oenb[2] I
la_oenb[30] I
la_oenb[31] I
la_oenb[32] I
la_oenb[33] I
la_oenb[34] I
la_oenb[35] I
la_oenb[36] I
la_oenb[37] I
la_oenb[38] I
la_oenb[39] I
la_oenb[3] I
la_oenb[40] I
la_oenb[41] I
la_oenb[42] I
la_oenb[43] I
la_oenb[44] I
la_oenb[45] I
la_oenb[46] I
la_oenb[47] I
la_oenb[48] I
la_oenb[49] I
la_oenb[4] I
la_oenb[50] I
la_oenb[51] I
la_oenb[52] I
la_oenb[53] I
la_oenb[54] I
la_oenb[55] I
la_oenb[56] I
la_oenb[57] I
la_oenb[58] I
la_oenb[59] I
la_oenb[5] I
la_oenb[60] I
la_oenb[61] I
la_oenb[62] I
la_oenb[63] I
la_oenb[64] I
la_oenb[65] I
la_oenb[66] I
la_oenb[67] I
la_oenb[68] I
la_oenb[69] I
la_oenb[6] I
la_oenb[70] I
la_oenb[71] I
la_oenb[72] I
la_oenb[73] I
la_oenb[74] I
la_oenb[75] I
la_oenb[76] I
la_oenb[77] I
la_oenb[78] I
la_oenb[79] I
la_oenb[7] I
la_oenb[80] I
la_oenb[81] I
la_oenb[82] I
la_oenb[83] I
la_oenb[84] I
la_oenb[85] I
la_oenb[86] I
la_oenb[87] I
la_oenb[88] I
la_oenb[89] I
la_oenb[8] I
la_oenb[90] I
la_oenb[91] I
la_oenb[92] I
la_oenb[93] I
la_oenb[94] I
la_oenb[95] I
la_oenb[96] I
la_oenb[97] I
la_oenb[98] I
la_oenb[99] I
la_oenb[9] I
user_clock2 I
user_irq[0] O
user_irq[1] O
user_irq[2] O
wb_clk_i I
wb_rst_i I
wbs_ack_o O
wbs_adr_i[0] I
wbs_adr_i[10] I
wbs_adr_i[11] I
wbs_adr_i[12] I
wbs_adr_i[13] I
wbs_adr_i[14] I
wbs_adr_i[15] I
wbs_adr_i[16] I
wbs_adr_i[17] I
wbs_adr_i[18] I
wbs_adr_i[19] I
wbs_adr_i[1] I
wbs_adr_i[20] I
wbs_adr_i[21] I
wbs_adr_i[22] I
wbs_adr_i[23] I
wbs_adr_i[24] I
wbs_adr_i[25] I
wbs_adr_i[26] I
wbs_adr_i[27] I
wbs_adr_i[28] I
wbs_adr_i[29] I
wbs_adr_i[2] I
wbs_adr_i[30] I
wbs_adr_i[31] I
wbs_adr_i[3] I
wbs_adr_i[4] I
wbs_adr_i[5] I
wbs_adr_i[6] I
wbs_adr_i[7] I
wbs_adr_i[8] I
wbs_adr_i[9] I
wbs_cyc_i I
wbs_dat_i[0] I
wbs_dat_i[10] I
wbs_dat_i[11] I
wbs_dat_i[12] I
wbs_dat_i[13] I
wbs_dat_i[14] I
wbs_dat_i[15] I
wbs_dat_i[16] I
wbs_dat_i[17] I
wbs_dat_i[18] I
wbs_dat_i[19] I
wbs_dat_i[1] I
wbs_dat_i[20] I
wbs_dat_i[21] I
wbs_dat_i[22] I
wbs_dat_i[23] I
wbs_dat_i[24] I
wbs_dat_i[25] I
wbs_dat_i[26] I
wbs_dat_i[27] I
wbs_dat_i[28] I
wbs_dat_i[29] I
wbs_dat_i[2] I
wbs_dat_i[30] I
wbs_dat_i[31] I
wbs_dat_i[3] I
wbs_dat_i[4] I
wbs_dat_i[5] I
wbs_dat_i[6] I
wbs_dat_i[7] I
wbs_dat_i[8] I
wbs_dat_i[9] I
wbs_dat_o[0] O
wbs_dat_o[10] O
wbs_dat_o[11] O
wbs_dat_o[12] O
wbs_dat_o[13] O
wbs_dat_o[14] O
wbs_dat_o[15] O
wbs_dat_o[16] O
wbs_dat_o[17] O
wbs_dat_o[18] O
wbs_dat_o[19] O
wbs_dat_o[1] O
wbs_dat_o[20] O
wbs_dat_o[21] O
wbs_dat_o[22] O
wbs_dat_o[23] O
wbs_dat_o[24] O
wbs_dat_o[25] O
wbs_dat_o[26] O
wbs_dat_o[27] O
wbs_dat_o[28] O
wbs_dat_o[29] O
wbs_dat_o[2] O
wbs_dat_o[30] O
wbs_dat_o[31] O
wbs_dat_o[3] O
wbs_dat_o[4] O
wbs_dat_o[5] O
wbs_dat_o[6] O
wbs_dat_o[7] O
wbs_dat_o[8] O
wbs_dat_o[9] O
wbs_sel_i[0] I
wbs_sel_i[1] I
wbs_sel_i[2] I
wbs_sel_i[3] I
wbs_stb_i I
wbs_we_i I

*D_NET *1 0.339193
*CONN
*P analog_io[0] I
*I *985:vb2_fast I *D CF_BGR
*CAP
1 analog_io[0] 0.0624114
2 *985:vb2_fast 0.000131832
3 *1:17 0.0266118
4 *1:15 0.0264799
5 *1:13 0.0726765
6 *1:11 0.0726765
7 *1:9 0.00738608
8 *1:7 0.00738608
9 *1:5 0.0624114
10 *1:13 *54:13 0.00102116
11 *1:17 *867:13 0
*RES
1 analog_io[0] *1:5 188.514 
2 *1:5 *1:7 3.41 
3 *1:7 *1:9 151.911 
4 *1:9 *1:11 3.41 
5 *1:11 *1:13 219.598 
6 *1:13 *1:15 3.41 
7 *1:15 *1:17 83.0365 
8 *1:17 *985:vb2_fast 12.8629 
*END

*D_NET *12 0.106094
*CONN
*P analog_io[1] I
*I *986:vinp1 I *D CF_BUF_HIZ
*CAP
1 analog_io[1] 0.0221183
2 *986:vinp1 3.93512e-05
3 *12:9 0.0285802
4 *12:7 0.0285409
5 *12:5 0.0221183
6 *12:9 *23:9 0.00469736
*RES
1 analog_io[1] *12:5 62.5774 
2 *12:5 *12:7 3.41 
3 *12:7 *12:9 98.0577 
4 *12:9 *986:vinp1 6.90303 
*END

*D_NET *13 0.388492
*CONN
*P analog_io[20] I
*I *984:INN I *D CF_ADC_DSM20
*I *984:COMBUF_INN I *D CF_ADC_DSM20
*I *984:PBUF_INN I *D CF_ADC_DSM20
*I *986:out2 O *D CF_BUF_HIZ
*CAP
1 analog_io[20] 0.00202986
2 *984:INN 3.49772e-05
3 *984:COMBUF_INN 0.00287957
4 *984:PBUF_INN 0.000873014
5 *986:out2 8.39809e-05
6 *13:68 0.0340335
7 *13:66 0.0320036
8 *13:64 0.0437483
9 *13:62 0.0451437
10 *13:56 0.00457118
11 *13:31 0.00616399
12 *13:29 0.00592732
13 *13:25 0.00177264
14 *13:19 0.0104465
15 *13:17 0.00904893
16 *13:15 0.00518138
17 *13:13 0.00518138
18 *13:11 0.0545628
19 *13:9 0.0546468
20 *984:PBUF_INN *984:VREFQ 9.32494e-05
21 *984:PBUF_INN *984:PBUF_INP 0.00137017
22 *984:PBUF_INN *737:15 0.000136896
23 *984:COMBUF_INN *984:COMBUF_INP 9.22615e-05
24 *13:15 *749:10 0.00412531
25 *13:25 *984:INP 0
26 *13:31 *984:PBUF_INP 0
27 *13:31 *657:24 0.0146043
28 *13:62 *696:16 0.000168607
29 *13:64 *15:14 0.0495679
*RES
1 *986:out2 *13:9 5.02607 
2 *13:9 *13:11 159.314 
3 *13:11 *13:13 3.41 
4 *13:13 *13:15 105.92 
5 *13:15 *13:17 4.5 
6 *13:17 *13:19 169.545 
7 *13:19 *13:25 25.9018 
8 *13:25 *13:29 16.9464 
9 *13:29 *13:31 181.205 
10 *13:31 *984:PBUF_INN 32.4464 
11 *984:PBUF_INN *13:56 10.4821 
12 *13:56 *13:62 10.9748 
13 *13:62 *13:64 1083.27 
14 *13:64 *13:66 3.41 
15 *13:66 *13:68 95.7155 
16 *13:68 analog_io[20] 5.51937 
17 *13:56 *984:COMBUF_INN 19.8619 
18 *13:25 *984:INN 0.669643 
*END

*D_NET *14 0.37091
*CONN
*P analog_io[21] I
*I *986:vcm I *D CF_BUF_HIZ
*I *984:VCM I *D CF_ADC_DSM20
*CAP
1 analog_io[21] 0.00204326
2 *986:vcm 0.000642767
3 *984:VCM 0.000142539
4 *14:41 0.00547735
5 *14:39 0.00483459
6 *14:37 0.0910482
7 *14:19 0.0964805
8 *14:15 0.0563747
9 *14:13 0.0510849
10 *14:11 0.0272505
11 *14:9 0.0292937
12 *984:VCM *695:5 1.01912e-05
13 *984:VCM *698:13 1.94945e-05
14 *986:vcm *656:50 0.000528395
15 *14:37 *984:dig_test_sel[1] 0
16 *14:37 *663:20 0.00524503
17 *14:41 *23:19 0.00043361
*RES
1 analog_io[21] *14:9 5.51937 
2 *14:9 *14:11 81.6625 
3 *14:11 *14:13 3.41 
4 *14:13 *14:15 1048.66 
5 *14:15 *14:19 18.8793 
6 *14:19 *984:VCM 10.2939 
7 *14:19 *14:37 283.053 
8 *14:37 *14:39 3.41 
9 *14:39 *14:41 100.759 
10 *14:41 *986:vcm 21.0357 
*END

*D_NET *15 0.327705
*CONN
*P analog_io[22] I
*I *984:refout O *D CF_ADC_DSM20
*CAP
1 analog_io[22] 0.00209402
2 *984:refout 4.55766e-05
3 *15:18 0.0342288
4 *15:16 0.0321348
5 *15:14 0.0211816
6 *15:12 0.0211816
7 *15:10 0.0398354
8 *15:8 0.039881
9 *15:8 *984:vpwr_cp 1.04102e-05
10 *15:10 *984:vpwr_cp 0.00969347
11 *15:10 *20:19 0.0292178
12 *15:14 *655:14 0.0486326
13 *13:64 *15:14 0.0495679
*RES
1 *984:refout *15:8 3.5933 
2 *15:8 *15:10 138.883 
3 *15:10 *15:12 3.41 
4 *15:12 *15:14 843.446 
5 *15:14 *15:16 3.41 
6 *15:16 *15:18 95.7876 
7 *15:18 analog_io[22] 5.51937 
*END

*D_NET *17 0.0339503
*CONN
*P analog_io[24] I
*I *985:dft_curr_in I *D CF_BGR
*CAP
1 analog_io[24] 0.00111214
2 *985:dft_curr_in 0.00460902
3 *17:11 0.015863
4 *17:9 0.0123661
5 *17:11 *51:19 0
*RES
1 analog_io[24] *17:9 6.07333 
2 *17:9 *17:11 231.446 
3 *17:11 *985:dft_curr_in 21.2395 
*END

*D_NET *18 0.230303
*CONN
*P analog_io[25] I
*I *984:vpwrd_int I *D CF_ADC_DSM20
*I *984:vpwr_ext I *D CF_ADC_DSM20
*I *984:vpwr_int I *D CF_ADC_DSM20
*CAP
1 analog_io[25] 0.00218753
2 *984:vpwrd_int 0.00179165
3 *984:vpwr_ext 0.00258145
4 *984:vpwr_int 3.93512e-05
5 *18:34 0.00441439
6 *18:32 0.00362459
7 *18:30 0.0351228
8 *18:19 0.0142621
9 *18:17 0.0142228
10 *18:15 0.0380963
11 *18:11 0.0345509
12 *18:9 0.033765
13 *984:vpwr_ext *984:FCAP3[0] 0.000577721
14 *984:vpwr_ext *716:25 4.59737e-05
15 *984:vpwr_ext *747:14 0.00213736
16 *984:vpwr_ext *785:22 0.000142341
17 *984:vpwrd_int *984:IPCAP1[4] 0.00275748
18 *984:vpwrd_int *984:FCAP1EN 0.00306469
19 *984:vpwrd_int *716:25 0.00303425
20 *18:19 *688:13 0
21 *18:19 *697:10 0.0324832
22 *18:30 *693:17 0
23 *18:30 *704:37 0.00140099
24 *18:34 *728:26 0
*RES
1 analog_io[25] *18:9 5.51937 
2 *18:9 *18:11 90.851 
3 *18:11 *18:15 8.69813 
4 *18:15 *18:17 3.41 
5 *18:17 *18:19 68.0153 
6 *18:19 *984:vpwr_int 6.90303 
7 *18:15 *18:30 104.94 
8 *18:30 *18:32 3.41 
9 *18:32 *18:34 71.1607 
10 *18:34 *984:vpwr_ext 18.3702 
11 *984:vpwr_ext *984:vpwrd_int 32.6786 
*END

*D_NET *19 0.219558
*CONN
*P analog_io[26] I
*I *984:vgnde_vnb I *D CF_ADC_DSM20
*I *984:vgnde I *D CF_ADC_DSM20
*I *984:vgndd_vnb I *D CF_ADC_DSM20
*I *984:VGND_DAC I *D CF_ADC_DSM20
*CAP
1 analog_io[26] 0.011177
2 *984:vgnde_vnb 2.97068e-05
3 *984:vgnde 0.00187794
4 *984:vgndd_vnb 0.00184779
5 *984:VGND_DAC 0.0326617
6 *19:91 0.00231797
7 *19:87 0.00235777
8 *19:54 0.0039999
9 *19:46 0.00965701
10 *19:44 0.00957337
11 *19:34 0.0328196
12 *19:19 0.025807
13 *19:17 0.0257845
14 *19:15 0.0140141
15 *19:13 0.0251911
16 *984:vgndd_vnb *984:SCANMODE 0
17 *984:vgndd_vnb *653:13 0.000204088
18 *984:VGND_DAC *657:24 4.5539e-05
19 *19:15 *81:48 0.0104545
20 *19:19 *984:VREFQ 0
21 *19:19 *737:9 0
22 *19:34 *984:vpwr_cp_dc 0.000149035
23 *19:34 *651:8 0.00126509
24 *19:44 *772:21 0
25 *19:46 *651:8 0.00805494
26 *19:54 *653:13 0
27 *19:87 *651:8 0.000267934
28 *19:87 *652:13 0
*RES
1 analog_io[26] *19:13 34.3799 
2 *19:13 *19:15 288.518 
3 *19:15 *19:17 3.41 
4 *19:17 *19:19 74.5639 
5 *19:19 *984:VGND_DAC 8.49036 
6 *984:VGND_DAC *19:34 604.223 
7 *19:34 *19:44 12.1429 
8 *19:44 *19:46 179.607 
9 *19:46 *19:54 13.7321 
10 *19:54 *984:vgndd_vnb 41.3527 
11 *19:54 *19:87 44.6071 
12 *19:87 *19:91 13.25 
13 *19:91 *984:vgnde 37.8571 
14 *984:vgnde *984:vgnde_vnb 0.607143 
*END

*D_NET *20 0.28809
*CONN
*P analog_io[27] I
*I *984:vpwr_cp_dc I *D CF_ADC_DSM20
*I *984:vpwr_cp I *D CF_ADC_DSM20
*CAP
1 analog_io[27] 0.00225134
2 *984:vpwr_cp_dc 0.000137322
3 *984:vpwr_cp 0.00838401
4 *20:34 0.00707997
5 *20:23 0.0154085
6 *20:19 0.0109797
7 *20:15 0.0248912
8 *20:13 0.0139933
9 *20:11 0.0589413
10 *20:9 0.0611926
11 *984:vpwr_cp *669:12 0
12 *20:11 *683:11 0
13 *20:11 *798:9 0
14 *20:11 *802:9 0
15 *20:11 *826:9 0.0269961
16 *20:15 *785:10 0.00979241
17 *20:15 *812:13 0
18 *20:19 *658:14 0
19 *20:23 *772:21 8.10544e-05
20 *20:34 *772:21 0.0088908
21 *15:8 *984:vpwr_cp 1.04102e-05
22 *15:10 *984:vpwr_cp 0.00969347
23 *15:10 *20:19 0.0292178
24 *19:34 *984:vpwr_cp_dc 0.000149035
*RES
1 analog_io[27] *20:9 5.51937 
2 *20:9 *20:11 161.62 
3 *20:11 *20:13 3.41 
4 *20:13 *20:15 56.1901 
5 *20:15 *20:19 49.5436 
6 *20:19 *20:23 5.35643 
7 *20:23 *984:vpwr_cp 39.3691 
8 *20:23 *20:34 199.116 
9 *20:34 *984:vpwr_cp_dc 7.84821 
*END

*D_NET *22 0.187443
*CONN
*P analog_io[2] I
*I *986:vinp2 I *D CF_BUF_HIZ
*CAP
1 analog_io[2] 0.0364962
2 *986:vinp2 5.25266e-05
3 *22:13 0.0138591
4 *22:9 0.0571727
5 *22:7 0.0433661
6 *22:5 0.0364962
*RES
1 analog_io[2] *22:5 109.709 
2 *22:5 *22:7 3.41 
3 *22:7 *22:9 137.688 
4 *22:9 *22:13 47.3816 
5 *22:13 *986:vinp2 4.38321 
*END

*D_NET *23 0.216949
*CONN
*P analog_io[3] I
*I *986:vpwr_acore I *D CF_BUF_HIZ
*I *986:vpwr_core I *D CF_BUF_HIZ
*CAP
1 analog_io[3] 0.0209697
2 *986:vpwr_acore 5.25266e-05
3 *986:vpwr_core 0
4 *23:23 0.0177177
5 *23:21 0.0177177
6 *23:19 0.00980091
7 *23:17 0.0114609
8 *23:13 0.00252771
9 *23:9 0.0507679
10 *23:7 0.0499527
11 *23:5 0.0209697
12 *23:13 *986:bypass_p 8.0277e-06
13 *23:13 *655:41 0
14 *23:17 *655:41 0
15 *23:17 *657:6 0.000511474
16 *23:23 *986:disable_n 0.00054545
17 *23:23 *986:gain[0] 0
18 *23:23 *986:gain[1] 0
19 *23:23 *986:vgnd_core 0.00778266
20 *23:23 *112:55 0
21 *23:23 *811:9 0
22 *23:23 *844:9 0.00103309
23 *12:9 *23:9 0.00469736
24 *14:41 *23:19 0.00043361
*RES
1 analog_io[3] *23:5 63.1539 
2 *23:5 *23:7 3.41 
3 *23:7 *23:9 166.346 
4 *23:9 *23:13 6.08743 
5 *23:13 *23:17 9.43853 
6 *23:17 *23:19 203.518 
7 *23:19 *23:21 3.41 
8 *23:21 *23:23 59.2858 
9 *23:23 *986:vpwr_core 3.41 
10 *23:13 *986:vpwr_acore 4.38321 
*END

*D_NET *24 0.230293
*CONN
*P analog_io[4] I
*I *986:vpwrb I *D CF_BUF_HIZ
*I *986:vpwrb_clk I *D CF_BUF_HIZ
*CAP
1 analog_io[4] 0.0315702
2 *986:vpwrb 0.000308341
3 *986:vpwrb_clk 0.00786193
4 *24:9 0.0831553
5 *24:7 0.0756017
6 *24:5 0.0315702
7 *986:vpwrb *112:55 0.000225219
*RES
1 analog_io[4] *24:5 95.5839 
2 *24:5 *24:7 3.41 
3 *24:7 *24:9 240.493 
4 *24:9 *986:vpwrb_clk 39.5033 
5 *986:vpwrb_clk *986:vpwrb 6.39286 
*END

*D_NET *25 0.262707
*CONN
*P analog_io[5] I
*I *986:vgnd1 I *D CF_BUF_HIZ
*CAP
1 analog_io[5] 0.0355732
2 *986:vgnd1 0.00139427
3 *25:15 0.00788045
4 *25:9 0.094386
5 *25:7 0.0878998
6 *25:5 0.0355732
*RES
1 analog_io[5] *25:5 101.061 
2 *25:5 *25:7 3.41 
3 *25:7 *25:9 279.91 
4 *25:9 *25:15 25.4962 
5 *25:15 *986:vgnd1 28.5982 
*END

*D_NET *26 0.290464
*CONN
*P analog_io[6] I
*I *986:vgnd_core I *D CF_BUF_HIZ
*CAP
1 analog_io[6] 0.0355232
2 *986:vgnd_core 0.00273659
3 *26:9 0.105817
4 *26:7 0.103081
5 *26:5 0.0355232
6 *986:vgnd_core *112:55 0
7 *23:23 *986:vgnd_core 0.00778266
*RES
1 analog_io[6] *26:5 107.547 
2 *26:5 *26:7 3.41 
3 *26:7 *26:9 326.785 
4 *26:9 *986:vgnd_core 19.1544 
*END

*D_NET *27 0.323995
*CONN
*P analog_io[7] I
*I *987:ch1 I *D CF_REFBUF
*I *987:ch2 I *D CF_REFBUF
*I *987:out O *D CF_REFBUF
*CAP
1 analog_io[7] 0.100289
2 *987:ch1 0.000491069
3 *987:ch2 0.00278967
4 *987:out 0
5 *27:39 0.100289
6 *27:37 0.0549873
7 *27:35 0.0589188
8 *27:4 0.00623005
*RES
1 *987:out *27:4 3.41 
2 *27:4 *987:ch2 10.8799 
3 *987:ch2 *987:ch1 13.9554 
4 *27:4 *27:35 22.6631 
5 *27:35 *27:37 1133.05 
6 *27:37 *27:39 3.41 
7 *27:39 analog_io[7] 304.181 
*END

*D_NET *28 0.344447
*CONN
*P analog_io[8] I
*I *987:ng I *D CF_REFBUF
*I *987:vpwre I *D CF_REFBUF
*CAP
1 analog_io[8] 0.0662568
2 *987:ng 4.32496e-05
3 *987:vpwre 0.00359963
4 *28:24 0.00472245
5 *28:22 0.0046792
6 *28:13 0.00412191
7 *28:9 0.0976447
8 *28:7 0.0971225
9 *28:5 0.0662568
*RES
1 analog_io[8] *28:5 1364.31 
2 *28:5 *28:7 3.41 
3 *28:7 *28:9 294.403 
4 *28:9 *28:13 1.74683 
5 *28:13 *987:vpwre 14.6994 
6 *28:13 *28:22 3.41 
7 *28:22 *28:24 96.0536 
8 *28:24 *987:ng 0.883929 
*END

*D_NET *31 0.983538
*CONN
*P io_in[10] I
*I *988:io_in[3] I *D soc_sys
*CAP
1 io_in[10] 0.000879115
2 *988:io_in[3] 0.000473709
3 *31:37 0.00162898
4 *31:35 0.00229597
5 *31:21 0.0158007
6 *31:19 0.01466
7 *31:17 0.0109299
8 *31:15 0.0109299
9 *31:13 0.0193884
10 *31:11 0.0193884
11 *31:9 0.0301801
12 *31:7 0.0310592
13 *988:io_in[3] *988:io_in[2] 0
14 *988:io_in[3] *988:io_in[4] 0
15 *31:9 *32:9 0.100644
16 *31:9 *67:9 0.00217832
17 *31:9 *109:30 0.0336925
18 *31:13 *32:13 0.153677
19 *31:13 *36:9 0.143716
20 *31:13 *39:9 0.00378914
21 *31:13 *108:29 5.19842e-06
22 *31:13 *715:19 0.000104937
23 *31:13 *758:9 0.00164288
24 *31:13 *766:9 0.000223571
25 *31:17 *32:17 0.0575836
26 *31:17 *110:17 0.0550064
27 *31:17 *927:13 0.000358023
28 *31:21 *988:wbs_sel_i[2] 0.00206103
29 *31:21 *988:wbs_sel_i[3] 0.00014669
30 *31:21 *32:21 0.116288
31 *31:21 *32:49 2.95641e-05
32 *31:21 *33:21 0.115153
33 *31:21 *34:21 2.44318e-05
34 *31:21 *44:43 0.000294663
35 *31:21 *54:19 0.000104561
36 *31:21 *540:25 0.00029415
37 *31:21 *540:52 0.000144366
38 *31:21 *541:59 1.64583e-05
39 *31:21 *608:23 0.000934553
40 *31:21 *621:13 0.000289711
41 *31:21 *623:13 0.00870644
42 *31:21 *625:9 0.00124922
43 *31:21 *628:15 0.000180549
44 *31:21 *631:15 0.00311777
45 *31:21 *632:11 0.000627283
46 *31:21 *633:11 0.000419971
47 *31:21 *634:11 0.000363426
48 *31:21 *635:11 0.000546542
49 *31:21 *636:11 0.000365073
50 *31:21 *637:11 0.000621936
51 *31:21 *639:15 0.00158344
52 *31:35 *988:wbs_stb_i 0.00230718
53 *31:35 *32:49 0.000379229
54 *31:35 *33:21 1.21289e-05
55 *31:35 *33:35 0.0019524
56 *31:35 *54:19 0.00437163
57 *31:35 *640:11 2.83284e-06
58 *31:37 *32:51 0.00535744
59 *31:37 *33:37 4.57105e-05
60 *31:37 *34:37 0.00531106
61 *31:37 *37:37 0
62 *31:37 *47:39 0
*RES
1 io_in[10] *31:7 5.63153 
2 *31:7 *31:9 1233.69 
3 *31:9 *31:11 4.5 
4 *31:11 *31:13 1443.38 
5 *31:13 *31:15 4.5 
6 *31:15 *31:17 710.179 
7 *31:17 *31:19 4.5 
8 *31:19 *31:21 1097.55 
9 *31:21 *31:35 23.6878 
10 *31:35 *31:37 68.7321 
11 *31:37 *988:io_in[3] 4.4064 
*END

*D_NET *32 1.02011
*CONN
*P io_in[11] I
*I *988:io_in[4] I *D soc_sys
*CAP
1 io_in[11] 0.000891499
2 *988:io_in[4] 0.000429526
3 *32:51 0.00161753
4 *32:49 0.00478743
5 *32:21 0.0312207
6 *32:19 0.0276213
7 *32:17 0.0208405
8 *32:15 0.0208405
9 *32:13 0.0175007
10 *32:11 0.0175007
11 *32:9 0.0188671
12 *32:7 0.0197586
13 *988:io_in[4] *988:io_in[5] 0
14 *32:9 *33:9 0.12004
15 *32:9 *67:9 0.0123959
16 *32:9 *109:30 0.0108757
17 *32:13 *33:13 1.39726e-05
18 *32:13 *34:13 4.10843e-05
19 *32:13 *35:13 0.153555
20 *32:13 *36:9 1.98839e-05
21 *32:13 *39:9 0.00798146
22 *32:13 *108:29 1.32552e-05
23 *32:13 *740:9 0.00120247
24 *32:13 *758:9 0.000527755
25 *32:17 *906:9 0.00770919
26 *32:17 *916:21 0
27 *32:17 *927:13 5.28368e-06
28 *32:21 *988:wbs_sel_i[2] 0.00190355
29 *32:21 *988:wbs_sel_i[3] 0.000158178
30 *32:21 *42:25 0.0473686
31 *32:21 *44:43 0.000273261
32 *32:21 *54:19 0.000104561
33 *32:21 *541:59 0.000141985
34 *32:21 *608:23 0.00100596
35 *32:21 *621:13 0.000333271
36 *32:21 *623:13 0.0147003
37 *32:21 *625:9 0.00269411
38 *32:21 *628:15 0.000415391
39 *32:21 *631:15 0.00576708
40 *32:21 *632:11 0.00135282
41 *32:21 *633:11 0.000452863
42 *32:21 *634:11 0.000391889
43 *32:21 *635:11 0.000589347
44 *32:21 *636:11 0.000317356
45 *32:21 *637:11 0.000670646
46 *32:21 *639:15 0.00146065
47 *32:21 *928:9 0
48 *32:21 *963:19 0.00020365
49 *32:49 *988:wbs_stb_i 0.000408028
50 *32:49 *33:35 0.000369578
51 *32:49 *34:35 0.000418409
52 *32:49 *42:43 0.000384552
53 *32:49 *43:17 0.00035025
54 *32:49 *44:43 0.00113807
55 *32:49 *45:23 0.00030667
56 *32:49 *49:29 0.000582415
57 *32:49 *119:13 0.000262883
58 *32:49 *540:15 0
59 *32:49 *608:25 1.15313e-05
60 *32:51 *34:37 0.000156713
61 *32:51 *35:25 0.00497464
62 *32:51 *37:37 0.000222404
63 *988:io_in[3] *988:io_in[4] 0
64 *31:9 *32:9 0.100644
65 *31:13 *32:13 0.153677
66 *31:17 *32:17 0.0575836
67 *31:21 *32:21 0.116288
68 *31:21 *32:49 2.95641e-05
69 *31:35 *32:49 0.000379229
70 *31:37 *32:51 0.00535744
*RES
1 io_in[11] *32:7 5.7036 
2 *32:7 *32:9 1471.38 
3 *32:9 *32:11 4.5 
4 *32:11 *32:13 1443.38 
5 *32:13 *32:15 4.5 
6 *32:15 *32:17 710.179 
7 *32:17 *32:19 4.5 
8 *32:19 *32:21 1096.32 
9 *32:21 *32:49 31.6981 
10 *32:49 *32:51 70.5536 
11 *32:51 *988:io_in[4] 4.33433 
*END

*D_NET *33 1.12062
*CONN
*P io_in[12] I
*I *988:io_in[5] I *D soc_sys
*CAP
1 io_in[12] 0.000847949
2 *988:io_in[5] 0.000586411
3 *33:37 0.00328859
4 *33:35 0.00400962
5 *33:21 0.0156602
6 *33:19 0.0143527
7 *33:17 0.00973688
8 *33:15 0.00973688
9 *33:13 0.0176369
10 *33:11 0.0176369
11 *33:9 0.0222596
12 *33:7 0.0231076
13 *988:io_in[5] *988:io_in[6] 0
14 *33:9 *34:9 0.139407
15 *33:9 *67:9 0.0172443
16 *33:9 *109:30 0.00755226
17 *33:9 *110:25 1.08359e-05
18 *33:13 *34:13 0.15486
19 *33:13 *36:9 3.06878e-06
20 *33:13 *39:9 0.0112336
21 *33:13 *108:29 0.154948
22 *33:17 *34:17 0.0574299
23 *33:17 *108:25 0.0574312
24 *33:17 *964:9 6.14702e-06
25 *33:21 *988:wbs_cyc_i 0.000294663
26 *33:21 *988:wbs_sel_i[1] 0.00113369
27 *33:21 *988:wbs_sel_i[2] 0.000818706
28 *33:21 *988:wbs_sel_i[3] 0.000141343
29 *33:21 *34:21 0.115168
30 *33:21 *49:29 0.000105257
31 *33:21 *608:23 0.000951742
32 *33:21 *621:13 0.000137202
33 *33:21 *623:13 0.000683449
34 *33:21 *625:9 0.00862229
35 *33:21 *627:9 0.000372669
36 *33:21 *632:11 0.00332644
37 *33:21 *633:11 0.000414624
38 *33:21 *634:11 0.000358079
39 *33:21 *635:11 0.000546542
40 *33:21 *636:11 0.000396286
41 *33:21 *637:11 0.000829248
42 *33:21 *638:11 0.000676412
43 *33:21 *639:15 0.000605777
44 *33:35 *988:wbs_stb_i 0.000449297
45 *33:35 *34:21 4.14279e-05
46 *33:35 *34:35 0.00276158
47 *33:35 *44:43 0.00198295
48 *33:35 *54:19 6.47971e-05
49 *33:35 *644:11 1.65923e-05
50 *33:37 *34:37 0.00314846
51 *33:37 *47:39 0
52 *988:io_in[4] *988:io_in[5] 0
53 *31:21 *33:21 0.115153
54 *31:35 *33:21 1.21289e-05
55 *31:35 *33:35 0.0019524
56 *31:37 *33:37 4.57105e-05
57 *32:9 *33:9 0.12004
58 *32:13 *33:13 1.39726e-05
59 *32:49 *33:35 0.000369578
*RES
1 io_in[12] *33:7 5.77567 
2 *33:7 *33:9 1709.08 
3 *33:9 *33:11 4.5 
4 *33:11 *33:13 1454.88 
5 *33:13 *33:15 4.5 
6 *33:15 *33:17 708.661 
7 *33:17 *33:19 4.5 
8 *33:19 *33:21 1085.64 
9 *33:21 *33:35 42.8313 
10 *33:35 *33:37 75.4107 
11 *33:37 *988:io_in[5] 4.6226 
*END

*D_NET *34 1.1687
*CONN
*P io_in[13] I
*I *988:io_in[6] I *D soc_sys
*CAP
1 io_in[13] 0.00084749
2 *988:io_in[6] 0.000504065
3 *34:37 0.00207061
4 *34:35 0.00303117
5 *34:21 0.0158445
6 *34:19 0.0143799
7 *34:17 0.00976877
8 *34:15 0.00976877
9 *34:13 0.0176231
10 *34:11 0.0176231
11 *34:9 0.028478
12 *34:7 0.0293255
13 *988:io_in[6] *988:io_in[7] 0
14 *34:9 *67:9 0.0186707
15 *34:9 *109:30 0
16 *34:9 *110:25 0.158784
17 *34:13 *35:13 0.154734
18 *34:13 *36:9 8.25843e-06
19 *34:13 *39:9 0.0121134
20 *34:17 *35:17 0.0568175
21 *34:17 *964:9 0.000329994
22 *34:21 *988:wbs_cyc_i 0.000276559
23 *34:21 *988:wbs_sel_i[1] 0.00105135
24 *34:21 *988:wbs_sel_i[2] 0.000711698
25 *34:21 *988:wbs_sel_i[3] 0.000160807
26 *34:21 *989:wbs_dat_i[9] 0.000212909
27 *34:21 *49:29 0.000137202
28 *34:21 *540:25 0.115319
29 *34:21 *608:23 0.00102628
30 *34:21 *621:13 0.000105257
31 *34:21 *623:13 0.000595537
32 *34:21 *625:9 0.00925119
33 *34:21 *627:9 0.000345602
34 *34:21 *632:11 0.00358696
35 *34:21 *633:11 0.000447097
36 *34:21 *634:11 0.000394518
37 *34:21 *635:11 0.000597742
38 *34:21 *636:11 0.000369162
39 *34:21 *637:11 0.000894194
40 *34:21 *638:11 0.000627283
41 *34:21 *639:15 0.000534648
42 *34:35 *988:wbs_cyc_i 0.000749701
43 *34:35 *43:17 0.000140197
44 *34:35 *44:43 0.000529618
45 *34:35 *49:29 0.000281432
46 *34:35 *540:25 0.000665937
47 *34:37 *35:25 0.000198046
48 *34:37 *47:39 0
49 *988:io_in[5] *988:io_in[6] 0
50 *31:21 *34:21 2.44318e-05
51 *31:37 *34:37 0.00531106
52 *32:13 *34:13 4.10843e-05
53 *32:49 *34:35 0.000418409
54 *32:51 *34:37 0.000156713
55 *33:9 *34:9 0.139407
56 *33:13 *34:13 0.15486
57 *33:17 *34:17 0.0574299
58 *33:21 *34:21 0.115168
59 *33:35 *34:21 4.14279e-05
60 *33:35 *34:35 0.00276158
61 *33:37 *34:37 0.00314846
*RES
1 io_in[13] *34:7 5.84773 
2 *34:7 *34:9 1946.17 
3 *34:9 *34:11 4.5 
4 *34:11 *34:13 1454.05 
5 *34:13 *34:15 4.5 
6 *34:15 *34:17 708.661 
7 *34:17 *34:19 4.5 
8 *34:19 *34:21 1086.88 
9 *34:21 *34:35 46.3383 
10 *34:35 *34:37 77.2321 
11 *34:37 *988:io_in[6] 4.47847 
*END

*D_NET *35 1.03796
*CONN
*P io_in[14] I
*I *988:io_in[7] I *D soc_sys
*CAP
1 io_in[14] 0.000879467
2 *988:io_in[7] 0.000385343
3 *35:25 0.00180111
4 *35:23 0.00141577
5 *35:21 0.0408379
6 *35:19 0.0408379
7 *35:17 0.0169796
8 *35:15 0.0169796
9 *35:13 0.0176361
10 *35:11 0.0176361
11 *35:9 0.0698156
12 *35:7 0.0706951
13 *988:io_in[7] *988:io_in[8] 0
14 *35:9 *67:9 0.0361013
15 *35:9 *110:25 0.163608
16 *35:13 *36:9 0.000456476
17 *35:13 *39:9 0.00918152
18 *35:13 *740:9 0.00111513
19 *35:13 *758:9 0.000569089
20 *35:13 *766:9 0.000209244
21 *35:17 *964:9 0.0238592
22 *35:21 *989:wbs_sel_i[0] 0
23 *35:21 *43:17 0
24 *35:21 *110:13 0.126718
25 *35:21 *119:13 0
26 *35:21 *908:21 0.00598376
27 *35:21 *936:19 3.20942e-05
28 *35:25 *37:37 0.00219172
29 *35:25 *47:39 0
30 *35:25 *66:17 0.00175124
31 *988:io_in[6] *988:io_in[7] 0
32 *32:13 *35:13 0.153555
33 *32:51 *35:25 0.00497464
34 *34:13 *35:13 0.154734
35 *34:17 *35:17 0.0568175
36 *34:37 *35:25 0.000198046
*RES
1 io_in[14] *35:7 5.99187 
2 *35:7 *35:9 2183.26 
3 *35:9 *35:11 4.5 
4 *35:11 *35:13 1452.82 
5 *35:13 *35:15 4.5 
6 *35:15 *35:17 700.92 
7 *35:17 *35:19 3.41 
8 *35:19 *35:21 198.014 
9 *35:21 *35:23 3.41 
10 *35:23 *35:25 72.9821 
11 *35:25 *988:io_in[7] 4.26227 
*END

*D_NET *36 0.8858
*CONN
*P io_in[15] I
*I *988:io_in[8] I *D soc_sys
*CAP
1 io_in[15] 0.113152
2 *988:io_in[8] 0.000252793
3 *36:29 0.00194543
4 *36:27 0.00169264
5 *36:25 0.0263694
6 *36:23 0.0269809
7 *36:13 0.0106978
8 *36:11 0.0100863
9 *36:9 0.0330752
10 *36:7 0.0330752
11 *36:5 0.113152
12 *988:io_in[8] *988:io_in[9] 0
13 *36:9 *38:21 0.0609163
14 *36:9 *39:9 0.00290692
15 *36:9 *758:9 0.00264905
16 *36:9 *766:9 0.000207332
17 *36:9 *808:17 1.98839e-05
18 *36:13 *988:sram_dat_i[6] 0.00159116
19 *36:13 *38:25 0.0579229
20 *36:13 *39:13 0.0580347
21 *36:13 *40:53 0.00161195
22 *36:13 *819:13 0.00311147
23 *36:13 *895:9 0.000120012
24 *36:23 *989:wbs_adr_i[0] 0.000223526
25 *36:23 *930:13 4.37237e-05
26 *36:25 *988:wbs_adr_i[2] 0.00369929
27 *36:25 *989:wbs_adr_i[0] 0.00312845
28 *36:25 *40:57 0.123981
29 *36:25 *47:35 0.00208796
30 *36:25 *67:21 0.00468238
31 *36:25 *542:15 0.00185016
32 *36:25 *544:17 0.0128448
33 *36:25 *561:15 0.0106874
34 *36:25 *612:15 0.00437938
35 *36:29 *37:37 0.00712996
36 *36:29 *38:33 0.00717634
37 *36:29 *39:21 0.000110259
38 *988:io_in[7] *988:io_in[8] 0
39 *31:13 *36:9 0.143716
40 *32:13 *36:9 1.98839e-05
41 *33:13 *36:9 3.06878e-06
42 *34:13 *36:9 8.25843e-06
43 *35:13 *36:9 0.000456476
*RES
1 io_in[15] *36:5 2329.21 
2 *36:5 *36:7 4.5 
3 *36:7 *36:9 1373.96 
4 *36:9 *36:11 4.5 
5 *36:11 *36:13 718.375 
6 *36:13 *36:23 23.1689 
7 *36:23 *36:25 193.834 
8 *36:25 *36:27 3.41 
9 *36:27 *36:29 94.2321 
10 *36:29 *988:io_in[8] 4.04607 
*END

*D_NET *37 0.789349
*CONN
*P io_in[16] I
*I *988:io_in[9] I *D soc_sys
*CAP
1 io_in[16] 0.000165727
2 *988:io_in[9] 0.000297358
3 *37:37 0.00213961
4 *37:35 0.00184225
5 *37:33 0.0227512
6 *37:31 0.0227512
7 *37:29 0.0201669
8 *37:27 0.0201669
9 *37:25 0.054444
10 *37:23 0.0547041
11 *37:13 0.128516
12 *37:11 0.128421
13 *988:io_in[9] *988:io_in[10] 0
14 *37:11 *112:61 9.97767e-06
15 *37:25 *108:29 0
16 *37:25 *720:9 0.0106507
17 *37:25 *720:19 0.000282777
18 *37:25 *771:9 0.00383229
19 *37:25 *776:9 0.000418522
20 *37:29 *988:sram_dat_i[6] 0.000491475
21 *37:29 *38:25 0.0179473
22 *37:29 *797:13 0.00109374
23 *37:29 *819:13 0.000288548
24 *37:29 *884:9 0.00081149
25 *37:29 *895:9 0.0251277
26 *37:29 *915:21 0.0148045
27 *37:33 *38:29 0.122479
28 *37:33 *67:21 2.22866e-05
29 *37:33 *108:21 0.122645
30 *37:33 *928:19 4.47593e-05
31 *37:37 *38:33 0.000154447
32 *37:37 *66:17 0.00233368
33 *988:io_in[8] *988:io_in[9] 0
34 *31:37 *37:37 0
35 *32:51 *37:37 0.000222404
36 *35:25 *37:37 0.00219172
37 *36:29 *37:37 0.00712996
*RES
1 io_in[16] *37:11 9.3941 
2 *37:11 *37:13 409.028 
3 *37:13 *37:23 12.5599 
4 *37:23 *37:25 1079.89 
5 *37:25 *37:27 4.5 
6 *37:27 *37:29 710.027 
7 *37:29 *37:31 3.41 
8 *37:31 *37:33 195.78 
9 *37:33 *37:35 3.41 
10 *37:35 *37:37 93.0179 
11 *37:37 *988:io_in[9] 4.11813 
*END

*D_NET *38 0.766283
*CONN
*P io_in[17] I
*I *988:io_in[10] I *D soc_sys
*CAP
1 io_in[17] 2.92333e-05
2 *988:io_in[10] 0.000221413
3 *38:33 0.00193306
4 *38:31 0.00171165
5 *38:29 0.0280635
6 *38:27 0.0280635
7 *38:25 0.0111229
8 *38:23 0.0111229
9 *38:21 0.0129809
10 *38:19 0.0129809
11 *38:17 0.113187
12 *38:15 0.113187
13 *38:13 0.00756641
14 *38:11 0.00760523
15 *38:9 0.004078
16 *38:7 0.00406841
17 *38:13 *114:18 0.00651809
18 *38:21 *39:9 0.00260871
19 *38:21 *766:9 0.00240625
20 *38:21 *808:17 0.0291186
21 *38:25 *988:sram_dat_i[6] 0.00147083
22 *38:25 *797:13 0.000751445
23 *38:25 *819:13 0.00169103
24 *38:25 *895:9 0.025174
25 *38:29 *67:21 0.0637478
26 *38:29 *885:19 0.000179007
27 *38:29 *928:19 0.000779461
28 *38:33 *39:21 0.000553341
29 *38:33 *66:17 0.000101551
30 *38:33 *110:9 0.00666384
31 *988:io_in[9] *988:io_in[10] 0
32 *36:9 *38:21 0.0609163
33 *36:13 *38:25 0.0579229
34 *36:29 *38:33 0.00717634
35 *37:29 *38:25 0.0179473
36 *37:33 *38:29 0.122479
37 *37:37 *38:33 0.000154447
*RES
1 io_in[17] *38:7 5.01786 
2 *38:7 *38:9 77.1339 
3 *38:9 *38:11 0.732143 
4 *38:11 *38:13 144.902 
5 *38:13 *38:15 4.5 
6 *38:15 *38:17 2329.12 
7 *38:17 *38:19 4.5 
8 *38:19 *38:21 572.25 
9 *38:21 *38:23 4.5 
10 *38:23 *38:25 715.491 
11 *38:25 *38:27 3.41 
12 *38:27 *38:29 195.492 
13 *38:29 *38:31 3.41 
14 *38:31 *38:33 97.2679 
15 *38:33 *988:io_in[10] 3.974 
*END

*D_NET *39 0.774994
*CONN
*P io_in[18] I
*I *988:io_in[11] I *D soc_sys
*CAP
1 io_in[18] 0.113315
2 *988:io_in[11] 0.000139477
3 *39:21 0.00367941
4 *39:19 0.00353993
5 *39:17 0.0188386
6 *39:15 0.0188386
7 *39:13 0.023123
8 *39:11 0.023123
9 *39:9 0.0245504
10 *39:7 0.0245504
11 *39:5 0.113315
12 *988:io_in[11] *988:io_in[12] 0
13 *39:9 *108:29 0.00856187
14 *39:9 *715:19 0.000202002
15 *39:9 *728:24 0.000574409
16 *39:9 *732:9 0.0146442
17 *39:9 *740:9 0.00817761
18 *39:9 *758:9 0.00141204
19 *39:9 *766:9 0.000387955
20 *39:9 *808:27 2.52096e-05
21 *39:13 *988:sram_dat_i[6] 0.00263
22 *39:13 *40:53 0.00321966
23 *39:13 *819:13 0.00278472
24 *39:13 *895:9 4.36915e-05
25 *39:13 *915:21 0
26 *39:17 *989:wbs_adr_i[0] 0.000108081
27 *39:17 *40:57 0.124567
28 *39:17 *65:25 0.123222
29 *39:17 *883:15 0.000240161
30 *39:17 *909:15 0.000627285
31 *39:17 *911:15 1.932e-05
32 *39:17 *917:19 0.000237779
33 *39:21 *988:io_in[0] 0.000582614
34 *39:21 *49:33 0
35 *39:21 *110:9 0.00706864
36 *39:21 *542:17 0.000130857
37 *31:13 *39:9 0.00378914
38 *32:13 *39:9 0.00798146
39 *33:13 *39:9 0.0112336
40 *34:13 *39:9 0.0121134
41 *35:13 *39:9 0.00918152
42 *36:9 *39:9 0.00290692
43 *36:13 *39:13 0.0580347
44 *36:29 *39:21 0.000110259
45 *38:21 *39:9 0.00260871
46 *38:33 *39:21 0.000553341
*RES
1 io_in[18] *39:5 2330.88 
2 *39:5 *39:7 3.41 
3 *39:7 *39:9 88.689 
4 *39:9 *39:11 3.41 
5 *39:11 *39:13 718.982 
6 *39:13 *39:15 3.41 
7 *39:15 *39:17 195.204 
8 *39:17 *39:19 3.41 
9 *39:19 *39:21 106.375 
10 *39:21 *988:io_in[11] 3.82987 
*END

*D_NET *40 0.692408
*CONN
*P io_in[19] I
*I *988:io_in[12] I *D soc_sys
*CAP
1 io_in[19] 0.000246263
2 *988:io_in[12] 0.000698489
3 *40:61 0.0022781
4 *40:59 0.00157961
5 *40:57 0.0191378
6 *40:55 0.0191378
7 *40:53 0.0426731
8 *40:51 0.0438607
9 *40:41 0.0240219
10 *40:39 0.0228342
11 *40:37 0.00478882
12 *40:35 0.00494542
13 *40:25 0.0060263
14 *40:23 0.0062281
15 *40:13 0.100662
16 *40:11 0.10055
17 *40:11 *76:26 0.000131598
18 *40:11 *114:18 0.000176899
19 *40:13 *759:13 0.000212388
20 *40:23 *984:EN_DEM 0
21 *40:23 *651:8 0
22 *40:25 *984:RESCAP[1] 0.00155204
23 *40:25 *827:35 0
24 *40:35 *827:33 0
25 *40:37 *737:17 0
26 *40:37 *761:14 0.00221201
27 *40:37 *827:17 0
28 *40:37 *827:21 0
29 *40:41 *797:13 0.00335647
30 *40:51 *844:9 0.000597467
31 *40:53 *988:sram_dat_i[6] 0.00431196
32 *40:53 *650:18 0
33 *40:53 *804:13 0
34 *40:53 *817:13 0
35 *40:53 *819:13 0.00681631
36 *40:53 *821:19 0
37 *40:53 *880:19 0.000296154
38 *40:53 *883:15 0
39 *40:53 *912:17 0
40 *40:53 *941:13 0.000296154
41 *40:57 *989:wbs_adr_i[0] 0.000400282
42 *40:57 *47:35 8.42134e-05
43 *40:57 *67:21 0
44 *40:57 *108:21 0
45 *40:57 *883:15 0.000164369
46 *40:61 io_out[37] 0.0020472
47 *40:61 *47:39 0.000474769
48 *40:61 *108:17 0.00843203
49 *40:61 *119:9 0.00779737
50 *988:io_in[11] *988:io_in[12] 0
51 *36:13 *40:53 0.00161195
52 *36:25 *40:57 0.123981
53 *39:13 *40:53 0.00321966
54 *39:17 *40:57 0.124567
*RES
1 io_in[19] *40:11 10.0427 
2 *40:11 *40:13 320.393 
3 *40:13 *40:23 12.8482 
4 *40:23 *40:25 111.839 
5 *40:25 *40:35 12.1429 
6 *40:35 *40:37 89.6607 
7 *40:37 *40:39 4.5 
8 *40:39 *40:41 462.438 
9 *40:41 *40:51 26.5178 
10 *40:51 *40:53 129.911 
11 *40:53 *40:55 3.41 
12 *40:55 *40:57 195.96 
13 *40:57 *40:59 3.41 
14 *40:59 *40:61 109.411 
15 *40:61 *988:io_in[12] 5.055 
*END

*D_NET *42 0.621062
*CONN
*P io_in[20] I
*I *988:io_in[13] I *D soc_sys
*CAP
1 io_in[20] 0.000171465
2 *988:io_in[13] 0.000125612
3 *42:45 0.00344609
4 *42:43 0.00434507
5 *42:25 0.00873547
6 *42:23 0.00798521
7 *42:13 0.180484
8 *42:11 0.180209
9 *42:9 0.0110556
10 *42:7 0.011227
11 *42:9 io_oeb[16] 0.00803918
12 *42:9 io_out[21] 0.0206475
13 *42:9 *43:11 0.00459614
14 *42:9 *76:26 0.0121254
15 *42:9 *78:35 0.00300489
16 *42:9 *118:18 0.0532642
17 *42:23 *541:57 0.000148737
18 *42:23 *625:9 0.000657393
19 *42:23 *627:23 0.000652564
20 *42:25 *988:wbs_sel_i[0] 0.000692102
21 *42:25 *988:wbs_sel_i[2] 0.00191135
22 *42:25 *988:wbs_sel_i[3] 0.000144113
23 *42:25 *988:wbs_stb_i 0.000721413
24 *42:25 *44:25 0.0374302
25 *42:25 *54:19 0.000107338
26 *42:25 *621:13 0.00383916
27 *42:25 *633:11 0.000412594
28 *42:25 *634:11 0.000357042
29 *42:25 *635:11 0.000536941
30 *42:25 *636:11 0.00024593
31 *42:25 *637:11 0.000611011
32 *42:25 *639:15 0.00124391
33 *42:43 *988:wbs_cyc_i 0.000139791
34 *42:43 *43:17 0.00415056
35 *42:43 *44:43 0.000143637
36 *42:43 *49:29 0.00415056
37 *42:43 *541:57 0.000115959
38 *42:45 *988:io_in[0] 0.000876722
39 *42:45 *49:33 0.00455831
40 *32:21 *42:25 0.0473686
41 *32:49 *42:43 0.000384552
*RES
1 io_in[20] *42:7 6.50821 
2 *42:7 *42:9 95.7155 
3 *42:9 *42:11 3.41 
4 *42:11 *42:13 532.714 
5 *42:13 *42:23 13.831 
6 *42:23 *42:25 446.161 
7 *42:25 *42:43 26.2212 
8 *42:43 *42:45 99.6964 
9 *42:45 *988:io_in[13] 3.7296 
*END

*D_NET *43 0.523967
*CONN
*P io_in[21] I
*I *988:io_in[14] I *D soc_sys
*CAP
1 io_in[21] 0.00366432
2 *988:io_in[14] 0.00085939
3 *43:21 0.00403552
4 *43:19 0.00317613
5 *43:17 0.0158113
6 *43:15 0.0158113
7 *43:13 0.170745
8 *43:11 0.174409
9 *988:io_in[14] *988:io_in[15] 0
10 *43:11 io_oeb[16] 0.00218736
11 *43:11 io_out[21] 0.0141142
12 *43:11 *76:26 0.022245
13 *43:13 *690:5 0.00185288
14 *43:17 *44:23 0.000128425
15 *43:17 *44:43 0
16 *43:17 *45:23 0.0245269
17 *43:17 *49:29 0.0088599
18 *43:17 *119:13 0.016729
19 *43:17 *541:57 0.00674232
20 *43:17 *619:16 0.00975935
21 *43:17 *621:13 0
22 *43:17 *623:13 0
23 *43:17 *625:9 0.000707114
24 *43:17 *627:9 0.000443777
25 *43:17 *627:23 0.00224909
26 *43:17 *635:11 0.000317638
27 *43:17 *636:11 0.000968263
28 *43:17 *637:11 1.50834e-05
29 *43:17 *638:11 0.00170681
30 *43:17 *639:15 0
31 *43:21 *44:45 2.46867e-05
32 *43:21 *45:25 0.00844225
33 *43:21 *98:17 0.00419825
34 *32:49 *43:17 0.00035025
35 *34:35 *43:17 0.000140197
36 *35:21 *43:17 0
37 *42:9 *43:11 0.00459614
38 *42:43 *43:17 0.00415056
*RES
1 io_in[21] *43:11 45.8075 
2 *43:11 *43:13 532.074 
3 *43:13 *43:15 3.41 
4 *43:15 *43:17 98.2378 
5 *43:17 *43:19 3.41 
6 *43:19 *43:21 103.946 
7 *43:21 *988:io_in[14] 5.34327 
*END

*D_NET *44 0.462948
*CONN
*P io_in[22] I
*I *988:io_in[15] I *D soc_sys
*CAP
1 io_in[22] 0.00116385
2 *988:io_in[15] 0.000789367
3 *44:45 0.00225461
4 *44:43 0.00349913
5 *44:25 0.0137015
6 *44:23 0.0120452
7 *44:13 0.168399
8 *44:11 0.169185
9 *988:io_in[15] *988:io_in[16] 0
10 *44:11 io_oeb[16] 0.000647524
11 *44:11 *76:26 0.00197619
12 *44:11 *118:18 0.00528786
13 *44:23 *988:wbs_adr_i[10] 0
14 *44:23 *541:57 0.000102343
15 *44:23 *621:13 0.000183906
16 *44:25 *988:wbs_sel_i[0] 0.00159233
17 *44:25 *988:wbs_sel_i[2] 0.0041221
18 *44:25 *988:wbs_sel_i[3] 0.000250554
19 *44:25 *988:wbs_stb_i 0.000244988
20 *44:25 *54:19 0.000279827
21 *44:25 *621:13 0.000848137
22 *44:25 *633:11 0.000717332
23 *44:25 *634:11 0.00062075
24 *44:25 *635:11 0.000933522
25 *44:25 *636:11 0.000214676
26 *44:25 *637:11 0.0010623
27 *44:25 *639:15 0.00268267
28 *44:43 *988:wb_rst_i 4.98422e-05
29 *44:43 *988:wbs_cyc_i 0.00448229
30 *44:43 *988:wbs_stb_i 0.00382618
31 *44:43 *54:19 1.92326e-05
32 *44:43 *108:21 2.88456e-05
33 *44:43 *608:23 6.6812e-05
34 *44:43 *619:16 5.11642e-05
35 *44:45 io_out[37] 0.00186767
36 *44:45 *45:25 0.00873318
37 *44:45 *108:17 0.00907329
38 *988:io_in[14] *988:io_in[15] 0
39 *31:21 *44:43 0.000294663
40 *32:21 *44:43 0.000273261
41 *32:49 *44:43 0.00113807
42 *33:35 *44:43 0.00198295
43 *34:35 *44:43 0.000529618
44 *42:25 *44:25 0.0374302
45 *42:43 *44:43 0.000143637
46 *43:17 *44:23 0.000128425
47 *43:17 *44:43 0
48 *43:21 *44:45 2.46867e-05
*RES
1 io_in[22] *44:11 18.1448 
2 *44:11 *44:13 532.714 
3 *44:13 *44:23 13.8463 
4 *44:23 *44:25 352.518 
5 *44:25 *44:43 23.5188 
6 *44:43 *44:45 111.232 
7 *44:45 *988:io_in[15] 5.19913 
*END

*D_NET *45 0.539872
*CONN
*P io_in[23] I
*I *988:io_in[16] I *D soc_sys
*CAP
1 io_in[23] 0.00171399
2 *988:io_in[16] 0.000807849
3 *45:25 0.00232139
4 *45:23 0.00525397
5 *45:17 0.227676
6 *45:15 0.225649
7 *988:io_in[16] *988:io_in[17] 0
8 *45:15 io_oeb[16] 0.000742247
9 *45:15 *114:18 0.00455081
10 *45:17 *853:31 0
11 *45:23 *119:13 0.024362
12 *45:23 *541:57 0.00239542
13 *45:25 io_out[37] 0.00222518
14 *45:25 *108:17 0.000165209
15 *988:io_in[15] *988:io_in[16] 0
16 *32:49 *45:23 0.00030667
17 *43:17 *45:23 0.0245269
18 *43:21 *45:25 0.00844225
19 *44:45 *45:25 0.00873318
*RES
1 io_in[23] *45:15 16.3138 
2 *45:15 *45:17 532.714 
3 *45:17 *45:23 45.1704 
4 *45:23 *45:25 110.625 
5 *45:25 *988:io_in[16] 5.2712 
*END

*D_NET *46 0.426961
*CONN
*P io_in[24] I
*I *988:io_in[17] I *D soc_sys
*CAP
1 io_in[24] 0.001204
2 *988:io_in[17] 0.000944944
3 *46:19 0.00794368
4 *46:17 0.00798499
5 *46:11 0.0999588
6 *46:9 0.100177
7 *988:io_in[17] *988:io_in[18] 0
8 *46:11 *86:17 0.162167
9 *46:11 *129:19 0
10 *46:11 *130:19 0
11 *46:11 *131:6 0.00585421
12 *46:17 *86:15 0.000732842
13 *46:17 *126:23 0.000858186
14 *46:19 *988:io_in[30] 0.000718323
15 *46:19 *58:11 0.00196319
16 *46:19 *78:9 0.00649107
17 *46:19 *92:15 0.00199787
18 *46:19 *92:17 0.00167003
19 *46:19 *97:9 0.0183409
20 *46:19 *108:17 0
21 *46:19 *126:17 0.00410471
22 *46:19 *136:9 0.00384883
23 *988:io_in[16] *988:io_in[17] 0
*RES
1 io_in[24] *46:9 6.93343 
2 *46:9 *46:11 440.669 
3 *46:11 *46:17 9.7857 
4 *46:17 *46:19 321.911 
5 *46:19 *988:io_in[17] 5.63153 
*END

*D_NET *47 0.479179
*CONN
*P io_in[25] I
*I *988:io_in[18] I *D soc_sys
*CAP
1 io_in[25] 0.00479708
2 *988:io_in[18] 0.000637217
3 *47:39 0.00467026
4 *47:37 0.00403304
5 *47:35 0.00584434
6 *47:31 0.0311556
7 *47:29 0.0330385
8 *47:23 0.106941
9 *47:21 0.112752
10 *47:13 0.0183356
11 *47:21 *80:18 0
12 *47:21 *85:14 0.00498992
13 *47:23 *85:14 0.0724522
14 *47:23 *682:5 0
15 *47:23 *877:5 0
16 *47:29 *49:21 0.0198568
17 *47:29 *71:13 0
18 *47:31 *845:18 1.14564e-05
19 *47:31 *854:18 0.000216059
20 *47:35 *988:wbs_adr_i[2] 0.00975823
21 *47:35 *67:21 0.0278396
22 *47:35 *542:15 0.00497932
23 *47:35 *544:17 0.002864
24 *47:39 io_out[37] 0.000612502
25 *47:39 *988:io_in[2] 0.00118677
26 *47:39 *66:17 0
27 *47:39 *119:9 0.00956096
28 *988:io_in[17] *988:io_in[18] 0
29 *31:37 *47:39 0
30 *33:37 *47:39 0
31 *34:37 *47:39 0
32 *35:25 *47:39 0
33 *36:25 *47:35 0.00208796
34 *40:57 *47:35 8.42134e-05
35 *40:61 *47:39 0.000474769
*RES
1 io_in[25] *47:13 17.3361 
2 *47:13 *47:21 47.2228 
3 *47:21 *47:23 2040.12 
4 *47:23 *47:29 38.3241 
5 *47:29 *47:31 80.4797 
6 *47:31 *47:35 47.8861 
7 *47:35 *47:37 3.41 
8 *47:37 *47:39 128.232 
9 *47:39 *988:io_in[18] 4.91087 
*END

*D_NET *48 0.374626
*CONN
*P io_in[26] I
*I *988:io_in[19] I *D soc_sys
*CAP
1 io_in[26] 0.00508643
2 *988:io_in[19] 0.0109675
3 *48:37 0.0256835
4 *48:15 0.117331
5 *48:13 0.107701
6 *988:io_in[19] *988:io_in[22] 0.000228481
7 *988:io_in[19] *988:io_in[29] 0.00180558
8 *988:io_in[19] *107:12 4.26254e-05
9 *988:io_in[19] *109:12 9.67772e-05
10 *988:io_in[19] *112:12 4.26254e-05
11 *988:io_in[19] *114:12 0.000101779
12 *988:io_in[19] *115:12 4.26254e-05
13 *988:io_in[19] *118:12 0.00027924
14 *988:io_in[19] *121:20 4.26254e-05
15 *988:io_in[19] *129:9 0.000228481
16 *988:io_in[19] *132:12 0.000523826
17 *988:io_in[19] *141:21 0.000319048
18 *988:io_in[19] *142:32 0.00023259
19 *988:io_in[19] *143:29 0.00307586
20 *48:15 *85:14 0.0923723
21 *48:37 *72:14 0.00286458
22 *48:37 *78:29 0.000436795
23 *48:37 *80:18 0.00119537
24 *48:37 *88:10 0.00114337
25 *48:37 *111:13 0.000907346
26 *48:37 *112:14 0.000905694
27 *48:37 *121:20 0.000350589
28 *48:37 *132:12 0.000618196
29 *48:37 *671:10 0
*RES
1 io_in[26] *48:13 17.3361 
2 *48:13 *48:15 358.106 
3 *48:15 *48:37 48.7793 
4 *48:37 *988:io_in[19] 27.9091 
*END

*D_NET *49 0.544739
*CONN
*P io_in[27] I
*I *988:io_in[20] I *D soc_sys
*CAP
1 io_in[27] 0.000133909
2 *988:io_in[20] 0.000167985
3 *49:33 0.00475926
4 *49:31 0.00459128
5 *49:29 0.00673158
6 *49:25 0.0314755
7 *49:23 0.0247439
8 *49:21 0.00811168
9 *49:19 0.00811168
10 *49:17 0.0138566
11 *49:15 0.014045
12 *49:9 0.0235281
13 *49:7 0.0234736
14 *988:io_in[20] *988:io_in[21] 0
15 *49:7 *124:17 0.000204598
16 *49:9 io_oeb[31] 0.000322558
17 *49:9 io_oeb[32] 0.000322558
18 *49:9 io_out[30] 0.000322558
19 *49:9 io_out[31] 0.000322558
20 *49:9 *50:15 0.000322558
21 *49:9 *51:15 0.000322558
22 *49:9 *55:15 0.000322558
23 *49:9 *89:25 1.47871e-05
24 *49:9 *92:17 0.0196194
25 *49:9 *122:17 7.1588e-05
26 *49:9 *124:17 0.0880164
27 *49:9 *125:21 0.103086
28 *49:15 io_oeb[32] 0.000286743
29 *49:17 *93:9 0.0167249
30 *49:17 *124:9 0.0424477
31 *49:17 *125:9 0.00922419
32 *49:21 *71:13 0
33 *49:21 *113:13 0.0301917
34 *49:29 *988:wbs_cyc_i 0.00159332
35 *49:29 *988:wbs_sel_i[1] 0.00578538
36 *49:29 *988:wbs_sel_i[2] 0.00116598
37 *49:29 *988:wbs_sel_i[3] 0.000258762
38 *49:29 *54:19 0
39 *49:29 *540:25 0.00100738
40 *49:29 *541:57 0.00517665
41 *49:29 *608:23 0.00279027
42 *49:29 *619:16 0.00975935
43 *49:29 *633:11 0.000913968
44 *49:29 *634:11 0.000671228
45 *49:29 *635:11 0.000360511
46 *49:33 *988:io_in[0] 0.000847868
47 *49:33 *110:9 0
48 *32:49 *49:29 0.000582415
49 *33:21 *49:29 0.000105257
50 *34:21 *49:29 0.000137202
51 *34:35 *49:29 0.000281432
52 *39:21 *49:33 0
53 *42:43 *49:29 0.00415056
54 *42:45 *49:33 0.00455831
55 *43:17 *49:29 0.0088599
56 *47:29 *49:21 0.0198568
*RES
1 io_in[27] *49:7 3.85963 
2 *49:7 *49:9 224.832 
3 *49:9 *49:15 7.33543 
4 *49:15 *49:17 520.446 
5 *49:17 *49:19 3.41 
6 *49:19 *49:21 48.0074 
7 *49:21 *49:23 3.41 
8 *49:23 *49:25 78.8817 
9 *49:25 *49:29 49.5436 
10 *49:29 *49:31 3.41 
11 *49:31 *49:33 124.589 
12 *49:33 *988:io_in[20] 3.94267 
*END

*D_NET *50 0.225154
*CONN
*P io_in[28] I
*I *988:io_in[21] I *D soc_sys
*CAP
1 io_in[28] 0.0168583
2 *988:io_in[21] 0.000548961
3 *50:19 0.0590989
4 *50:17 0.05855
5 *50:15 0.0168583
6 *988:io_in[21] *988:io_in[22] 0
7 *50:15 *83:17 0.00428977
8 *50:15 *122:9 0.00296757
9 *50:15 *123:17 0
10 *50:19 *53:13 0.00133458
11 *50:19 *53:23 0
12 *50:19 *55:15 0.00417737
13 *50:19 *55:19 0
14 *50:19 *56:19 0
15 *50:19 *57:11 0.00714561
16 *50:19 *66:17 0
17 *50:19 *69:9 0
18 *50:19 *71:9 0
19 *50:19 *77:21 0.000756023
20 *50:19 *83:11 0.00129402
21 *50:19 *83:17 0.044536
22 *50:19 *87:23 0.000237102
23 *50:19 *89:15 0.00132863
24 *50:19 *113:9 0
25 *50:19 *119:9 0
26 *50:19 *122:9 0
27 *50:19 *126:13 0.00331024
28 *50:19 *127:9 0.0015401
29 *50:19 *143:9 0
30 *988:io_in[20] *988:io_in[21] 0
31 *49:9 *50:15 0.000322558
*RES
1 io_in[28] *50:15 48.8317 
2 *50:15 *50:17 3.41 
3 *50:17 *50:19 1657.02 
4 *50:19 *988:io_in[21] 4.69467 
*END

*D_NET *51 0.253387
*CONN
*P io_in[29] I
*I *988:io_in[22] I *D soc_sys
*CAP
1 io_in[29] 0.0137766
2 *988:io_in[22] 0.00017212
3 *51:27 0.00265873
4 *51:25 0.00353744
5 *51:19 0.0498779
6 *51:17 0.0488271
7 *51:15 0.0137766
8 *988:io_in[22] *988:io_in[23] 4.46892e-05
9 *51:15 *53:13 0.000179916
10 *51:15 *83:17 0.00416634
11 *51:15 *84:9 0.00429668
12 *51:15 *89:25 0.00119358
13 *51:15 *122:9 0.00466057
14 *51:15 *123:9 0.00411873
15 *51:15 *123:17 0.00107266
16 *51:15 *124:17 0
17 *51:19 *53:23 0.0701336
18 *51:19 *73:35 0.00203012
19 *51:19 *86:9 0.0071719
20 *51:19 *103:21 0.000692443
21 *51:19 *129:11 0
22 *51:19 *129:19 0.00860477
23 *51:19 *130:11 0
24 *51:19 *130:19 0.0105045
25 *51:25 *988:io_in[29] 0.000316086
26 *51:25 *53:23 0.000599519
27 *51:25 *110:9 0.000126426
28 *51:27 *988:io_in[29] 0.000297081
29 *51:27 *110:9 0
30 *988:io_in[19] *988:io_in[22] 0.000228481
31 *988:io_in[21] *988:io_in[22] 0
32 *17:11 *51:19 0
33 *49:9 *51:15 0.000322558
*RES
1 io_in[29] *51:15 49.731 
2 *51:15 *51:17 3.41 
3 *51:17 *51:19 1343.73 
4 *51:19 *51:25 27.0714 
5 *51:25 *51:27 49.5536 
6 *51:27 *988:io_in[22] 4.01473 
*END

*D_NET *53 0.266472
*CONN
*P io_in[30] I
*I *988:io_in[23] I *D soc_sys
*CAP
1 io_in[30] 0.00578578
2 *988:io_in[23] 0.000196309
3 *53:23 0.0190759
4 *53:21 0.0193327
5 *53:15 0.0223841
6 *53:13 0.0277168
7 *988:io_in[23] *988:io_in[24] 0
8 *53:13 *83:17 0.00138
9 *53:13 *89:25 0
10 *53:13 *122:9 0.00128065
11 *53:15 *55:15 0.000107335
12 *53:15 *83:17 0.00708773
13 *53:15 *84:9 0.00733652
14 *53:15 *89:25 0.0038891
15 *53:15 *122:9 0.00793671
16 *53:15 *123:9 0.00951559
17 *53:21 *55:15 5.45468e-05
18 *53:23 *55:19 0.0568165
19 *53:23 *66:17 0.000199951
20 *53:23 *110:9 0.00408336
21 *988:io_in[22] *988:io_in[23] 4.46892e-05
22 *50:19 *53:13 0.00133458
23 *50:19 *53:23 0
24 *51:15 *53:13 0.000179916
25 *51:19 *53:23 0.0701336
26 *51:25 *53:23 0.000599519
*RES
1 io_in[30] *53:13 18.0129 
2 *53:13 *53:15 69.2185 
3 *53:15 *53:21 7.76783 
4 *53:21 *53:23 947.875 
5 *53:23 *988:io_in[23] 3.974 
*END

*D_NET *54 0.314956
*CONN
*P io_in[31] I
*I *988:io_in[24] I *D soc_sys
*CAP
1 io_in[31] 0.00215118
2 *988:io_in[24] 0.008787
3 *54:19 0.0175844
4 *54:17 0.00879742
5 *54:15 0.0959552
6 *54:13 0.11175
7 *54:9 0.0179459
8 *988:io_in[24] io_out[37] 0.0024495
9 *988:io_in[24] *988:io_in[25] 0
10 *988:io_in[24] *988:io_in[2] 0.00306802
11 *54:15 *829:5 0.00316425
12 *54:15 *830:10 0
13 *54:19 *988:wbs_sel_i[0] 0.00819956
14 *54:19 *988:wbs_sel_i[2] 0.00274553
15 *54:19 *988:wbs_sel_i[3] 0.000157781
16 *54:19 *988:wbs_stb_i 5.66933e-05
17 *54:19 *988:wbs_we_i 0.00634641
18 *54:19 *108:21 0.00691157
19 *54:19 *630:15 0.0113819
20 *54:19 *633:11 0.000538979
21 *54:19 *634:11 0.000401018
22 *54:19 *635:11 0.000491106
23 *988:io_in[23] *988:io_in[24] 0
24 *1:13 *54:13 0.00102116
25 *31:21 *54:19 0.000104561
26 *31:35 *54:19 0.00437163
27 *32:21 *54:19 0.000104561
28 *33:35 *54:19 6.47971e-05
29 *42:25 *54:19 0.000107338
30 *44:25 *54:19 0.000279827
31 *44:43 *54:19 1.92326e-05
32 *49:29 *54:19 0
*RES
1 io_in[31] *54:9 5.51937 
2 *54:9 *54:13 48.7149 
3 *54:13 *54:15 232.716 
4 *54:15 *54:17 3.41 
5 *54:17 *54:19 49.4847 
6 *54:19 *988:io_in[24] 33.7557 
*END

*D_NET *55 0.17374
*CONN
*P io_in[32] I
*I *988:io_in[25] I *D soc_sys
*CAP
1 io_in[32] 0.0168983
2 *988:io_in[25] 0.00024441
3 *55:19 0.0151688
4 *55:17 0.0149243
5 *55:15 0.0168983
6 *988:io_in[25] *988:io_in[26] 0
7 *55:15 *83:17 0.00432777
8 *55:15 *89:25 0
9 *55:15 *93:9 0.00113866
10 *55:15 *122:9 0.00400256
11 *55:19 *56:19 0.0385024
12 *55:19 *66:17 0.000156713
13 *988:io_in[24] *988:io_in[25] 0
14 *49:9 *55:15 0.000322558
15 *50:19 *55:15 0.00417737
16 *50:19 *55:19 0
17 *53:15 *55:15 0.000107335
18 *53:21 *55:15 5.45468e-05
19 *53:23 *55:19 0.0568165
*RES
1 io_in[32] *55:15 49.9065 
2 *55:15 *55:17 3.41 
3 *55:17 *55:19 709.268 
4 *55:19 *988:io_in[25] 4.04607 
*END

*D_NET *56 0.123523
*CONN
*P io_in[33] I
*I *988:io_in[26] I *D soc_sys
*CAP
1 io_in[33] 0.0114032
2 *988:io_in[26] 0.000292773
3 *56:19 0.010756
4 *56:17 0.0104632
5 *56:15 0.0114032
6 *988:io_in[26] *988:io_in[27] 0
7 *56:15 *57:9 0
8 *56:15 *83:17 0.00403369
9 *56:15 *92:17 0.000228481
10 *56:15 *93:9 0.00700945
11 *56:15 *122:9 0.00452109
12 *56:19 *66:17 0.0249097
13 *988:io_in[25] *988:io_in[26] 0
14 *50:19 *56:19 0
15 *55:19 *56:19 0.0385024
*RES
1 io_in[33] *56:15 48.3429 
2 *56:15 *56:17 3.41 
3 *56:17 *56:19 480.982 
4 *56:19 *988:io_in[26] 4.11813 
*END

*D_NET *57 0.0871949
*CONN
*P io_in[34] I
*I *988:io_in[27] I *D soc_sys
*CAP
1 io_in[34] 0.000530948
2 *988:io_in[27] 0.000615195
3 *57:11 0.0318449
4 *57:9 0.0317607
5 *988:io_in[27] *988:io_in[28] 0
6 *57:11 io_oeb[34] 0.00398145
7 *57:11 io_out[35] 0
8 *57:11 io_out[36] 0.000772405
9 *57:11 io_out[37] 0.000212735
10 *57:11 *77:21 0.000319936
11 *57:11 *83:17 0.00218582
12 *57:11 *87:23 0.000408035
13 *57:11 *89:15 0.000271935
14 *57:11 *93:9 0.00122054
15 *57:11 *108:15 0.000874829
16 *57:11 *119:9 0.000538576
17 *57:11 *120:15 0.000707592
18 *57:11 *122:9 0.00252276
19 *57:11 *123:9 0.000959822
20 *57:11 *127:23 0.000321079
21 *988:io_in[26] *988:io_in[27] 0
22 *50:19 *57:11 0.00714561
23 *56:15 *57:9 0
*RES
1 io_in[34] *57:9 4.59597 
2 *57:9 *57:11 82.8234 
3 *57:11 *988:io_in[27] 4.7307 
*END

*D_NET *58 0.0544896
*CONN
*P io_in[35] I
*I *988:io_in[28] I *D soc_sys
*CAP
1 io_in[35] 0.0066481
2 *988:io_in[28] 0.00106534
3 *58:11 0.00771344
4 *988:io_in[28] io_out[36] 0
5 *988:io_in[28] io_out[37] 0
6 *988:io_in[28] *108:15 0
7 *58:11 io_oeb[35] 0.00917657
8 *58:11 io_oeb[36] 0.000425476
9 *58:11 io_out[35] 0.000705306
10 *58:11 io_out[36] 0.00356531
11 *58:11 *988:io_in[29] 0.000322558
12 *58:11 *988:io_in[30] 0.000677252
13 *58:11 *78:9 0.000388517
14 *58:11 *93:9 0.000269031
15 *58:11 *97:9 0.00806734
16 *58:11 *98:9 0.000937062
17 *58:11 *113:9 0.000302184
18 *58:11 *133:9 0.010531
19 *58:11 *136:9 0.00173194
20 *988:io_in[27] *988:io_in[28] 0
21 *46:19 *58:11 0.00196319
*RES
1 io_in[35] *58:11 48.0124 
2 *58:11 *988:io_in[28] 2.32963 
*END

*D_NET *59 0.0115284
*CONN
*P io_in[36] I
*I *988:io_in[29] I *D soc_sys
*CAP
1 io_in[36] 0.00408983
2 *988:io_in[29] 0.00408983
3 *988:io_in[29] *988:io_in[30] 7.30534e-05
4 *988:io_in[29] *60:20 0.000101331
5 *988:io_in[29] *110:9 0.000308508
6 *988:io_in[29] *119:7 0
7 *988:io_in[29] *141:21 0.000124553
8 *988:io_in[19] *988:io_in[29] 0.00180558
9 *51:25 *988:io_in[29] 0.000316086
10 *51:27 *988:io_in[29] 0.000297081
11 *58:11 *988:io_in[29] 0.000322558
*RES
1 io_in[36] *988:io_in[29] 19.2687 
*END

*D_NET *60 0.0231261
*CONN
*P io_in[37] I
*I *988:io_in[30] I *D soc_sys
*CAP
1 io_in[37] 0.00444088
2 *988:io_in[30] 0.00447471
3 *60:20 3.38243e-05
4 *988:io_in[30] io_oeb[36] 0.00249703
5 *988:io_in[30] io_out[36] 0.00014337
6 *988:io_in[30] *98:17 0.00987265
7 *988:io_in[30] *108:15 2.74457e-05
8 *988:io_in[30] *141:21 2.71873e-05
9 *60:20 *141:21 3.90588e-05
10 *988:io_in[29] *988:io_in[30] 7.30534e-05
11 *988:io_in[29] *60:20 0.000101331
12 *46:19 *988:io_in[30] 0.000718323
13 *58:11 *988:io_in[30] 0.000677252
*RES
1 io_in[37] *988:io_in[30] 30.8198 
2 *988:io_in[30] *60:20 0.167633 
*END

*D_NET *65 0.771384
*CONN
*P io_in[7] I
*I *988:io_in[0] I *D soc_sys
*CAP
1 io_in[7] 0.000220707
2 *988:io_in[0] 0.00399076
3 *65:25 0.0307682
4 *65:23 0.0267775
5 *65:21 0.0316464
6 *65:19 0.0316464
7 *65:17 0.0564846
8 *65:15 0.0564846
9 *65:13 0.0295224
10 *65:11 0.0297431
11 *65:13 *66:9 0.0183896
12 *65:13 *69:17 0.0108788
13 *65:13 *71:17 0.00972518
14 *65:13 *108:33 0.00983416
15 *65:13 *111:17 0.00973625
16 *65:17 *67:13 0.166093
17 *65:17 *110:21 4.08342e-05
18 *65:17 *798:9 0
19 *65:21 *67:17 0.0582357
20 *65:21 *805:13 0
21 *65:21 *823:19 0.000999207
22 *65:21 *883:15 6.65945e-05
23 *65:21 *901:9 0.00514942
24 *65:21 *918:21 0.00203959
25 *65:25 *988:wbs_adr_i[0] 0.0025062
26 *65:25 *988:wbs_adr_i[3] 0.00715001
27 *65:25 *988:wbs_dat_i[5] 0.00310876
28 *65:25 *549:15 0.0299351
29 *65:25 *594:15 0.0113332
30 *65:25 *615:13 0.00299999
31 *65:25 *911:15 0.000349057
32 *39:17 *65:25 0.123222
33 *39:21 *988:io_in[0] 0.000582614
34 *42:45 *988:io_in[0] 0.000876722
35 *49:33 *988:io_in[0] 0.000847868
*RES
1 io_in[7] *65:11 3.9223 
2 *65:11 *65:13 94.0094 
3 *65:13 *65:15 3.41 
4 *65:15 *65:17 262.081 
5 *65:17 *65:19 3.41 
6 *65:19 *65:21 124.052 
7 *65:21 *65:23 3.41 
8 *65:23 *65:25 192.609 
9 *65:25 *988:io_in[0] 18.5857 
*END

*D_NET *66 0.569422
*CONN
*P io_in[8] I
*I *988:io_in[1] I *D soc_sys
*CAP
1 io_in[8] 0.0001241
2 *988:io_in[1] 0.0003328
3 *66:17 0.00952807
4 *66:15 0.00919527
5 *66:13 0.159165
6 *66:11 0.159165
7 *66:9 0.031291
8 *66:7 0.0314151
9 *988:io_in[1] *988:io_in[2] 0
10 *66:9 *69:17 0.0112946
11 *66:9 *108:33 0.0620916
12 *66:13 *988:adc_chopclk 0
13 *66:13 *688:11 0.00484372
14 *66:13 *726:11 0.0217063
15 *66:13 *799:9 0
16 *66:17 *71:9 0.000247642
17 *66:17 *110:9 0
18 *66:17 *111:9 0.0204021
19 *66:17 *143:9 0.000777553
20 *35:25 *66:17 0.00175124
21 *37:37 *66:17 0.00233368
22 *38:33 *66:17 0.000101551
23 *47:39 *66:17 0
24 *50:19 *66:17 0
25 *53:23 *66:17 0.000199951
26 *55:19 *66:17 0.000156713
27 *56:19 *66:17 0.0249097
28 *65:13 *66:9 0.0183896
*RES
1 io_in[8] *66:7 3.68573 
2 *66:7 *66:9 1007.38 
3 *66:9 *66:11 3.41 
4 *66:11 *66:13 455.148 
5 *66:13 *66:15 3.41 
6 *66:15 *66:17 402.661 
7 *66:17 *988:io_in[1] 4.1902 
*END

*D_NET *67 0.972095
*CONN
*P io_in[9] I
*I *988:io_in[2] I *D soc_sys
*CAP
1 io_in[9] 0.00105363
2 *988:io_in[2] 0.00219266
3 *67:21 0.0332139
4 *67:19 0.0310212
5 *67:17 0.0244695
6 *67:15 0.0244695
7 *67:13 0.0252251
8 *67:11 0.0252251
9 *67:9 0.0555308
10 *67:7 0.0565844
11 *988:io_in[2] io_out[37] 0.00588682
12 *988:io_in[2] *119:9 0.00106092
13 *67:9 *109:30 0.00217832
14 *67:9 *110:25 0.020441
15 *67:13 *110:21 0.161995
16 *67:13 *715:9 0
17 *67:17 *804:13 0.0179893
18 *67:17 *823:19 6.7962e-06
19 *67:17 *883:15 0.00845061
20 *67:17 *899:9 0.00227636
21 *67:17 *917:21 0.00190362
22 *67:17 *930:13 0.000129086
23 *67:17 *931:13 0.000696992
24 *67:21 *989:wbs_adr_i[0] 0.000164544
25 *67:21 *108:21 0.000111767
26 *67:21 *544:17 0.000488201
27 *67:21 *561:15 0.0444323
28 *67:21 *612:15 0.0113169
29 *67:21 *885:19 0.00211531
30 *988:io_in[1] *988:io_in[2] 0
31 *988:io_in[24] *988:io_in[2] 0.00306802
32 *988:io_in[3] *988:io_in[2] 0
33 *31:9 *67:9 0.00217832
34 *32:9 *67:9 0.0123959
35 *33:9 *67:9 0.0172443
36 *34:9 *67:9 0.0186707
37 *35:9 *67:9 0.0361013
38 *36:25 *67:21 0.00468238
39 *37:33 *67:21 2.22866e-05
40 *38:29 *67:21 0.0637478
41 *40:57 *67:21 0
42 *47:35 *67:21 0.0278396
43 *47:39 *988:io_in[2] 0.00118677
44 *65:17 *67:13 0.166093
45 *65:21 *67:17 0.0582357
*RES
1 io_in[9] *67:7 6.0279 
2 *67:7 *67:9 177.212 
3 *67:9 *67:11 3.41 
4 *67:11 *67:13 259.343 
5 *67:13 *67:15 3.41 
6 *67:15 *67:17 123.306 
7 *67:17 *67:19 3.41 
8 *67:19 *67:21 194.339 
9 *67:21 *988:io_in[2] 20.6208 
*END

*D_NET *69 0.983644
*CONN
*P io_oeb[10] O
*I *988:io_oeb[3] O *D soc_sys
*CAP
1 io_oeb[10] 7.09536e-05
2 *988:io_oeb[3] 0.000466293
3 *69:17 0.0209335
4 *69:15 0.0208625
5 *69:13 0.0554286
6 *69:11 0.0554286
7 *69:9 0.0037451
8 *69:7 0.00421139
9 *69:9 *71:9 0.0120127
10 *69:9 *83:11 0.00335565
11 *69:9 *111:9 0.000311166
12 *69:9 *127:9 0.0034152
13 *69:13 *71:13 0
14 *69:13 *111:13 0.290652
15 *69:13 *113:13 0.238067
16 *69:17 *70:22 0.0107551
17 *69:17 *71:17 0.131075
18 *69:17 *108:33 0.110432
19 *69:17 *111:17 0.000248009
20 *50:19 *69:9 0
21 *65:13 *69:17 0.0108788
22 *66:9 *69:17 0.0112946
*RES
1 *988:io_oeb[3] *69:7 4.4064 
2 *69:7 *69:9 157.375 
3 *69:9 *69:11 3.41 
4 *69:11 *69:13 455.508 
5 *69:13 *69:15 3.41 
6 *69:15 *69:17 1612.09 
7 *69:17 io_oeb[10] 3.5416 
*END

*D_NET *70 0.890192
*CONN
*P io_oeb[11] O
*I *988:io_oeb[4] O *D soc_sys
*CAP
1 io_oeb[11] 0.00017504
2 *988:io_oeb[4] 0.0137941
3 *70:22 0.0382334
4 *70:20 0.203597
5 *70:14 0.217559
6 *70:12 0.0658153
7 *70:12 *105:12 0.0100226
8 *70:12 *131:6 9.67772e-05
9 *70:14 *815:5 0.00274408
10 *70:14 *853:31 0
11 *70:14 *856:10 0.048658
12 *70:20 io_out[8] 0.0556047
13 *70:20 *985:CurrAbsTrim[5] 0.00246615
14 *70:20 *985:trimTC[6] 0.00479525
15 *70:20 *72:24 0.000143602
16 *70:20 *77:27 0.0176356
17 *70:20 *105:18 0.103684
18 *70:20 *109:24 0.00292703
19 *70:20 *115:18 0.029104
20 *70:22 *71:17 0.0138803
21 *70:22 *72:30 0.0143357
22 *70:22 *105:22 0.013483
23 *70:22 *108:33 0.00663928
24 *70:22 *111:17 0.0140432
25 *69:17 *70:22 0.0107551
*RES
1 *988:io_oeb[4] *70:12 8.84224 
2 *70:12 *70:14 216.31 
3 *70:14 *70:20 48.1484 
4 *70:20 *70:22 135.451 
5 *70:22 io_oeb[11] 3.9223 
*END

*D_NET *71 0.738442
*CONN
*P io_oeb[12] O
*I *988:io_oeb[5] O *D soc_sys
*CAP
1 io_oeb[12] 2.67943e-05
2 *988:io_oeb[5] 0.000444766
3 *71:17 0.0275979
4 *71:15 0.0275711
5 *71:13 0.155335
6 *71:11 0.155335
7 *71:9 0.00261102
8 *71:7 0.00305578
9 *71:9 *111:9 0.0119639
10 *71:13 *111:13 0
11 *71:13 *113:13 0
12 *71:13 *692:11 0.000166282
13 *71:17 *72:30 0.0094647
14 *71:17 *108:33 0.00813717
15 *71:17 *111:17 0.169792
16 *47:29 *71:13 0
17 *49:21 *71:13 0
18 *50:19 *71:9 0
19 *65:13 *71:17 0.00972518
20 *66:17 *71:9 0.000247642
21 *69:9 *71:9 0.0120127
22 *69:13 *71:13 0
23 *69:17 *71:17 0.131075
24 *70:22 *71:17 0.0138803
*RES
1 *988:io_oeb[5] *71:7 4.33433 
2 *71:7 *71:9 155.554 
3 *71:9 *71:11 3.41 
4 *71:11 *71:13 455.508 
5 *71:13 *71:15 3.41 
6 *71:15 *71:17 2081.41 
7 *71:17 io_oeb[12] 3.46953 
*END

*D_NET *72 0.773459
*CONN
*P io_oeb[13] O
*I *988:io_oeb[6] O *D soc_sys
*CAP
1 io_oeb[13] 9.11586e-05
2 *988:io_oeb[6] 0.0059715
3 *72:30 0.0435687
4 *72:28 0.0434776
5 *72:26 0.0762311
6 *72:24 0.0812536
7 *72:14 0.0652913
8 *72:12 0.0662402
9 *72:12 *74:12 0.00710163
10 *72:12 *131:6 0.000160933
11 *72:14 *112:14 0
12 *72:14 *132:14 0.0150205
13 *72:14 *759:5 0.00452432
14 *72:24 *985:CurrAbsTrim[5] 0.000185941
15 *72:24 *74:30 0.000446327
16 *72:24 *105:18 0.00396457
17 *72:24 *109:24 0.0100156
18 *72:24 *115:18 0.000457673
19 *72:26 *74:32 0.00402967
20 *72:26 *81:52 0.00820836
21 *72:26 *109:26 0.24195
22 *72:30 *105:22 0.010617
23 *72:30 *108:33 0.0578423
24 *72:30 *111:17 0
25 *48:37 *72:14 0.00286458
26 *70:20 *72:24 0.000143602
27 *70:22 *72:30 0.0143357
28 *71:17 *72:30 0.0094647
*RES
1 *988:io_oeb[6] *72:12 6.71189 
2 *72:12 *72:14 213.966 
3 *72:14 *72:24 40.8234 
4 *72:24 *72:26 2351.46 
5 *72:26 *72:28 4.5 
6 *72:28 *72:30 1242.79 
7 *72:30 io_oeb[13] 3.68573 
*END

*D_NET *73 0.665806
*CONN
*P io_oeb[14] O
*I *988:io_oeb[7] O *D soc_sys
*CAP
1 io_oeb[14] 0.140335
2 *988:io_oeb[7] 0.00805742
3 *73:47 0.140335
4 *73:45 0.108023
5 *73:43 0.120903
6 *73:35 0.0209373
7 *73:35 *76:20 1.8492e-06
8 *73:35 *80:16 0.000552276
9 *73:35 *103:21 0.00297968
10 *73:35 *104:20 0.00219867
11 *73:35 *130:11 0
12 *73:35 *131:6 5.3446e-05
13 *73:35 *143:29 9.40346e-05
14 *73:43 *78:29 0.000128013
15 *73:43 *91:20 0.000225377
16 *73:45 *114:14 0.118952
17 *51:19 *73:35 0.00203012
*RES
1 *988:io_oeb[7] *73:35 47.291 
2 *73:35 *73:43 13.1357 
3 *73:43 *73:45 461.762 
4 *73:45 *73:47 3.41 
5 *73:47 io_oeb[14] 425.073 
*END

*D_NET *74 0.7558
*CONN
*P io_oeb[15] O
*I *988:io_oeb[8] O *D soc_sys
*CAP
1 io_oeb[15] 0.0733351
2 *988:io_oeb[8] 0.00515382
3 *74:34 0.0733351
4 *74:32 0.0691795
5 *74:30 0.0775204
6 *74:14 0.0576377
7 *74:12 0.0544506
8 *74:12 *75:12 0.00853584
9 *74:12 *131:6 7.22022e-05
10 *74:14 *115:14 0.0547954
11 *74:14 *116:12 0
12 *74:14 *792:5 0.00338673
13 *74:30 io_out[8] 0.00016754
14 *74:30 *77:27 0.000596599
15 *74:30 *105:18 0.000213509
16 *74:30 *109:24 0.00203294
17 *74:30 *115:18 0.00103909
18 *74:32 io_out[8] 0.00102543
19 *74:32 *109:26 0.216471
20 *74:32 *116:16 0.0452736
21 *72:12 *74:12 0.00710163
22 *72:24 *74:30 0.000446327
23 *72:26 *74:32 0.00402967
*RES
1 *988:io_oeb[8] *74:12 6.78559 
2 *74:12 *74:14 213.646 
3 *74:14 *74:30 17.3886 
4 *74:30 *74:32 2125.57 
5 *74:32 *74:34 4.5 
6 *74:34 io_oeb[15] 1509.27 
*END

*D_NET *75 0.778524
*CONN
*P io_oeb[16] O
*I *988:io_oeb[9] O *D soc_sys
*CAP
1 io_oeb[16] 0.143517
2 *988:io_oeb[9] 0.00900607
3 *75:14 0.272213
4 *75:12 0.137702
5 io_oeb[16] io_oeb[22] 0.00213729
6 io_oeb[16] io_out[21] 0.00253689
7 io_oeb[16] *76:26 0.0308947
8 io_oeb[16] *78:35 0.0231239
9 io_oeb[16] *80:22 0.0181539
10 io_oeb[16] *114:18 0.0398731
11 io_oeb[16] *118:18 0.017597
12 io_oeb[16] *120:21 0.00360941
13 *75:12 *131:6 9.67772e-05
14 *75:14 *82:22 0
15 *75:14 *104:22 0.0124982
16 *75:14 *116:12 0.0377975
17 *75:14 *793:5 0.00761465
18 *42:9 io_oeb[16] 0.00803918
19 *43:11 io_oeb[16] 0.00218736
20 *44:11 io_oeb[16] 0.000647524
21 *45:15 io_oeb[16] 0.000742247
22 *74:12 *75:12 0.00853584
*RES
1 *988:io_oeb[9] *75:12 7.03961 
2 *75:12 *75:14 478.382 
3 *75:14 io_oeb[16] 47.485 
*END

*D_NET *76 0.572204
*CONN
*P io_oeb[17] O
*I *988:io_oeb[10] O *D soc_sys
*CAP
1 io_oeb[17] 0.00025154
2 *988:io_oeb[10] 0.00746671
3 *76:26 0.0826485
4 *76:24 0.0823969
5 *76:22 0.146404
6 *76:20 0.15387
7 *76:20 *78:29 0
8 *76:20 *80:16 0.000661593
9 *76:20 *81:46 0.000857718
10 *76:20 *87:23 0.000171302
11 *76:20 *88:10 0
12 *76:20 *91:20 0.000594628
13 *76:20 *94:14 9.56367e-05
14 *76:20 *127:25 0
15 *76:20 *131:6 0.000164694
16 *76:22 *87:25 0
17 *76:22 *855:5 0.00393359
18 *76:22 *866:5 0.0023996
19 *76:26 io_oeb[22] 0.0114545
20 *76:26 io_out[21] 0.00501137
21 *76:26 *78:35 0
22 *76:26 *80:22 0.000399356
23 *76:26 *114:18 0
24 *76:26 *118:18 0.00120439
25 *76:26 *120:21 0.00484313
26 io_oeb[16] *76:26 0.0308947
27 *40:11 *76:26 0.000131598
28 *42:9 *76:26 0.0121254
29 *43:11 *76:26 0.022245
30 *44:11 *76:26 0.00197619
31 *73:35 *76:20 1.8492e-06
*RES
1 *988:io_oeb[10] *76:20 17.4387 
2 *76:20 *76:22 465.385 
3 *76:22 *76:24 3.41 
4 *76:24 *76:26 299.088 
5 *76:26 io_oeb[17] 8.32964 
*END

*D_NET *77 0.675947
*CONN
*P io_oeb[18] O
*I *988:io_oeb[11] O *D soc_sys
*CAP
1 io_oeb[18] 0.0733475
2 *988:io_oeb[11] 0.013825
3 *77:29 0.0733475
4 *77:27 0.025464
5 *77:25 0.025464
6 *77:23 0.047422
7 *77:21 0.061247
8 *77:21 *78:7 0
9 *77:21 *81:46 0.00323066
10 *77:21 *82:20 0.00528017
11 *77:21 *84:7 2.22786e-05
12 *77:21 *122:9 0.00198084
13 *77:23 *109:14 0.0531809
14 *77:23 *143:31 0
15 *77:27 *115:18 0.148659
16 *77:27 *116:16 0.124168
17 *50:19 *77:21 0.000756023
18 *57:11 *77:21 0.000319936
19 *70:20 *77:27 0.0176356
20 *74:30 *77:27 0.000596599
*RES
1 *988:io_oeb[11] *77:21 40.2644 
2 *77:21 *77:23 207.68 
3 *77:23 *77:25 3.41 
4 *77:25 *77:27 231.633 
5 *77:27 *77:29 3.41 
6 *77:29 io_oeb[18] 1510.03 
*END

*D_NET *78 0.667427
*CONN
*P io_oeb[19] O
*I *988:io_oeb[12] O *D soc_sys
*CAP
1 io_oeb[19] 7.50775e-05
2 *988:io_oeb[12] 0.00102976
3 *78:35 0.0197646
4 *78:33 0.0196895
5 *78:31 0.106335
6 *78:29 0.127755
7 *78:9 0.0224493
8 *78:7 0.002059
9 *78:9 io_oeb[35] 0.000839888
10 *78:9 io_out[35] 0.000152348
11 *78:9 *98:9 0.000344466
12 *78:9 *126:17 0.00322743
13 *78:9 *136:9 0.00263254
14 *78:29 *88:10 0.00256005
15 *78:29 *91:20 0
16 *78:29 *120:15 0.00155905
17 *78:29 *125:7 0
18 *78:31 *118:14 0.121001
19 *78:31 *806:5 0.00519171
20 *78:35 *80:22 0.0799696
21 *78:35 *114:18 0.112573
22 *78:35 *118:18 0.00464503
23 io_oeb[16] *78:35 0.0231239
24 *42:9 *78:35 0.00300489
25 *46:19 *78:9 0.00649107
26 *48:37 *78:29 0.000436795
27 *58:11 *78:9 0.000388517
28 *73:43 *78:29 0.000128013
29 *76:20 *78:29 0
30 *76:26 *78:35 0
31 *77:21 *78:7 0
*RES
1 *988:io_oeb[12] *78:7 5.55947 
2 *78:7 *78:9 79.6607 
3 *78:9 *78:29 33.0583 
4 *78:29 *78:31 469.752 
5 *78:31 *78:33 3.41 
6 *78:33 *78:35 175.493 
7 *78:35 io_oeb[19] 4.68679 
*END

*D_NET *80 0.539037
*CONN
*P io_oeb[20] O
*I *988:io_oeb[13] O *D soc_sys
*CAP
1 io_oeb[20] 0.000112925
2 *988:io_oeb[13] 0.0046499
3 *80:22 0.015948
4 *80:20 0.0158351
5 *80:18 0.119115
6 *80:16 0.123765
7 *80:16 *81:46 0.00134521
8 *80:16 *131:6 7.22022e-05
9 *80:18 *81:46 0
10 *80:18 *85:14 0.0702149
11 *80:18 *91:22 0
12 *80:22 io_out[23] 0.000309398
13 *80:22 *114:18 0.000869362
14 *80:22 *118:18 0.0801499
15 *80:22 *120:21 0.00571856
16 io_oeb[16] *80:22 0.0181539
17 *47:21 *80:18 0
18 *48:37 *80:18 0.00119537
19 *73:35 *80:16 0.000552276
20 *76:20 *80:16 0.000661593
21 *76:26 *80:22 0.000399356
22 *78:35 *80:22 0.0799696
*RES
1 *988:io_oeb[13] *80:16 5.88713 
2 *80:16 *80:18 476.038 
3 *80:18 *80:20 3.41 
4 *80:20 *80:22 144.433 
5 *80:22 io_oeb[20] 5.29393 
*END

*D_NET *81 0.426545
*CONN
*P io_oeb[21] O
*I *988:io_oeb[14] O *D soc_sys
*CAP
1 io_oeb[21] 0.0733429
2 *988:io_oeb[14] 0.0140827
3 *81:54 0.0733429
4 *81:52 0.0158655
5 *81:50 0.0158655
6 *81:48 0.0652562
7 *81:46 0.0793389
8 *81:46 *82:20 0.0054759
9 *81:46 *112:14 0.000629484
10 *81:46 *114:14 0
11 *81:46 *131:6 0.000123327
12 *81:48 *114:14 0
13 *81:48 *802:5 0.0075871
14 *81:52 *985:finetune 2.62855e-05
15 *81:52 *985:CurrAbsTrim[4] 1.73197e-05
16 *81:52 *985:mux1sel[0] 0.000107831
17 *81:52 *985:dft_sel 0.000427619
18 *81:52 *985:pd 0.000128805
19 *81:52 *985:trimTC[6] 0.00028552
20 *81:52 *985:trimTC[5] 2.7955e-05
21 *81:52 *985:trimTC[4] 1.47728e-05
22 *81:52 *985:trimTC[3] 3.19061e-05
23 *81:52 *985:trimTC[2] 8.28335e-06
24 *81:52 *985:trimTC[1] 4.35802e-05
25 *81:52 *985:inl_ctrl[1] 0.000345336
26 *81:52 *985:inl_ctrl[5] 1.1672e-05
27 *81:52 *985:inl_ctrl[2] 0.000611668
28 *81:52 *116:16 0.0494496
29 *19:15 *81:48 0.0104545
30 *72:26 *81:52 0.00820836
31 *76:20 *81:46 0.000857718
32 *77:21 *81:46 0.00323066
33 *80:16 *81:46 0.00134521
34 *80:18 *81:46 0
*RES
1 *988:io_oeb[14] *81:46 22.6701 
2 *81:46 *81:48 205.387 
3 *81:48 *81:50 3.41 
4 *81:50 *81:52 77.2664 
5 *81:52 *81:54 3.41 
6 *81:54 io_oeb[21] 1508.81 
*END

*D_NET *82 0.372288
*CONN
*P io_oeb[22] O
*I *988:io_oeb[15] O *D soc_sys
*CAP
1 io_oeb[22] 0.00369256
2 *988:io_oeb[15] 0.00853475
3 *82:22 0.135842
4 *82:20 0.140684
5 io_oeb[22] *120:21 0.0202111
6 *82:20 *131:6 0.000190509
7 *82:22 *104:22 0.0387849
8 *82:22 *105:14 0
9 *82:22 *141:23 0
10 io_oeb[16] io_oeb[22] 0.00213729
11 *75:14 *82:22 0
12 *76:26 io_oeb[22] 0.0114545
13 *77:21 *82:20 0.00528017
14 *81:46 *82:20 0.0054759
*RES
1 *988:io_oeb[15] *82:20 7.70905 
2 *82:20 *82:22 473.055 
3 *82:22 io_oeb[22] 42.0295 
*END

*D_NET *83 0.401404
*CONN
*P io_oeb[23] O
*I *988:io_oeb[16] O *D soc_sys
*CAP
1 io_oeb[23] 0.00211066
2 *988:io_oeb[16] 0.00133774
3 *83:17 0.0777208
4 *83:15 0.0757772
5 *83:11 0.00150478
6 *83:11 *84:7 0
7 *83:15 io_oeb[34] 8.47049e-05
8 *83:15 io_oeb[35] 8.47049e-05
9 *83:17 io_oeb[34] 0.00199303
10 *83:17 *84:17 0.0108074
11 *83:17 *89:15 0.000792518
12 *83:17 *122:9 0.152534
13 *50:15 *83:17 0.00428977
14 *50:19 *83:11 0.00129402
15 *50:19 *83:17 0.044536
16 *51:15 *83:17 0.00416634
17 *53:13 *83:17 0.00138
18 *53:15 *83:17 0.00708773
19 *55:15 *83:17 0.00432777
20 *56:15 *83:17 0.00403369
21 *57:11 *83:17 0.00218582
22 *69:9 *83:11 0.00335565
*RES
1 *988:io_oeb[16] *83:11 49.9063 
2 *83:11 *83:15 3.8894 
3 *83:15 *83:17 2652.73 
4 *83:17 io_oeb[23] 17.1196 
*END

*D_NET *84 0.463948
*CONN
*P io_oeb[24] O
*I *988:io_oeb[17] O *D soc_sys
*CAP
1 io_oeb[24] 0.000293512
2 *988:io_oeb[17] 0.000761916
3 *84:17 0.0257656
4 *84:15 0.0255922
5 *84:9 0.0327232
6 *84:7 0.033365
7 *84:9 io_oeb[34] 0.00233299
8 *84:9 *89:25 0.00235277
9 *84:9 *93:9 0.00809251
10 *84:9 *122:9 0.151182
11 *84:9 *123:9 0.108648
12 *84:9 *123:17 0.00867218
13 *84:9 *127:23 0.000393705
14 *84:17 *122:9 0.000681324
15 *84:17 *122:17 0.00173884
16 *84:17 *123:17 0.0388898
17 *51:15 *84:9 0.00429668
18 *53:15 *84:9 0.00733652
19 *77:21 *84:7 2.22786e-05
20 *83:11 *84:7 0
21 *83:17 *84:17 0.0108074
*RES
1 *988:io_oeb[17] *84:7 5.055 
2 *84:7 *84:9 1853.73 
3 *84:9 *84:15 7.11923 
4 *84:15 *84:17 78.4459 
5 *84:17 io_oeb[24] 4.33903 
*END

*D_NET *85 0.388537
*CONN
*P io_oeb[25] O
*I *988:io_oeb[18] O *D soc_sys
*CAP
1 io_oeb[25] 0.00493367
2 *988:io_oeb[18] 0.00448849
3 *85:14 0.0655305
4 *85:12 0.0650853
5 *85:12 *88:10 0.00468223
6 *85:12 *131:6 0.000323142
7 *85:14 *682:5 0.00346387
8 *47:21 *85:14 0.00498992
9 *47:23 *85:14 0.0724522
10 *48:15 *85:14 0.0923723
11 *80:18 *85:14 0.0702149
*RES
1 *988:io_oeb[18] *85:12 6.89227 
2 *85:12 *85:14 394.646 
3 *85:14 io_oeb[25] 17.6244 
*END

*D_NET *86 0.389512
*CONN
*P io_oeb[26] O
*I *988:io_oeb[19] O *D soc_sys
*CAP
1 io_oeb[26] 0.0013237
2 *988:io_oeb[19] 0.000146823
3 *86:17 0.0421711
4 *86:15 0.0411889
5 *86:9 0.00309402
6 *86:7 0.00289934
7 *86:9 *129:11 0
8 *86:9 *130:11 0
9 *86:9 *130:19 0.000752776
10 *86:15 *126:23 2.92106e-05
11 *86:15 *129:17 0
12 *86:17 *126:25 0.127834
13 *46:11 *86:17 0.162167
14 *46:17 *86:15 0.000732842
15 *51:19 *86:9 0.0071719
*RES
1 *988:io_oeb[19] *86:7 3.82987 
2 *86:7 *86:9 88.1607 
3 *86:9 *86:15 8.12817 
4 *86:15 *86:17 338.716 
5 *86:17 io_oeb[26] 6.97103 
*END

*D_NET *87 0.254207
*CONN
*P io_oeb[27] O
*I *988:io_oeb[20] O *D soc_sys
*CAP
1 io_oeb[27] 0.003854
2 *988:io_oeb[20] 0.00507321
3 *87:25 0.115161
4 *87:23 0.116381
5 *87:23 io_oeb[35] 5.59057e-05
6 *87:23 *88:10 5.741e-05
7 *87:23 *89:15 0.00040571
8 *87:23 *91:20 0.000173499
9 *87:23 *92:15 1.60335e-05
10 *87:23 *93:9 3.81206e-05
11 *87:23 *94:12 0.000897581
12 *87:23 *122:9 0.00100316
13 *87:23 *127:23 0.00108571
14 *87:25 *844:5 0.00918781
15 *50:19 *87:23 0.000237102
16 *57:11 *87:23 0.000408035
17 *76:20 *87:23 0.000171302
18 *76:22 *87:25 0
*RES
1 *988:io_oeb[20] *87:23 27.2919 
2 *87:23 *87:25 309.633 
3 *87:25 io_oeb[27] 14.2529 
*END

*D_NET *88 0.207926
*CONN
*P io_oeb[28] O
*I *988:io_oeb[21] O *D soc_sys
*CAP
1 io_oeb[28] 0.00648127
2 *988:io_oeb[21] 0.00378542
3 *88:12 0.0711015
4 *88:10 0.0684056
5 *88:10 *91:20 0.00106073
6 *88:12 *120:17 0.0484008
7 *88:12 *121:22 0
8 *88:12 *726:7 0.00024721
9 *48:37 *88:10 0.00114337
10 *76:20 *88:10 0
11 *78:29 *88:10 0.00256005
12 *85:12 *88:10 0.00468223
13 *87:23 *88:10 5.741e-05
*RES
1 *988:io_oeb[21] *88:10 5.83725 
2 *88:10 *88:12 271.494 
3 *88:12 io_oeb[28] 20.9394 
*END

*D_NET *89 0.247178
*CONN
*P io_oeb[29] O
*I *988:io_oeb[22] O *D soc_sys
*CAP
1 io_oeb[29] 0.000195082
2 *988:io_oeb[22] 0.00150773
3 *89:25 0.0309737
4 *89:23 0.0308147
5 *89:17 0.00281908
6 *89:15 0.00429069
7 io_oeb[29] *123:15 5.64774e-06
8 *89:15 *98:7 0.000363601
9 *89:15 *122:9 0.000670699
10 *89:17 *93:9 0.00373337
11 *89:17 *125:9 0.00975069
12 *89:17 *126:17 0.00401796
13 *89:23 io_oeb[34] 1.46412e-05
14 *89:25 *92:17 0.0582749
15 *89:25 *93:9 0.0387187
16 *89:25 *123:9 0.00327364
17 *89:25 *124:9 0.00595627
18 *89:25 *124:17 0.0394214
19 *89:25 *125:9 0.00212629
20 *49:9 *89:25 1.47871e-05
21 *50:19 *89:15 0.00132863
22 *51:15 *89:25 0.00119358
23 *53:13 *89:25 0
24 *53:15 *89:25 0.0038891
25 *55:15 *89:25 0
26 *57:11 *89:15 0.000271935
27 *83:17 *89:15 0.000792518
28 *84:9 *89:25 0.00235277
29 *87:23 *89:15 0.00040571
*RES
1 *988:io_oeb[22] *89:15 42.1573 
2 *89:15 *89:17 119.732 
3 *89:17 *89:23 6.90303 
4 *89:23 *89:25 203.952 
5 *89:25 io_oeb[29] 3.8753 
*END

*D_NET *91 0.144849
*CONN
*P io_oeb[30] O
*I *988:io_oeb[23] O *D soc_sys
*CAP
1 io_oeb[30] 0.00557145
2 *988:io_oeb[23] 0.00542933
3 *91:22 0.0639675
4 *91:20 0.0638254
5 *91:20 *94:14 0
6 *91:20 *127:23 0.00219867
7 *91:20 *131:6 7.22022e-05
8 *91:22 *693:5 0.00173065
9 *73:43 *91:20 0.000225377
10 *76:20 *91:20 0.000594628
11 *78:29 *91:20 0
12 *80:18 *91:22 0
13 *87:23 *91:20 0.000173499
14 *88:10 *91:20 0.00106073
*RES
1 *988:io_oeb[23] *91:20 10.9483 
2 *91:20 *91:22 184.563 
3 *91:22 io_oeb[30] 18.7774 
*END

*D_NET *92 0.156218
*CONN
*P io_oeb[31] O
*I *988:io_oeb[24] O *D soc_sys
*CAP
1 io_oeb[31] 0.000218228
2 *988:io_oeb[24] 0.00139949
3 *92:17 0.0164503
4 *92:15 0.0176315
5 io_oeb[31] *124:15 2.82126e-05
6 *92:15 io_oeb[35] 0.000254165
7 *92:15 *93:7 0
8 *92:15 *126:17 0.00199083
9 *92:17 *93:9 0.00524312
10 *92:17 *125:19 0.00820522
11 *92:17 *125:21 0.0140083
12 *92:17 *126:17 0.000936065
13 *92:17 *133:9 0.0077231
14 *46:19 *92:15 0.00199787
15 *46:19 *92:17 0.00167003
16 *49:9 io_oeb[31] 0.000322558
17 *49:9 *92:17 0.0196194
18 *56:15 *92:17 0.000228481
19 *87:23 *92:15 1.60335e-05
20 *89:25 *92:17 0.0582749
*RES
1 *988:io_oeb[24] *92:15 36.8732 
2 *92:15 *92:17 142.376 
3 *92:17 io_oeb[31] 4.05077 
*END

*D_NET *93 0.151091
*CONN
*P io_oeb[32] O
*I *988:io_oeb[25] O *D soc_sys
*CAP
1 io_oeb[32] 0.000305616
2 *988:io_oeb[25] 0.000940763
3 *93:9 0.0164335
4 *93:7 0.0170687
5 *93:9 io_oeb[34] 0.0108395
6 *93:9 io_oeb[35] 0.000540917
7 *93:9 *98:9 0.00021905
8 *93:9 *113:9 0.0012156
9 *93:9 *123:9 0.00657069
10 *93:9 *124:9 0.0118553
11 *93:9 *125:9 0.00228677
12 *93:9 *133:9 1.66625e-05
13 *49:9 io_oeb[32] 0.000322558
14 *49:15 io_oeb[32] 0.000286743
15 *49:17 *93:9 0.0167249
16 *55:15 *93:9 0.00113866
17 *56:15 *93:9 0.00700945
18 *57:11 *93:9 0.00122054
19 *58:11 *93:9 0.000269031
20 *84:9 *93:9 0.00809251
21 *87:23 *93:9 3.81206e-05
22 *89:17 *93:9 0.00373337
23 *89:25 *93:9 0.0387187
24 *92:15 *93:7 0
25 *92:17 *93:9 0.00524312
*RES
1 *988:io_oeb[25] *93:7 5.30723 
2 *93:7 *93:9 105.195 
3 *93:9 io_oeb[32] 4.33903 
*END

*D_NET *94 0.0623468
*CONN
*P io_oeb[33] O
*I *988:io_oeb[26] O *D soc_sys
*CAP
1 io_oeb[33] 0.00334206
2 *988:io_oeb[26] 0.00220834
3 *94:14 0.0235586
4 *94:12 0.0224249
5 *94:12 *131:6 0.000160933
6 *94:14 *127:25 0
7 *94:14 *811:5 0.00965877
8 *76:20 *94:14 9.56367e-05
9 *87:23 *94:12 0.000897581
10 *91:20 *94:14 0
*RES
1 *988:io_oeb[26] *94:12 5.43367 
2 *94:12 *94:14 63.4343 
3 *94:14 io_oeb[33] 12.0909 
*END

*D_NET *95 0.0326747
*CONN
*P io_oeb[34] O
*I *988:io_oeb[27] O *D soc_sys
*CAP
1 io_oeb[34] 0.0045793
2 *988:io_oeb[27] 0.0045793
3 io_oeb[34] io_oeb[35] 0
4 io_oeb[34] *122:9 0.00215656
5 io_oeb[34] *123:9 0.00207761
6 io_oeb[34] *130:17 3.55627e-05
7 *57:11 io_oeb[34] 0.00398145
8 *83:15 io_oeb[34] 8.47049e-05
9 *83:17 io_oeb[34] 0.00199303
10 *84:9 io_oeb[34] 0.00233299
11 *89:23 io_oeb[34] 1.46412e-05
12 *93:9 io_oeb[34] 0.0108395
*RES
1 *988:io_oeb[27] io_oeb[34] 32.0653 
*END

*D_NET *96 0.026337
*CONN
*P io_oeb[35] O
*I *988:io_oeb[28] O *D soc_sys
*CAP
1 io_oeb[35] 0.00375074
2 *988:io_oeb[28] 0.00375074
3 io_oeb[35] io_out[35] 0.00440779
4 io_oeb[35] *97:7 0
5 io_oeb[35] *126:17 0.00194081
6 io_oeb[35] *127:23 0.00150622
7 io_oeb[35] *130:17 2.85548e-05
8 io_oeb[34] io_oeb[35] 0
9 *58:11 io_oeb[35] 0.00917657
10 *78:9 io_oeb[35] 0.000839888
11 *83:15 io_oeb[35] 8.47049e-05
12 *87:23 io_oeb[35] 5.59057e-05
13 *92:15 io_oeb[35] 0.000254165
14 *93:9 io_oeb[35] 0.000540917
*RES
1 *988:io_oeb[28] io_oeb[35] 28.1235 
*END

*D_NET *97 0.0502022
*CONN
*P io_oeb[36] O
*I *988:io_oeb[29] O *D soc_sys
*CAP
1 io_oeb[36] 0.002373
2 *988:io_oeb[29] 0.00116763
3 *97:9 0.00925563
4 *97:7 0.00805026
5 io_oeb[36] io_out[36] 2.48858e-05
6 *97:7 *98:7 0
7 io_oeb[35] *97:7 0
8 *988:io_in[30] io_oeb[36] 0.00249703
9 *46:19 *97:9 0.0183409
10 *58:11 io_oeb[36] 0.000425476
11 *58:11 *97:9 0.00806734
*RES
1 *988:io_oeb[29] *97:7 5.7036 
2 *97:7 *97:9 224.768 
3 *97:9 io_oeb[36] 21.2734 
*END

*D_NET *98 0.0838602
*CONN
*P io_oeb[37] O
*I *988:io_oeb[30] O *D soc_sys
*CAP
1 io_oeb[37] 0.000199643
2 *988:io_oeb[30] 0.000935891
3 *98:17 0.00824073
4 *98:9 0.0117643
5 *98:7 0.00465912
6 *98:9 io_out[35] 0.000961421
7 *98:9 io_out[36] 0.000420301
8 *98:9 *108:17 0
9 *98:9 *113:9 0.00184316
10 *98:9 *119:9 0
11 *98:9 *125:9 0.0121693
12 *98:9 *126:17 0.00857302
13 *98:9 *127:23 0.000660658
14 *98:9 *136:9 0.00941967
15 *98:17 io_out[36] 0.000113877
16 *98:17 io_out[37] 0.00796403
17 *988:io_in[30] *98:17 0.00987265
18 *43:21 *98:17 0.00419825
19 *58:11 *98:9 0.000937062
20 *78:9 *98:9 0.000344466
21 *89:15 *98:7 0.000363601
22 *93:9 *98:9 0.00021905
23 *97:7 *98:7 0
*RES
1 *988:io_oeb[30] *98:7 5.41533 
2 *98:7 *98:9 228.411 
3 *98:9 *98:17 48.0719 
4 *98:17 io_oeb[37] 3.98183 
*END

*D_NET *103 0.438375
*CONN
*P io_oeb[7] O
*I *988:io_oeb[0] O *D soc_sys
*CAP
1 io_oeb[7] 0.137574
2 *988:io_oeb[0] 0.015073
3 *103:25 0.137574
4 *103:23 0.0607948
5 *103:21 0.0758678
6 *103:21 io_out[35] 1.44355e-05
7 *103:21 io_out[36] 2.59024e-05
8 *103:21 *130:11 0
9 *103:21 *136:7 0
10 *103:21 *143:29 0.00756819
11 *103:23 *818:5 0.000211187
12 *51:19 *103:21 0.000692443
13 *73:35 *103:21 0.00297968
*RES
1 *988:io_oeb[0] *103:21 24.7513 
2 *103:21 *103:23 189.037 
3 *103:23 *103:25 3.41 
4 *103:25 io_oeb[7] 414.551 
*END

*D_NET *104 0.489931
*CONN
*P io_oeb[8] O
*I *988:io_oeb[1] O *D soc_sys
*CAP
1 io_oeb[8] 0.151138
2 *988:io_oeb[1] 0.00953645
3 *104:24 0.151138
4 *104:22 0.0501059
5 *104:20 0.0596424
6 *104:20 *105:12 0.00726501
7 *104:20 *131:6 0.000255225
8 *104:22 *116:12 0
9 *104:22 *141:23 0
10 *104:22 *794:5 0.00736741
11 *73:35 *104:20 0.00219867
12 *75:14 *104:22 0.0124982
13 *82:22 *104:22 0.0387849
*RES
1 *988:io_oeb[1] *104:20 10.2844 
2 *104:20 *104:22 228.028 
3 *104:22 *104:24 3.41 
4 *104:24 io_oeb[8] 431.847 
*END

*D_NET *105 0.802912
*CONN
*P io_oeb[9] O
*I *988:io_oeb[2] O *D soc_sys
*CAP
1 io_oeb[9] 0.000164226
2 *988:io_oeb[2] 0.00608094
3 *105:22 0.011942
4 *105:20 0.0117777
5 *105:18 0.0855844
6 *105:16 0.0855844
7 *105:14 0.0499994
8 *105:12 0.0560804
9 *105:12 *131:6 0.000131356
10 *105:14 *107:14 0.0121246
11 *105:14 *141:23 0.0309007
12 *105:14 *796:5 0.00637846
13 *105:18 io_out[8] 0.269194
14 *105:18 *985:CurrAbsTrim[5] 0.0139819
15 *105:18 *985:trimTC[6] 0.00398106
16 *105:18 *115:18 0.00377399
17 *105:22 *108:33 0.00598328
18 *70:12 *105:12 0.0100226
19 *70:20 *105:18 0.103684
20 *70:22 *105:22 0.013483
21 *72:24 *105:18 0.00396457
22 *72:30 *105:22 0.010617
23 *74:30 *105:18 0.000213509
24 *82:22 *105:14 0
25 *104:20 *105:12 0.00726501
*RES
1 *988:io_oeb[2] *105:12 7.39196 
2 *105:12 *105:14 216.949 
3 *105:14 *105:16 3.41 
4 *105:16 *105:18 429.997 
5 *105:18 *105:20 3.41 
6 *105:20 *105:22 52.2483 
7 *105:22 io_oeb[9] 3.72177 
*END

*D_NET *107 0.551561
*CONN
*P io_out[10] O
*I *988:io_out[3] O *D soc_sys
*CAP
1 io_out[10] 0.151304
2 *988:io_out[3] 0.00764819
3 *107:16 0.151304
4 *107:14 0.0726421
5 *107:12 0.0802903
6 *107:12 *109:12 0.000748031
7 *107:12 *142:32 0.00836721
8 *107:14 *109:14 0
9 *107:14 *141:23 0
10 *107:14 *142:32 7.60308e-05
11 *107:14 *143:31 0.0670143
12 *988:io_in[19] *107:12 4.26254e-05
13 *105:14 *107:14 0.0121246
*RES
1 *988:io_out[3] *107:12 7.13791 
2 *107:12 *107:14 320.073 
3 *107:14 *107:16 3.41 
4 *107:16 io_out[10] 429.685 
*END

*D_NET *108 0.966804
*CONN
*P io_out[11] O
*I *988:io_out[4] O *D soc_sys
*CAP
1 io_out[11] 9.24163e-05
2 *988:io_out[4] 0.00134287
3 *108:33 0.0206796
4 *108:31 0.0205872
5 *108:29 0.0474974
6 *108:27 0.0474974
7 *108:25 0.0228036
8 *108:23 0.0228036
9 *108:21 0.0295733
10 *108:19 0.0295733
11 *108:17 0.00327244
12 *108:15 0.00461531
13 *108:15 io_out[36] 0.000883848
14 *108:15 io_out[37] 1.4477e-06
15 *108:15 *119:9 0.000309422
16 *108:17 io_out[37] 0.00258599
17 *108:17 *119:9 0.002911
18 *108:17 *136:9 0
19 *108:21 *988:wbs_we_i 0.00634899
20 *108:21 *989:wbs_dat_i[3] 0.00245581
21 *108:21 *989:wbs_dat_i[9] 0
22 *108:21 *618:13 0.00569657
23 *108:21 *629:13 0.0494636
24 *108:21 *630:15 0.0113845
25 *108:21 *631:15 0.000456268
26 *108:21 *632:11 0
27 *108:21 *637:11 0
28 *108:21 *639:15 0.000390977
29 *108:21 *894:19 0.000355893
30 *108:21 *928:19 0.000142747
31 *108:25 *945:21 0
32 *108:29 *720:9 0
33 *108:29 *732:9 0.00288939
34 *988:io_in[28] *108:15 0
35 *988:io_in[30] *108:15 2.74457e-05
36 *31:13 *108:29 5.19842e-06
37 *32:13 *108:29 1.32552e-05
38 *33:13 *108:29 0.154948
39 *33:17 *108:25 0.0574312
40 *37:25 *108:29 0
41 *37:33 *108:21 0.122645
42 *39:9 *108:29 0.00856187
43 *40:57 *108:21 0
44 *40:61 *108:17 0.00843203
45 *44:43 *108:21 2.88456e-05
46 *44:45 *108:17 0.00907329
47 *45:25 *108:17 0.000165209
48 *46:19 *108:17 0
49 *54:19 *108:21 0.00691157
50 *57:11 *108:15 0.000874829
51 *65:13 *108:33 0.00983416
52 *66:9 *108:33 0.0620916
53 *67:21 *108:21 0.000111767
54 *69:17 *108:33 0.110432
55 *70:22 *108:33 0.00663928
56 *71:17 *108:33 0.00813717
57 *72:30 *108:33 0.0578423
58 *98:9 *108:17 0
59 *105:22 *108:33 0.00598328
*RES
1 *988:io_out[4] *108:15 15.4501 
2 *108:15 *108:17 167.696 
3 *108:17 *108:19 3.41 
4 *108:19 *108:21 198.663 
5 *108:21 *108:23 3.41 
6 *108:23 *108:25 712.152 
7 *108:25 *108:27 4.5 
8 *108:27 *108:29 1467.61 
9 *108:29 *108:31 4.5 
10 *108:31 *108:33 1531.49 
11 *108:33 io_out[11] 3.61367 
*END

*D_NET *109 0.902653
*CONN
*P io_out[12] O
*I *988:io_out[5] O *D soc_sys
*CAP
1 io_out[12] 0.000772612
2 *988:io_out[5] 0.009758
3 *109:30 0.0323144
4 *109:28 0.0315418
5 *109:26 0.0325339
6 *109:24 0.0392498
7 *109:14 0.0641817
8 *109:12 0.0672238
9 *109:12 *142:32 0.00862755
10 *109:14 *143:31 0
11 *109:14 *798:5 0.00579056
12 *109:24 *985:CurrAbsTrim[5] 0.00285898
13 *109:24 *837:5 0.000106515
14 *109:26 io_out[8] 0.00268013
15 *109:26 *116:16 0.0232919
16 *988:io_in[19] *109:12 9.67772e-05
17 *31:9 *109:30 0.0336925
18 *32:9 *109:30 0.0108757
19 *33:9 *109:30 0.00755226
20 *34:9 *109:30 0
21 *67:9 *109:30 0.00217832
22 *70:20 *109:24 0.00292703
23 *72:24 *109:24 0.0100156
24 *72:26 *109:26 0.24195
25 *74:30 *109:24 0.00203294
26 *74:32 *109:26 0.216471
27 *77:23 *109:14 0.0531809
28 *107:12 *109:12 0.000748031
29 *107:14 *109:14 0
*RES
1 *988:io_out[5] *109:12 7.48208 
2 *109:12 *109:14 235.166 
3 *109:14 *109:24 44.4421 
4 *109:24 *109:26 2272.61 
5 *109:26 *109:28 4.5 
6 *109:28 *109:30 946.812 
7 *109:30 io_out[12] 5.55947 
*END

*D_NET *110 1.02364
*CONN
*P io_out[13] O
*I *988:io_out[6] O *D soc_sys
*CAP
1 io_out[13] 0.000919227
2 *988:io_out[6] 0.000199774
3 *110:25 0.0275206
4 *110:23 0.0266013
5 *110:21 0.053887
6 *110:19 0.053887
7 *110:17 0.0180997
8 *110:15 0.0180997
9 *110:13 0.0419086
10 *110:11 0.0419086
11 *110:9 0.00519423
12 *110:7 0.00539401
13 *110:7 *111:7 0
14 *110:13 *908:21 0.000687548
15 *110:13 *926:19 0.00129028
16 *110:17 *927:13 0.0231845
17 *110:21 *715:9 0
18 *988:io_in[29] *110:9 0.000308508
19 *31:17 *110:17 0.0550064
20 *33:9 *110:25 1.08359e-05
21 *34:9 *110:25 0.158784
22 *35:9 *110:25 0.163608
23 *35:21 *110:13 0.126718
24 *38:33 *110:9 0.00666384
25 *39:21 *110:9 0.00706864
26 *49:33 *110:9 0
27 *51:25 *110:9 0.000126426
28 *51:27 *110:9 0
29 *53:23 *110:9 0.00408336
30 *65:17 *110:21 4.08342e-05
31 *66:17 *110:9 0
32 *67:9 *110:25 0.020441
33 *67:13 *110:21 0.161995
*RES
1 *988:io_out[6] *110:7 3.90193 
2 *110:7 *110:9 181.661 
3 *110:9 *110:11 3.41 
4 *110:11 *110:13 199.744 
5 *110:13 *110:15 3.41 
6 *110:15 *110:17 688.018 
7 *110:17 *110:19 3.41 
8 *110:19 *110:21 252.929 
9 *110:21 *110:23 3.41 
10 *110:23 *110:25 2017.66 
11 *110:25 io_out[13] 5.9198 
*END

*D_NET *111 0.903972
*CONN
*P io_out[14] O
*I *988:io_out[7] O *D soc_sys
*CAP
1 io_out[14] 0.000231203
2 *988:io_out[7] 0.00039934
3 *111:17 0.0838689
4 *111:15 0.0836377
5 *111:13 0.0968293
6 *111:11 0.0968293
7 *111:9 0.0043235
8 *111:7 0.00472284
9 *111:9 *127:9 0.000948644
10 *111:9 *143:9 0.00510204
11 *111:13 *671:8 0
12 *111:13 *696:8 6.63171e-06
13 *111:13 *697:8 2.38992e-05
14 *111:13 *700:6 0
15 *111:13 *701:8 1.33363e-05
16 *111:13 *702:8 6.63171e-06
17 *111:13 *703:8 1.33363e-05
18 *111:13 *705:8 6.63171e-06
19 *111:13 *706:8 6.63171e-06
20 *111:13 *707:8 6.63171e-06
21 *111:13 *708:8 1.33363e-05
22 *111:13 *709:8 6.63171e-06
23 *111:13 *710:8 6.63171e-06
24 *111:13 *711:8 2.61961e-05
25 *111:13 *712:8 1.33363e-05
26 *111:13 *713:8 6.63171e-06
27 *111:13 *714:8 1.33363e-05
28 *111:13 *717:8 1.33363e-05
29 *111:13 *718:8 6.63171e-06
30 *111:13 *719:8 1.33363e-05
31 *111:13 *721:8 1.33363e-05
32 *111:13 *722:8 1.33388e-05
33 *111:13 *723:8 2.02357e-05
34 *111:13 *724:8 6.63171e-06
35 *111:13 *725:8 1.33363e-05
36 *111:13 *727:8 6.63171e-06
37 *111:13 *728:8 4.34635e-05
38 *111:13 *729:8 6.63171e-06
39 *111:13 *730:8 1.33363e-05
40 *111:13 *731:8 6.63171e-06
41 *111:13 *733:8 6.63171e-06
42 *111:13 *734:8 1.33363e-05
43 *111:13 *735:8 1.23875e-05
44 *111:13 *736:8 1.33363e-05
45 *111:13 *738:8 6.63171e-06
46 *111:13 *739:8 6.63171e-06
47 *111:13 *741:8 1.33363e-05
48 *111:13 *742:8 6.63171e-06
49 *111:13 *743:8 6.63171e-06
50 *111:13 *744:8 6.63171e-06
51 *111:13 *745:8 1.33363e-05
52 *111:13 *746:8 6.63171e-06
53 *111:13 *747:8 1.33363e-05
54 *111:13 *749:8 6.63171e-06
55 *111:13 *750:8 1.33363e-05
56 *111:13 *751:8 2.9655e-05
57 *111:13 *752:8 1.33363e-05
58 *111:13 *753:8 6.63171e-06
59 *111:13 *755:22 0.00558744
60 *111:13 *756:8 1.33363e-05
61 *111:13 *757:8 6.63171e-06
62 *111:13 *760:8 6.16146e-05
63 *111:13 *761:8 1.33363e-05
64 *111:13 *762:8 6.63171e-06
65 *111:13 *764:8 6.63171e-06
66 *111:13 *765:8 1.33363e-05
67 *111:13 *767:8 1.23875e-05
68 *111:13 *768:8 6.63171e-06
69 *111:13 *769:8 1.33363e-05
70 *111:13 *856:8 0.00263913
71 *111:13 *860:8 0.000100781
72 *111:13 *862:20 0
73 *111:13 *863:20 0
74 *48:37 *111:13 0.000907346
75 *65:13 *111:17 0.00973625
76 *66:17 *111:9 0.0204021
77 *69:9 *111:9 0.000311166
78 *69:13 *111:13 0.290652
79 *69:17 *111:17 0.000248009
80 *70:22 *111:17 0.0140432
81 *71:9 *111:9 0.0119639
82 *71:13 *111:13 0
83 *71:17 *111:17 0.169792
84 *72:30 *111:17 0
85 *110:7 *111:7 0
*RES
1 *988:io_out[7] *111:7 4.26227 
2 *111:7 *111:9 255.125 
3 *111:9 *111:11 3.41 
4 *111:11 *111:13 455.508 
5 *111:13 *111:15 3.41 
6 *111:15 *111:17 2498.7 
7 *111:17 io_out[14] 7.59453 
*END

*D_NET *112 0.615561
*CONN
*P io_out[15] O
*I *986:lpwr I *D CF_BUF_HIZ
*I *986:rc I *D CF_BUF_HIZ
*I *986:clk_chop I *D CF_BUF_HIZ
*I *986:rail I *D CF_BUF_HIZ
*I *988:io_out[8] O *D soc_sys
*CAP
1 io_out[15] 9.3395e-05
2 *986:lpwr 0.0125648
3 *986:rc 5.02395e-05
4 *986:clk_chop 8.34412e-05
5 *986:rail 0.000562661
6 *988:io_out[8] 0.0060396
7 *112:61 0.0158428
8 *112:59 0.0157494
9 *112:57 0.129047
10 *112:55 0.141528
11 *112:31 0.000679559
12 *112:18 0.106232
13 *112:16 0.106232
14 *112:14 0.0299323
15 *112:12 0.0359719
16 *112:12 *114:12 0.00275828
17 *112:14 *132:14 0
18 *112:14 *770:5 0.00264257
19 *112:18 *986:gain[0] 0.000904535
20 *112:18 *811:9 0
21 *112:18 *858:11 0
22 *112:18 *867:11 0.00683288
23 *986:vgnd_core *112:55 0
24 *986:vpwrb *112:55 0.000225219
25 *988:io_in[19] *112:12 4.26254e-05
26 *23:23 *112:55 0
27 *37:11 *112:61 9.97767e-06
28 *48:37 *112:14 0.000905694
29 *72:14 *112:14 0
30 *81:46 *112:14 0.000629484
*RES
1 *988:io_out[8] *112:12 6.40047 
2 *112:12 *112:14 92.6245 
3 *112:14 *112:16 3.41 
4 *112:16 *112:18 318.293 
5 *112:18 *986:rail 3.41 
6 *986:rail *112:31 11.3393 
7 *112:31 *986:clk_chop 0.678571 
8 *986:clk_chop *986:rc 1.02679 
9 *112:31 *986:lpwr 1.70536 
10 *986:lpwr *112:55 44.8101 
11 *112:55 *112:57 403.702 
12 *112:57 *112:59 3.41 
13 *112:59 *112:61 47.9353 
14 *112:61 io_out[15] 5.75821 
*END

*D_NET *113 0.75841
*CONN
*P io_out[16] O
*I *988:io_out[9] O *D soc_sys
*CAP
1 io_out[16] 0.000189803
2 *988:io_out[9] 0.000841459
3 *113:17 0.142551
4 *113:15 0.142361
5 *113:13 0.0777248
6 *113:11 0.0777248
7 *113:9 0.00391007
8 *113:7 0.00475153
9 *113:9 io_out[35] 0.000979536
10 *113:9 io_out[36] 0.000375731
11 *113:9 *119:9 0
12 *113:9 *122:9 0
13 *113:9 *123:9 0.00016169
14 *113:9 *124:9 0.0172954
15 *113:9 *125:9 0.01701
16 *113:9 *127:23 0.000582635
17 *113:13 *692:11 0.000331104
18 *49:21 *113:13 0.0301917
19 *50:19 *113:9 0
20 *58:11 *113:9 0.000302184
21 *69:13 *113:13 0.238067
22 *71:13 *113:13 0
23 *93:9 *113:9 0.0012156
24 *98:9 *113:9 0.00184316
*RES
1 *988:io_out[9] *113:7 5.2712 
2 *113:7 *113:9 249.054 
3 *113:9 *113:11 3.41 
4 *113:11 *113:13 374.325 
5 *113:13 *113:15 3.41 
6 *113:15 *113:17 453.879 
7 *113:17 io_out[16] 9.46617 
*END

*D_NET *114 0.695551
*CONN
*P io_out[17] O
*I *988:io_out[10] O *D soc_sys
*CAP
1 io_out[17] 0.000113564
2 *988:io_out[10] 0.00829778
3 *114:18 0.074633
4 *114:16 0.0745195
5 *114:14 0.11735
6 *114:12 0.125648
7 *114:12 *115:12 0.00307028
8 *114:12 *116:10 0.000119418
9 *114:12 *118:12 5.55324e-05
10 *114:14 *803:5 0.00537061
11 io_oeb[16] *114:18 0.0398731
12 *988:io_in[19] *114:12 0.000101779
13 *38:13 *114:18 0.00651809
14 *40:11 *114:18 0.000176899
15 *45:15 *114:18 0.00455081
16 *73:45 *114:14 0.118952
17 *76:26 *114:18 0
18 *78:35 *114:18 0.112573
19 *80:22 *114:18 0.000869362
20 *81:46 *114:14 0
21 *81:48 *114:14 0
22 *112:12 *114:12 0.00275828
*RES
1 *988:io_out[10] *114:12 7.8426 
2 *114:12 *114:14 497.558 
3 *114:14 *114:16 3.41 
4 *114:16 *114:18 292.169 
5 *114:18 io_out[17] 5.02607 
*END

*D_NET *115 0.725785
*CONN
*P io_out[18] O
*I *988:io_out[11] O *D soc_sys
*CAP
1 io_out[18] 0.0758668
2 *988:io_out[11] 0.0048808
3 *115:20 0.0758668
4 *115:18 0.024944
5 *115:16 0.024944
6 *115:14 0.0549508
7 *115:12 0.0598316
8 *115:12 *116:10 0.00853018
9 *115:14 *116:12 0
10 *115:14 *791:5 0.00192842
11 *115:18 io_out[8] 0.151425
12 *115:18 *116:16 0.00167485
13 *988:io_in[19] *115:12 4.26254e-05
14 *70:20 *115:18 0.029104
15 *72:24 *115:18 0.000457673
16 *74:14 *115:14 0.0547954
17 *74:30 *115:18 0.00103909
18 *77:27 *115:18 0.148659
19 *105:18 *115:18 0.00377399
20 *114:12 *115:12 0.00307028
*RES
1 *988:io_out[11] *115:12 6.64628 
2 *115:12 *115:14 231.544 
3 *115:14 *115:16 3.41 
4 *115:16 *115:18 250.154 
5 *115:18 *115:20 3.41 
6 *115:20 io_out[18] 1510.63 
*END

*D_NET *116 0.629752
*CONN
*P io_out[19] O
*I *988:io_out[12] O *D soc_sys
*CAP
1 io_out[19] 0.0733173
2 *988:io_out[12] 0.00546882
3 *116:18 0.0733173
4 *116:16 0.0324889
5 *116:14 0.0324889
6 *116:12 0.0574207
7 *116:10 0.0628895
8 *116:10 *118:12 0.00205496
9 *74:14 *116:12 0
10 *74:32 *116:16 0.0452736
11 *75:14 *116:12 0.0377975
12 *77:27 *116:16 0.124168
13 *81:52 *116:16 0.0494496
14 *104:22 *116:12 0
15 *109:26 *116:16 0.0232919
16 *114:12 *116:10 0.000119418
17 *115:12 *116:10 0.00853018
18 *115:14 *116:12 0
19 *115:18 *116:16 0.00167485
*RES
1 *988:io_out[12] *116:10 6.62385 
2 *116:10 *116:12 231.224 
3 *116:12 *116:14 3.41 
4 *116:14 *116:16 198.122 
5 *116:16 *116:18 3.41 
6 *116:18 io_out[19] 1509.42 
*END

*D_NET *118 0.586788
*CONN
*P io_out[20] O
*I *988:io_out[13] O *D soc_sys
*CAP
1 io_out[20] 0.000141759
2 *988:io_out[13] 0.0103309
3 *118:18 0.0132872
4 *118:16 0.0131454
5 *118:14 0.113952
6 *118:12 0.124283
7 *118:12 *121:20 0.00172306
8 *118:18 io_out[21] 0.00134812
9 *118:18 *120:21 0.0230364
10 io_oeb[16] *118:18 0.017597
11 *988:io_in[19] *118:12 0.00027924
12 *42:9 *118:18 0.0532642
13 *44:11 *118:18 0.00528786
14 *76:26 *118:18 0.00120439
15 *78:31 *118:14 0.121001
16 *78:35 *118:18 0.00464503
17 *80:22 *118:18 0.0801499
18 *114:12 *118:12 5.55324e-05
19 *116:10 *118:12 0.00205496
*RES
1 *988:io_out[13] *118:12 8.72761 
2 *118:12 *118:14 494.042 
3 *118:14 *118:16 3.41 
4 *118:16 *118:18 137.658 
5 *118:18 io_out[20] 5.90107 
*END

*D_NET *119 0.512156
*CONN
*P io_out[21] O
*I *988:io_out[14] O *D soc_sys
*CAP
1 io_out[21] 0.00397244
2 *988:io_out[14] 0.000719056
3 *119:17 0.174344
4 *119:15 0.170372
5 *119:13 0.0185595
6 *119:11 0.0185595
7 *119:9 0.00570557
8 *119:7 0.00642463
9 *119:7 *120:15 0
10 *119:9 io_out[37] 0.00127529
11 *119:13 *541:57 0.00437033
12 *119:17 *876:5 0.000662985
13 io_oeb[16] io_out[21] 0.00253689
14 *988:io_in[29] *119:7 0
15 *988:io_in[2] *119:9 0.00106092
16 *32:49 *119:13 0.000262883
17 *35:21 *119:13 0
18 *40:61 *119:9 0.00779737
19 *42:9 io_out[21] 0.0206475
20 *43:11 io_out[21] 0.0141142
21 *43:17 *119:13 0.016729
22 *45:23 *119:13 0.024362
23 *47:39 *119:9 0.00956096
24 *50:19 *119:9 0
25 *57:11 *119:9 0.000538576
26 *76:26 io_out[21] 0.00501137
27 *98:9 *119:9 0
28 *108:15 *119:9 0.000309422
29 *108:17 *119:9 0.002911
30 *113:9 *119:9 0
31 *118:18 io_out[21] 0.00134812
*RES
1 *988:io_out[14] *119:7 4.98293 
2 *119:7 *119:9 215.661 
3 *119:9 *119:11 3.41 
4 *119:11 *119:13 83.8966 
5 *119:13 *119:15 3.41 
6 *119:15 *119:17 531.968 
7 *119:17 io_out[21] 46.4976 
*END

*D_NET *120 0.424311
*CONN
*P io_out[22] O
*I *988:io_out[15] O *D soc_sys
*CAP
1 io_out[22] 0.000189427
2 *988:io_out[15] 0.00801523
3 *120:21 0.00603768
4 *120:19 0.00584825
5 *120:17 0.134436
6 *120:15 0.142452
7 *120:15 io_out[36] 0.000742219
8 *120:17 *121:22 0
9 *120:17 *737:5 0.0181948
10 *120:21 io_out[23] 0.000309398
11 io_oeb[16] *120:21 0.00360941
12 io_oeb[22] *120:21 0.0202111
13 *57:11 *120:15 0.000707592
14 *76:26 *120:21 0.00484313
15 *78:29 *120:15 0.00155905
16 *80:22 *120:21 0.00571856
17 *88:12 *120:17 0.0484008
18 *118:18 *120:21 0.0230364
19 *119:7 *120:15 0
*RES
1 *988:io_out[15] *120:15 10.6482 
2 *120:15 *120:17 490.74 
3 *120:17 *120:19 3.41 
4 *120:19 *120:21 52.1152 
5 *120:21 io_out[22] 6.50821 
*END

*D_NET *121 0.419244
*CONN
*P io_out[23] O
*I *988:io_out[16] O *D soc_sys
*CAP
1 io_out[23] 0.000243716
2 *988:io_out[16] 0.00695027
3 *121:30 0.105563
4 *121:28 0.106276
5 *121:22 0.0908569
6 *121:20 0.0968503
7 *121:20 *132:12 0.000265374
8 *121:22 *715:5 0.00850923
9 *121:30 *656:17 0.000994591
10 *988:io_in[19] *121:20 4.26254e-05
11 *48:37 *121:20 0.000350589
12 *80:22 io_out[23] 0.000309398
13 *88:12 *121:22 0
14 *118:12 *121:20 0.00172306
15 *120:17 *121:22 0
16 *120:21 io_out[23] 0.000309398
*RES
1 *988:io_out[16] *121:20 11.5383 
2 *121:20 *121:22 223.874 
3 *121:22 *121:28 9.74967 
4 *121:28 *121:30 264.356 
5 *121:30 io_out[23] 9.8265 
*END

*D_NET *122 0.472543
*CONN
*P io_out[24] O
*I *988:io_out[17] O *D soc_sys
*CAP
1 io_out[24] 0.000133909
2 *988:io_out[17] 0.000720321
3 *122:17 0.026592
4 *122:15 0.0268677
5 *122:9 0.0289138
6 *122:7 0.0292244
7 *122:7 *123:7 0
8 *122:9 *123:9 0.00493212
9 *122:17 *123:17 0.00738256
10 *122:17 *124:17 0.00786584
11 io_oeb[34] *122:9 0.00215656
12 *49:9 *122:17 7.1588e-05
13 *50:15 *122:9 0.00296757
14 *50:19 *122:9 0
15 *51:15 *122:9 0.00466057
16 *53:13 *122:9 0.00128065
17 *53:15 *122:9 0.00793671
18 *55:15 *122:9 0.00400256
19 *56:15 *122:9 0.00452109
20 *57:11 *122:9 0.00252276
21 *77:21 *122:9 0.00198084
22 *83:17 *122:9 0.152534
23 *84:9 *122:9 0.151182
24 *84:17 *122:9 0.000681324
25 *84:17 *122:17 0.00173884
26 *87:23 *122:9 0.00100316
27 *89:15 *122:9 0.000670699
28 *113:9 *122:9 0
*RES
1 *988:io_out[17] *122:7 4.98293 
2 *122:7 *122:9 2021.3 
3 *122:9 *122:15 7.76783 
4 *122:15 *122:17 112.44 
5 *122:17 io_out[24] 3.85963 
*END

*D_NET *123 0.450082
*CONN
*P io_out[25] O
*I *988:io_out[18] O *D soc_sys
*CAP
1 io_out[25] 0.000268696
2 *988:io_out[18] 0.000798677
3 *123:17 0.0279109
4 *123:15 0.0277762
5 *123:9 0.0270419
6 *123:7 0.0277066
7 *123:7 *124:7 0
8 *123:9 *124:9 0.0788474
9 *123:9 *127:23 0.000432899
10 *123:17 *124:17 0.063018
11 io_oeb[29] *123:15 5.64774e-06
12 io_oeb[34] *123:9 0.00207761
13 *50:15 *123:17 0
14 *51:15 *123:9 0.00411873
15 *51:15 *123:17 0.00107266
16 *53:15 *123:9 0.00951559
17 *57:11 *123:9 0.000959822
18 *84:9 *123:9 0.108648
19 *84:9 *123:17 0.00867218
20 *84:17 *123:17 0.0388898
21 *89:25 *123:9 0.00327364
22 *93:9 *123:9 0.00657069
23 *113:9 *123:9 0.00016169
24 *122:7 *123:7 0
25 *122:9 *123:9 0.00493212
26 *122:17 *123:17 0.00738256
*RES
1 *988:io_out[18] *123:7 5.12707 
2 *123:7 *123:9 1441.48 
3 *123:9 *123:15 7.1913 
4 *123:15 *123:17 172.738 
5 *123:17 io_out[25] 4.1949 
*END

*D_NET *124 0.435825
*CONN
*P io_out[26] O
*I *988:io_out[19] O *D soc_sys
*CAP
1 io_out[26] 0.000212181
2 *988:io_out[19] 0.000832267
3 *124:17 0.0220081
4 *124:15 0.0219729
5 *124:9 0.0165941
6 *124:7 0.0172493
7 *124:7 *125:7 0
8 *124:9 io_out[35] 0.000905257
9 *124:9 io_out[36] 0.000420301
10 *124:9 *125:9 2.23987e-05
11 *124:9 *127:23 0.00065175
12 io_oeb[31] *124:15 2.82126e-05
13 *49:7 *124:17 0.000204598
14 *49:9 *124:17 0.0880164
15 *49:17 *124:9 0.0424477
16 *51:15 *124:17 0
17 *89:25 *124:9 0.00595627
18 *89:25 *124:17 0.0394214
19 *93:9 *124:9 0.0118553
20 *113:9 *124:9 0.0172954
21 *122:17 *124:17 0.00786584
22 *123:7 *124:7 0
23 *123:9 *124:9 0.0788474
24 *123:17 *124:17 0.063018
*RES
1 *988:io_out[19] *124:7 5.19913 
2 *124:7 *124:9 967.304 
3 *124:9 *124:15 7.26337 
4 *124:15 *124:17 214.392 
5 *124:17 io_out[26] 4.05077 
*END

*D_NET *125 0.301955
*CONN
*P io_out[27] O
*I *988:io_out[20] O *D soc_sys
*CAP
1 io_out[27] 4.21432e-05
2 *988:io_out[20] 0.000892523
3 *125:21 0.0513304
4 *125:19 0.054897
5 *125:9 0.00867967
6 *125:7 0.00596344
7 *125:7 *126:13 0
8 *125:9 io_out[35] 0.00119564
9 *125:9 io_out[36] 0.000375731
10 *125:9 *126:17 2.23987e-05
11 *125:9 *127:23 0.000590599
12 *125:19 *133:9 7.59294e-05
13 *49:9 *125:21 0.103086
14 *49:17 *125:9 0.00922419
15 *78:29 *125:7 0
16 *89:17 *125:9 0.00975069
17 *89:25 *125:9 0.00212629
18 *92:17 *125:19 0.00820522
19 *92:17 *125:21 0.0140083
20 *93:9 *125:9 0.00228677
21 *98:9 *125:9 0.0121693
22 *113:9 *125:9 0.01701
23 *124:7 *125:7 0
24 *124:9 *125:9 2.23987e-05
*RES
1 *988:io_out[20] *125:7 5.34327 
2 *125:7 *125:9 322.518 
3 *125:9 *125:19 24.7317 
4 *125:19 *125:21 269.178 
5 *125:21 io_out[27] 3.54003 
*END

*D_NET *126 0.281667
*CONN
*P io_out[28] O
*I *988:io_out[21] O *D soc_sys
*CAP
1 io_out[28] 0.00139206
2 *988:io_out[21] 0.00177924
3 *126:25 0.056464
4 *126:23 0.0562508
5 *126:17 0.00337731
6 *126:15 0.00219843
7 *126:13 0.00177924
8 *126:13 *127:7 0
9 *126:13 *127:9 0.00158135
10 *126:13 *143:9 0
11 io_oeb[35] *126:17 0.00194081
12 *46:17 *126:23 0.000858186
13 *46:19 *126:17 0.00410471
14 *50:19 *126:13 0.00331024
15 *78:9 *126:17 0.00322743
16 *86:15 *126:23 2.92106e-05
17 *86:17 *126:25 0.127834
18 *89:17 *126:17 0.00401796
19 *92:15 *126:17 0.00199083
20 *92:17 *126:17 0.000936065
21 *98:9 *126:17 0.00857302
22 *125:7 *126:13 0
23 *125:9 *126:17 2.23987e-05
*RES
1 *988:io_out[21] *126:13 49.748 
2 *126:13 *126:15 3.41 
3 *126:15 *126:17 154.946 
4 *126:17 *126:23 9.92983 
5 *126:23 *126:25 267.02 
6 *126:25 io_out[28] 7.00863 
*END

*D_NET *127 0.20539
*CONN
*P io_out[29] O
*I *988:io_out[22] O *D soc_sys
*CAP
1 io_out[29] 0.00308239
2 *988:io_out[22] 0.000495046
3 *127:25 0.0870527
4 *127:23 0.0881081
5 *127:9 0.00600077
6 *127:7 0.00235804
7 *127:9 *143:9 0.000394899
8 *127:25 *800:5 0.00198918
9 io_oeb[35] *127:23 0.00150622
10 *50:19 *127:9 0.0015401
11 *57:11 *127:23 0.000321079
12 *69:9 *127:9 0.0034152
13 *76:20 *127:25 0
14 *84:9 *127:23 0.000393705
15 *87:23 *127:23 0.00108571
16 *91:20 *127:23 0.00219867
17 *94:14 *127:25 0
18 *98:9 *127:23 0.000660658
19 *111:9 *127:9 0.000948644
20 *113:9 *127:23 0.000582635
21 *123:9 *127:23 0.000432899
22 *124:9 *127:23 0.00065175
23 *125:9 *127:23 0.000590599
24 *126:13 *127:7 0
25 *126:13 *127:9 0.00158135
*RES
1 *988:io_out[22] *127:7 4.47847 
2 *127:7 *127:9 86.3393 
3 *127:9 *127:23 15.0133 
4 *127:23 *127:25 239.214 
5 *127:25 io_out[29] 11.3702 
*END

*D_NET *129 0.203098
*CONN
*P io_out[30] O
*I *988:io_out[23] O *D soc_sys
*CAP
1 io_out[30] 0.0010502
2 *988:io_out[23] 0.000163141
3 *129:19 0.048518
4 *129:17 0.0476296
5 *129:11 0.00675176
6 *129:9 0.00675307
7 *129:9 *130:9 0
8 *129:11 *130:11 0.00999283
9 *129:11 *131:6 0.00355688
10 *129:19 *130:19 0.0695271
11 *988:io_in[19] *129:9 0.000228481
12 *46:11 *129:19 0
13 *49:9 io_out[30] 0.000322558
14 *51:19 *129:11 0
15 *51:19 *129:19 0.00860477
16 *86:9 *129:11 0
17 *86:15 *129:17 0
*RES
1 *988:io_out[23] *129:9 3.94267 
2 *129:9 *129:11 179.839 
3 *129:11 *129:17 7.1913 
4 *129:17 *129:19 186.267 
5 *129:19 io_out[30] 5.9245 
*END

*D_NET *130 0.179065
*CONN
*P io_out[31] O
*I *988:io_out[24] O *D soc_sys
*CAP
1 io_out[31] 0.00114824
2 *988:io_out[24] 0.000212257
3 *130:19 0.0243614
4 *130:17 0.0232525
5 *130:11 0.0039454
6 *130:9 0.00411828
7 *130:11 *131:6 0.00147399
8 *130:19 *131:6 0.0293895
9 io_oeb[34] *130:17 3.55627e-05
10 io_oeb[35] *130:17 2.85548e-05
11 *46:11 *130:19 0
12 *49:9 io_out[31] 0.000322558
13 *51:19 *130:11 0
14 *51:19 *130:19 0.0105045
15 *73:35 *130:11 0
16 *86:9 *130:11 0
17 *86:9 *130:19 0.000752776
18 *103:21 *130:11 0
19 *129:9 *130:9 0
20 *129:11 *130:11 0.00999283
21 *129:19 *130:19 0.0695271
*RES
1 *988:io_out[24] *130:9 3.94267 
2 *130:9 *130:11 123.375 
3 *130:11 *130:17 6.9751 
4 *130:17 *130:19 154.627 
5 *130:19 io_out[31] 6.06863 
*END

*D_NET *131 0.103898
*CONN
*P io_out[32] O
*I *988:io_out[25] O *D soc_sys
*CAP
1 io_out[32] 0.00115543
2 *988:io_out[25] 0
3 *131:6 0.0307593
4 *131:4 0.0296038
5 *131:6 *132:12 0.000131356
6 *46:11 *131:6 0.00585421
7 *70:12 *131:6 9.67772e-05
8 *72:12 *131:6 0.000160933
9 *73:35 *131:6 5.3446e-05
10 *74:12 *131:6 7.22022e-05
11 *75:12 *131:6 9.67772e-05
12 *76:20 *131:6 0.000164694
13 *80:16 *131:6 7.22022e-05
14 *81:46 *131:6 0.000123327
15 *82:20 *131:6 0.000190509
16 *85:12 *131:6 0.000323142
17 *91:20 *131:6 7.22022e-05
18 *94:12 *131:6 0.000160933
19 *104:20 *131:6 0.000255225
20 *105:12 *131:6 0.000131356
21 *129:11 *131:6 0.00355688
22 *130:11 *131:6 0.00147399
23 *130:19 *131:6 0.0293895
*RES
1 *988:io_out[25] *131:4 3.41 
2 *131:4 *131:6 135.557 
3 *131:6 io_out[32] 6.0373 
*END

*D_NET *132 0.115295
*CONN
*P io_out[33] O
*I *988:io_out[26] O *D soc_sys
*CAP
1 io_out[33] 0.00760881
2 *988:io_out[26] 0.00615357
3 *132:14 0.0417299
4 *132:12 0.0402747
5 *132:12 *143:29 0.00296833
6 *988:io_in[19] *132:12 0.000523826
7 *48:37 *132:12 0.000618196
8 *72:14 *132:14 0.0150205
9 *112:14 *132:14 0
10 *121:20 *132:12 0.000265374
11 *131:6 *132:12 0.000131356
*RES
1 *988:io_out[26] *132:12 6.5562 
2 *132:12 *132:14 94.5421 
3 *132:14 io_out[33] 23.1014 
*END

*D_NET *133 0.0416548
*CONN
*P io_out[34] O
*I *988:io_out[27] O *D soc_sys
*CAP
1 io_out[34] 0.000133909
2 *988:io_out[27] 0.00119531
3 *133:9 0.0104588
4 *133:7 0.0115202
5 *133:7 io_out[35] 0
6 *58:11 *133:9 0.010531
7 *92:17 *133:9 0.0077231
8 *93:9 *133:9 1.66625e-05
9 *125:19 *133:9 7.59294e-05
*RES
1 *988:io_out[27] *133:7 5.88377 
2 *133:7 *133:9 52.2483 
3 *133:9 io_out[34] 3.85963 
*END

*D_NET *134 0.0173439
*CONN
*P io_out[35] O
*I *988:io_out[28] O *D soc_sys
*CAP
1 io_out[35] 0.00377881
2 *988:io_out[28] 0.00377881
3 io_out[35] io_out[36] 0.000335016
4 io_out[35] *136:9 0.000129512
5 io_oeb[35] io_out[35] 0.00440779
6 *57:11 io_out[35] 0
7 *58:11 io_out[35] 0.000705306
8 *78:9 io_out[35] 0.000152348
9 *98:9 io_out[35] 0.000961421
10 *103:21 io_out[35] 1.44355e-05
11 *113:9 io_out[35] 0.000979536
12 *124:9 io_out[35] 0.000905257
13 *125:9 io_out[35] 0.00119564
14 *133:7 io_out[35] 0
*RES
1 *988:io_out[28] io_out[35] 20.3466 
*END

*D_NET *135 0.0189614
*CONN
*P io_out[36] O
*I *988:io_out[29] O *D soc_sys
*CAP
1 io_out[36] 0.00527946
2 *988:io_out[29] 0.00527946
3 io_out[36] io_out[37] 0.00020359
4 io_out[36] *136:7 0
5 io_oeb[36] io_out[36] 2.48858e-05
6 io_out[35] io_out[36] 0.000335016
7 *988:io_in[28] io_out[36] 0
8 *988:io_in[30] io_out[36] 0.00014337
9 *57:11 io_out[36] 0.000772405
10 *58:11 io_out[36] 0.00356531
11 *98:9 io_out[36] 0.000420301
12 *98:17 io_out[36] 0.000113877
13 *103:21 io_out[36] 2.59024e-05
14 *108:15 io_out[36] 0.000883848
15 *113:9 io_out[36] 0.000375731
16 *120:15 io_out[36] 0.000742219
17 *124:9 io_out[36] 0.000420301
18 *125:9 io_out[36] 0.000375731
*RES
1 *988:io_out[29] io_out[36] 29.4019 
*END

*D_NET *136 0.0619903
*CONN
*P io_out[37] O
*I *988:io_out[30] O *D soc_sys
*CAP
1 io_out[37] 0.00578466
2 *988:io_out[30] 0.000999423
3 *136:9 0.00744849
4 *136:7 0.00266325
5 io_out[35] *136:9 0.000129512
6 io_out[36] io_out[37] 0.00020359
7 io_out[36] *136:7 0
8 *988:io_in[24] io_out[37] 0.0024495
9 *988:io_in[28] io_out[37] 0
10 *988:io_in[2] io_out[37] 0.00588682
11 *40:61 io_out[37] 0.0020472
12 *44:45 io_out[37] 0.00186767
13 *45:25 io_out[37] 0.00222518
14 *46:19 *136:9 0.00384883
15 *47:39 io_out[37] 0.000612502
16 *57:11 io_out[37] 0.000212735
17 *58:11 *136:9 0.00173194
18 *78:9 *136:9 0.00263254
19 *98:9 *136:9 0.00941967
20 *98:17 io_out[37] 0.00796403
21 *103:21 *136:7 0
22 *108:15 io_out[37] 1.4477e-06
23 *108:17 io_out[37] 0.00258599
24 *108:17 *136:9 0
25 *119:9 io_out[37] 0.00127529
*RES
1 *988:io_out[30] *136:7 5.4874 
2 *136:7 *136:9 116.089 
3 *136:9 io_out[37] 42.4031 
*END

*D_NET *141 0.444723
*CONN
*P io_out[7] O
*I *988:io_out[0] O *D soc_sys
*CAP
1 io_out[7] 0.143326
2 *988:io_out[0] 0.00982936
3 *141:25 0.143326
4 *141:23 0.0504476
5 *141:21 0.0602769
6 *141:21 *142:32 0.00219867
7 *141:23 *142:32 0
8 *141:23 *795:5 0.00390732
9 *988:io_in[19] *141:21 0.000319048
10 *988:io_in[29] *141:21 0.000124553
11 *988:io_in[30] *141:21 2.71873e-05
12 *60:20 *141:21 3.90588e-05
13 *82:22 *141:23 0
14 *104:22 *141:23 0
15 *105:14 *141:23 0.0309007
16 *107:14 *141:23 0
*RES
1 *988:io_out[0] *141:21 8.16667 
2 *141:21 *141:23 197.347 
3 *141:23 *141:25 3.41 
4 *141:25 io_out[7] 430.694 
*END

*D_NET *142 0.796328
*CONN
*P io_out[8] O
*I *988:io_out[1] O *D soc_sys
*CAP
1 io_out[8] 0.0602894
2 *988:io_out[1] 0.0111175
3 *142:36 0.0602894
4 *142:34 0.0754657
5 *142:32 0.0865832
6 *142:34 *810:5 0.00298364
7 *988:io_in[19] *142:32 0.00023259
8 *70:20 io_out[8] 0.0556047
9 *74:30 io_out[8] 0.00016754
10 *74:32 io_out[8] 0.00102543
11 *105:18 io_out[8] 0.269194
12 *107:12 *142:32 0.00836721
13 *107:14 *142:32 7.60308e-05
14 *109:12 *142:32 0.00862755
15 *109:26 io_out[8] 0.00268013
16 *115:18 io_out[8] 0.151425
17 *141:21 *142:32 0.00219867
18 *141:23 *142:32 0
*RES
1 *988:io_out[1] *142:32 16.4517 
2 *142:32 *142:34 236.764 
3 *142:34 *142:36 3.41 
4 *142:36 io_out[8] 419.884 
*END

*D_NET *143 0.519357
*CONN
*P io_out[9] O
*I *988:io_out[2] O *D soc_sys
*CAP
1 io_out[9] 0.141263
2 *988:io_out[2] 0.000444657
3 *143:33 0.141263
4 *143:31 0.0605786
5 *143:29 0.0695781
6 *143:9 0.0116403
7 *143:7 0.00308549
8 *143:31 *797:5 0.0045087
9 *988:io_in[19] *143:29 0.00307586
10 *50:19 *143:9 0
11 *66:17 *143:9 0.000777553
12 *73:35 *143:29 9.40346e-05
13 *77:23 *143:31 0
14 *103:21 *143:29 0.00756819
15 *107:14 *143:31 0.0670143
16 *109:14 *143:31 0
17 *111:9 *143:9 0.00510204
18 *126:13 *143:9 0
19 *127:9 *143:9 0.000394899
20 *132:12 *143:29 0.00296833
*RES
1 *988:io_out[2] *143:7 4.33433 
2 *143:7 *143:9 82.0893 
3 *143:9 *143:29 15.0724 
4 *143:29 *143:31 261.373 
5 *143:31 *143:33 3.41 
6 *143:33 io_out[9] 429.397 
*END

*D_NET *529 0.298381
*CONN
*P user_irq[0] O
*I *988:user_irq[0] O *D soc_sys
*CAP
1 user_irq[0] 8.88893e-05
2 *988:user_irq[0] 9.22139e-05
3 *529:13 0.0569581
4 *529:11 0.0568692
5 *529:9 0.00516631
6 *529:7 0.00525852
7 *529:13 *530:13 0.173947
*RES
1 *988:user_irq[0] *529:7 1.50893 
2 *529:7 *529:9 101.518 
3 *529:9 *529:11 3.41 
4 *529:11 *529:13 272.459 
5 *529:13 user_irq[0] 5.02607 
*END

*D_NET *530 0.406612
*CONN
*P user_irq[1] O
*I *988:user_irq[1] O *D soc_sys
*CAP
1 user_irq[1] 8.5297e-05
2 *988:user_irq[1] 8.89295e-05
3 *530:13 0.0245747
4 *530:11 0.0244894
5 *530:9 0.00496718
6 *530:7 0.00505611
7 *530:13 *531:13 0.173403
8 *529:13 *530:13 0.173947
*RES
1 *988:user_irq[1] *530:7 1.50893 
2 *530:7 *530:9 100.911 
3 *530:9 *530:11 3.41 
4 *530:11 *530:13 271.594 
5 *530:13 user_irq[1] 5.11536 
*END

*D_NET *531 0.296607
*CONN
*P user_irq[2] O
*I *988:user_irq[2] O *D soc_sys
*CAP
1 user_irq[2] 6.33454e-05
2 *988:user_irq[2] 8.89295e-05
3 *531:13 0.0565759
4 *531:11 0.0565126
5 *531:9 0.00493748
6 *531:7 0.0050264
7 *530:13 *531:13 0.173403
*RES
1 *988:user_irq[2] *531:7 1.50893 
2 *531:7 *531:9 100.304 
3 *531:9 *531:11 3.41 
4 *531:11 *531:13 270.946 
5 *531:13 user_irq[2] 4.70464 
*END

*D_NET *540 0.428958
*CONN
*P wb_clk_i I
*I *988:wb_clk_i I *D soc_sys
*I *989:wb_clk_i I *D CF_SRAM_1024x32_wb_wrapper
*I *984:clk I *D CF_ADC_DSM20
*CAP
1 wb_clk_i 0.00218544
2 *988:wb_clk_i 6.58673e-05
3 *989:wb_clk_i 9.25863e-05
4 *984:clk 0
5 *540:52 0.00433707
6 *540:45 0.0127366
7 *540:39 0.0127366
8 *540:37 0.0559813
9 *540:35 0.0560724
10 *540:25 0.0413833
11 *540:23 0.0370716
12 *540:19 0.000144714
13 *540:15 0.00485111
14 *540:13 0.00698149
15 *989:wb_clk_i *989:wb_rst_i 0
16 *989:wb_clk_i *959:29 2.06178e-05
17 *540:15 *576:13 0
18 *540:25 *988:wbs_cyc_i 0.000621936
19 *540:25 *988:wbs_sel_i[1] 0.00200553
20 *540:25 *988:wbs_sel_i[3] 0.000146508
21 *540:25 *989:wbs_dat_i[9] 0.00033529
22 *540:25 *621:13 0.000102535
23 *540:25 *623:13 0.000274404
24 *540:25 *625:9 0.000611011
25 *540:25 *627:9 0.00808517
26 *540:25 *627:23 0.00114094
27 *540:25 *632:11 0.00244404
28 *540:25 *633:11 0.00040734
29 *540:25 *634:11 0.000359437
30 *540:25 *635:11 0.00054622
31 *540:25 *636:11 0.000621936
32 *540:25 *638:11 0.00123281
33 *540:25 *639:15 0.000411606
34 *540:35 *989:wbs_sel_i[0] 1.09611e-05
35 *540:35 *916:21 0.000183872
36 *540:35 *947:13 0.00018181
37 *540:35 *961:19 5.00194e-05
38 *540:37 *770:13 0
39 *540:37 *816:13 0.0124859
40 *540:37 *888:9 0.00289351
41 *540:37 *893:9 0.00174652
42 *540:37 *916:21 0.00283081
43 *540:37 *947:11 0.000121549
44 *540:37 *947:13 0.000618845
45 *540:37 *952:9 0.00249105
46 *540:37 *957:21 0.00727456
47 *540:37 *960:9 0.00174652
48 *540:45 *664:18 0.0111161
49 *540:45 *666:20 0
50 *540:52 *989:wbs_adr_i[5] 0.0021487
51 *540:52 *541:59 0
52 *540:52 *964:21 0.0116193
53 *31:21 *540:25 0.00029415
54 *31:21 *540:52 0.000144366
55 *32:49 *540:15 0
56 *34:21 *540:25 0.115319
57 *34:35 *540:25 0.000665937
58 *49:29 *540:25 0.00100738
*RES
1 wb_clk_i *540:13 49.9643 
2 *540:13 *540:15 96.2054 
3 *540:15 *540:19 0.8125 
4 *540:19 *540:23 4.92857 
5 *540:23 *540:25 1106.29 
6 *540:25 *540:35 13.8048 
7 *540:35 *540:37 189.463 
8 *540:37 *540:39 3.41 
9 *540:39 *540:45 47.4214 
10 *540:45 *984:clk 3.41 
11 *540:25 *540:52 118 
12 *540:52 *989:wb_clk_i 5.98214 
13 *540:19 *988:wb_clk_i 0.821429 
*END

*D_NET *541 0.297447
*CONN
*P wb_rst_i I
*I *989:wb_rst_i I *D CF_SRAM_1024x32_wb_wrapper
*I *988:wb_rst_i I *D soc_sys
*CAP
1 wb_rst_i 0.00886593
2 *989:wb_rst_i 0.000181089
3 *988:wb_rst_i 0.000267375
4 *541:59 0.00437219
5 *541:57 0.0926371
6 *541:17 0.0975794
7 *988:wb_rst_i *988:wbs_stb_i 4.98422e-05
8 *989:wb_rst_i *880:15 0
9 *541:17 *576:13 0
10 *541:17 *608:23 6.57893e-06
11 *541:17 *640:9 0.000884921
12 *541:17 *640:11 0.0015293
13 *541:57 *988:wbs_sel_i[1] 0.00209419
14 *541:57 *988:wbs_sel_i[2] 0.00212546
15 *541:57 *988:wbs_sel_i[3] 0.000113942
16 *541:57 *989:wbs_dat_i[2] 0.000196893
17 *541:57 *989:wbs_dat_i[9] 0.000102517
18 *541:57 *989:wbs_sel_i[0] 0.000449476
19 *541:57 *608:23 0.00128189
20 *541:57 *619:16 0.00135355
21 *541:57 *621:13 0.00853142
22 *541:57 *623:13 0.00889355
23 *541:57 *625:9 0.00933421
24 *541:57 *627:9 0.00842777
25 *541:57 *627:23 0.00122857
26 *541:57 *628:15 0.0019368
27 *541:57 *631:15 0.00305779
28 *541:57 *632:11 0.00343295
29 *541:57 *633:11 0.000526441
30 *541:57 *634:11 0.00029649
31 *541:57 *635:11 0.000454329
32 *541:57 *636:11 0.000839623
33 *541:57 *637:11 0.000872351
34 *541:57 *638:11 0.0012853
35 *541:57 *639:15 0.00139271
36 *541:57 *947:13 4.06279e-05
37 *541:57 *963:19 0.000258115
38 *541:57 *964:19 5.11566e-05
39 *541:59 *926:9 6.93262e-05
40 *541:59 *928:9 0
41 *541:59 *936:15 0.00219582
42 *541:59 *960:21 0.0105547
43 *541:59 *963:21 0.000262645
44 *541:59 *964:21 1.74782e-05
45 *541:59 *980:31 0.000135028
46 *989:wb_clk_i *989:wb_rst_i 0
47 *31:21 *541:59 1.64583e-05
48 *32:21 *541:59 0.000141985
49 *42:23 *541:57 0.000148737
50 *42:43 *541:57 0.000115959
51 *43:17 *541:57 0.00674232
52 *44:23 *541:57 0.000102343
53 *44:43 *988:wb_rst_i 4.98422e-05
54 *45:23 *541:57 0.00239542
55 *49:29 *541:57 0.00517665
56 *119:13 *541:57 0.00437033
57 *540:52 *541:59 0
*RES
1 wb_rst_i *541:17 33.3019 
2 *541:17 *988:wb_rst_i 10.287 
3 *541:17 *541:57 36.1093 
4 *541:57 *541:59 119.232 
5 *541:59 *989:wb_rst_i 6.83929 
*END

*D_NET *542 0.019683
*CONN
*P wbs_ack_o O
*I *988:wbs_ack_o O *D soc_sys
*CAP
1 wbs_ack_o 0.0015415
2 *988:wbs_ack_o 0.00175338
3 *542:17 0.00460797
4 *542:15 0.00481985
5 *36:25 *542:15 0.00185016
6 *39:21 *542:17 0.000130857
7 *47:35 *542:15 0.00497932
*RES
1 *988:wbs_ack_o *542:15 23.714 
2 *542:15 *542:17 63.7321 
3 *542:17 wbs_ack_o 32.0982 
*END

*D_NET *543 0.0187501
*CONN
*P wbs_adr_i[0] I
*I *988:wbs_adr_i[0] I *D soc_sys
*CAP
1 wbs_adr_i[0] 0.00151762
2 *988:wbs_adr_i[0] 0.00378047
3 *543:11 0.00660433
4 *543:9 0.00434148
5 *988:wbs_adr_i[0] *988:wbs_dat_i[0] 0
6 *988:wbs_adr_i[0] *568:11 0
7 *65:25 *988:wbs_adr_i[0] 0.0025062
*RES
1 wbs_adr_i[0] *543:9 31.2411 
2 *543:9 *543:11 58.2679 
3 *543:11 *988:wbs_adr_i[0] 32.0609 
*END

*D_NET *544 0.0521826
*CONN
*P wbs_adr_i[10] I
*I *988:wbs_adr_i[10] I *D soc_sys
*CAP
1 wbs_adr_i[10] 0.00157392
2 *988:wbs_adr_i[10] 0.000561219
3 *544:17 0.00505907
4 *544:11 0.0076848
5 *544:9 0.00476086
6 *544:17 *612:15 0.0163457
7 *36:25 *544:17 0.0128448
8 *44:23 *988:wbs_adr_i[10] 0
9 *47:35 *544:17 0.002864
10 *67:21 *544:17 0.000488201
*RES
1 wbs_adr_i[10] *544:9 31.2411 
2 *544:9 *544:11 63.125 
3 *544:11 *544:17 42.54 
4 *544:17 *988:wbs_adr_i[10] 9.52679 
*END

*D_NET *545 0.0517362
*CONN
*P wbs_adr_i[11] I
*I *988:wbs_adr_i[11] I *D soc_sys
*CAP
1 wbs_adr_i[11] 0.000588307
2 *988:wbs_adr_i[11] 8.89295e-05
3 *545:15 0.00457919
4 *545:13 0.0121466
5 *545:9 0.00824461
6 *545:9 *643:15 0.000845984
7 *545:13 *551:11 0.00256107
8 *545:13 *604:13 0
9 *545:13 *610:15 0.0226816
10 *545:15 *592:9 0
*RES
1 wbs_adr_i[11] *545:9 18.1868 
2 *545:9 *545:13 41.1479 
3 *545:13 *545:15 86.9464 
4 *545:15 *988:wbs_adr_i[11] 1.50893 
*END

*D_NET *546 0.051517
*CONN
*P wbs_adr_i[12] I
*I *988:wbs_adr_i[12] I *D soc_sys
*CAP
1 wbs_adr_i[12] 0.00109769
2 *988:wbs_adr_i[12] 9.28194e-05
3 *546:15 0.00427273
4 *546:13 0.0141335
5 *546:9 0.0110512
6 *546:9 *634:13 0
7 *546:13 *547:13 0
8 *546:13 *610:15 0
9 *546:13 *613:13 0.0208691
10 *546:15 *594:9 0
11 *546:15 *594:11 0
*RES
1 wbs_adr_i[12] *546:9 24.4546 
2 *546:9 *546:13 43.3819 
3 *546:13 *546:15 80.2679 
4 *546:15 *988:wbs_adr_i[12] 1.50893 
*END

*D_NET *547 0.0529651
*CONN
*P wbs_adr_i[13] I
*I *988:wbs_adr_i[13] I *D soc_sys
*CAP
1 wbs_adr_i[13] 0.00143494
2 *988:wbs_adr_i[13] 0.000105179
3 *547:15 0.00392094
4 *547:13 0.0136173
5 *547:9 0.0112364
6 *547:13 *606:13 0.0042663
7 *547:13 *613:13 0
8 *547:13 *616:13 0.0182447
9 *547:15 *563:11 0
10 *547:15 *596:9 0.000139276
11 *547:15 *596:13 0
12 *546:13 *547:13 0
*RES
1 wbs_adr_i[13] *547:9 31.3475 
2 *547:9 *547:13 45.4719 
3 *547:13 *547:15 74.1964 
4 *547:15 *988:wbs_adr_i[13] 1.50893 
*END

*D_NET *548 0.0507435
*CONN
*P wbs_adr_i[14] I
*I *988:wbs_adr_i[14] I *D soc_sys
*CAP
1 wbs_adr_i[14] 0.00173656
2 *988:wbs_adr_i[14] 9.73647e-05
3 *548:15 0.00362173
4 *548:13 0.0157743
5 *548:9 0.0139865
6 *548:9 wbs_dat_o[13] 0
7 *548:13 *580:13 0
8 *548:13 *592:11 0
9 *548:13 *593:11 0.00813898
10 *548:13 *605:13 0.00738806
11 *548:13 *606:13 0
12 *548:13 *616:13 0
13 *548:15 *599:7 0
*RES
1 wbs_adr_i[14] *548:9 37.2046 
2 *548:9 *548:13 48.0663 
3 *548:13 *548:15 67.5179 
4 *548:15 *988:wbs_adr_i[14] 1.50893 
*END

*D_NET *549 0.0802728
*CONN
*P wbs_adr_i[15] I
*I *988:wbs_adr_i[15] I *D soc_sys
*CAP
1 wbs_adr_i[15] 0.00124011
2 *988:wbs_adr_i[15] 0.000799906
3 *549:15 0.00574209
4 *549:13 0.00494218
5 *549:11 0.00190893
6 *549:9 0.00314903
7 *549:9 wbs_dat_o[14] 0
8 *549:9 *636:13 0.000841596
9 *549:11 *636:13 0.00481093
10 *549:15 *615:13 0.0269029
11 *65:25 *549:15 0.0299351
*RES
1 wbs_adr_i[15] *549:9 31.2411 
2 *549:9 *549:11 59.4821 
3 *549:11 *549:13 3.41 
4 *549:13 *549:15 46.7462 
5 *549:15 *988:wbs_adr_i[15] 16.5796 
*END

*D_NET *550 0.0823288
*CONN
*P wbs_adr_i[16] I
*I *988:wbs_adr_i[16] I *D soc_sys
*CAP
1 wbs_adr_i[16] 0.000357012
2 *988:wbs_adr_i[16] 0.000100721
3 *550:15 0.00500023
4 *550:13 0.00489951
5 *550:11 0.00556133
6 *550:9 0.00591834
7 *550:9 *637:13 0.000285638
8 *550:11 *988:wbs_adr_i[21] 0.00473847
9 *550:11 *551:11 0
10 *550:11 *552:11 0.000466026
11 *550:11 *553:11 0.000243378
12 *550:11 *555:11 0.0239889
13 *550:11 *582:11 0.0289516
14 *550:11 *584:11 0.000228182
15 *550:11 *586:11 0.000660463
16 *550:11 *604:13 0.000352538
17 *550:11 *624:13 0.000576488
*RES
1 wbs_adr_i[16] *550:9 11.9189 
2 *550:9 *550:11 48.6199 
3 *550:11 *550:13 3.41 
4 *550:13 *550:15 93.625 
5 *550:15 *988:wbs_adr_i[16] 1.50893 
*END

*D_NET *551 0.0653916
*CONN
*P wbs_adr_i[17] I
*I *988:wbs_adr_i[17] I *D soc_sys
*CAP
1 wbs_adr_i[17] 0.000632002
2 *988:wbs_adr_i[17] 0.000100721
3 *551:15 0.00473568
4 *551:13 0.00463495
5 *551:11 0.0082999
6 *551:9 0.00893191
7 *551:9 *638:13 0
8 *551:11 *560:11 0.00352934
9 *551:11 *584:11 0.0319661
10 *551:11 *610:15 0
11 *545:13 *551:11 0.00256107
12 *550:11 *551:11 0
*RES
1 wbs_adr_i[17] *551:9 15.5618 
2 *551:9 *551:11 50.854 
3 *551:11 *551:13 3.41 
4 *551:13 *551:15 89.9821 
5 *551:15 *988:wbs_adr_i[17] 1.50893 
*END

*D_NET *552 0.0866207
*CONN
*P wbs_adr_i[18] I
*I *988:wbs_adr_i[18] I *D soc_sys
*CAP
1 wbs_adr_i[18] 0.000392979
2 *988:wbs_adr_i[18] 0.000100721
3 *552:15 0.00478726
4 *552:13 0.00468654
5 *552:11 0.00550599
6 *552:9 0.00589897
7 *552:9 *639:17 0.000692943
8 *552:11 *553:11 0.0322468
9 *552:11 *560:11 0
10 *552:11 *584:11 0.0318425
11 *550:11 *552:11 0.000466026
*RES
1 wbs_adr_i[18] *552:9 13.9368 
2 *552:9 *552:11 53.0881 
3 *552:11 *552:13 3.41 
4 *552:13 *552:15 91.1964 
5 *552:15 *988:wbs_adr_i[18] 1.50893 
*END

*D_NET *553 0.106573
*CONN
*P wbs_adr_i[19] I
*I *988:wbs_adr_i[19] I *D soc_sys
*CAP
1 wbs_adr_i[19] 0.000522798
2 *988:wbs_adr_i[19] 0.000100721
3 *553:15 0.00481236
4 *553:13 0.00471164
5 *553:11 0.00642555
6 *553:9 0.00694835
7 *553:9 *585:13 0
8 *553:11 *988:wbs_adr_i[21] 0.00431597
9 *553:11 *557:11 0.00628348
10 *553:11 *558:11 0.00519571
11 *553:11 *560:11 0
12 *553:11 *586:11 0.0347659
13 *550:11 *553:11 0.000243378
14 *552:11 *553:11 0.0322468
*RES
1 wbs_adr_i[19] *553:9 13.3296 
2 *553:9 *553:11 55.3221 
3 *553:11 *553:13 3.41 
4 *553:13 *553:15 91.8036 
5 *553:15 *988:wbs_adr_i[19] 1.50893 
*END

*D_NET *554 0.0200535
*CONN
*P wbs_adr_i[1] I
*I *988:wbs_adr_i[1] I *D soc_sys
*CAP
1 wbs_adr_i[1] 0.00191423
2 *988:wbs_adr_i[1] 9.67829e-05
3 *554:15 0.0031079
4 *554:13 0.0078279
5 *554:9 0.00673101
6 *554:9 *640:9 0
7 *554:15 *602:13 0.000375673
*RES
1 wbs_adr_i[1] *554:9 42.6689 
2 *554:9 *554:13 17.3659 
3 *554:13 *554:15 62.0536 
4 *554:15 *988:wbs_adr_i[1] 1.50893 
*END

*D_NET *555 0.101639
*CONN
*P wbs_adr_i[20] I
*I *988:wbs_adr_i[20] I *D soc_sys
*CAP
1 wbs_adr_i[20] 0.000483498
2 *988:wbs_adr_i[20] 0.000100721
3 *555:15 0.00488125
4 *555:13 0.00478053
5 *555:11 0.00708348
6 *555:9 0.00756698
7 *555:11 *988:wbs_adr_i[21] 0.00764059
8 *555:11 *560:11 0
9 *555:11 *566:11 0.0079467
10 *555:11 *586:11 0.034653
11 *555:11 *624:13 0.00251284
12 *550:11 *555:11 0.0239889
*RES
1 wbs_adr_i[20] *555:9 12.5261 
2 *555:9 *555:11 57.4121 
3 *555:11 *555:13 3.41 
4 *555:13 *555:15 93.0179 
5 *555:15 *988:wbs_adr_i[20] 1.50893 
*END

*D_NET *556 0.0962153
*CONN
*P wbs_adr_i[21] I
*I *988:wbs_adr_i[21] I *D soc_sys
*CAP
1 wbs_adr_i[21] 0.0266697
2 *988:wbs_adr_i[21] 0.0266697
3 *988:wbs_adr_i[21] wbs_dat_o[31] 0.00455511
4 *988:wbs_adr_i[21] *577:11 5.11642e-05
5 *988:wbs_adr_i[21] *578:11 0.00102784
6 *988:wbs_adr_i[21] *582:11 0.00428919
7 *988:wbs_adr_i[21] *586:11 0.00679645
8 *988:wbs_adr_i[21] *617:21 0.00294865
9 *988:wbs_adr_i[21] *620:13 1.20192e-05
10 *988:wbs_adr_i[21] *621:13 2.14879e-05
11 *988:wbs_adr_i[21] *624:13 0.00642916
12 *988:wbs_adr_i[21] *629:13 4.98422e-05
13 *550:11 *988:wbs_adr_i[21] 0.00473847
14 *553:11 *988:wbs_adr_i[21] 0.00431597
15 *555:11 *988:wbs_adr_i[21] 0.00764059
*RES
1 wbs_adr_i[21] *988:wbs_adr_i[21] 44.3362 
*END

*D_NET *557 0.0764623
*CONN
*P wbs_adr_i[22] I
*I *988:wbs_adr_i[22] I *D soc_sys
*CAP
1 wbs_adr_i[22] 0.000578115
2 *988:wbs_adr_i[22] 0.000100721
3 *557:15 0.00473998
4 *557:13 0.00463926
5 *557:11 0.0119147
6 *557:9 0.0124928
7 *557:11 *558:11 0.0357134
8 *553:11 *557:11 0.00628348
*RES
1 wbs_adr_i[22] *557:9 14.875 
2 *557:9 *557:11 352.518 
3 *557:11 *557:13 4.5 
4 *557:13 *557:15 91.3482 
5 *557:15 *988:wbs_adr_i[22] 1.50893 
*END

*D_NET *558 0.0997524
*CONN
*P wbs_adr_i[23] I
*I *988:wbs_adr_i[23] I *D soc_sys
*CAP
1 wbs_adr_i[23] 0.000592324
2 *988:wbs_adr_i[23] 0.000100721
3 *558:15 0.00475483
4 *558:13 0.00465411
5 *558:11 0.00553619
6 *558:9 0.00612851
7 *558:9 *591:7 0
8 *558:11 *559:11 0.0370766
9 *553:11 *558:11 0.00519571
10 *557:11 *558:11 0.0357134
*RES
1 wbs_adr_i[23] *558:9 14.9821 
2 *558:9 *558:11 364.429 
3 *558:11 *558:13 4.5 
4 *558:13 *558:15 91.6518 
5 *558:15 *988:wbs_adr_i[23] 1.50893 
*END

*D_NET *559 0.102056
*CONN
*P wbs_adr_i[24] I
*I *988:wbs_adr_i[24] I *D soc_sys
*CAP
1 wbs_adr_i[24] 0.0005734
2 *988:wbs_adr_i[24] 0.000101815
3 *559:15 0.00489499
4 *559:13 0.00479318
5 *559:11 0.00631108
6 *559:9 0.00688448
7 *559:11 *562:11 0.0350356
8 *559:11 *586:11 0.00638504
9 *558:11 *559:11 0.0370766
*RES
1 wbs_adr_i[24] *559:9 14.6786 
2 *559:9 *559:11 377.161 
3 *559:11 *559:13 4.5 
4 *559:13 *559:15 91.9554 
5 *559:15 *988:wbs_adr_i[24] 1.50893 
*END

*D_NET *560 0.0592052
*CONN
*P wbs_adr_i[25] I
*I *988:wbs_adr_i[25] I *D soc_sys
*CAP
1 wbs_adr_i[25] 0.000851507
2 *988:wbs_adr_i[25] 0.000100721
3 *560:15 0.00449561
4 *560:13 0.00439489
5 *560:11 0.0218186
6 *560:9 0.0226701
7 *560:9 *578:15 0
8 *560:11 *584:11 0
9 *560:11 *586:11 0
10 *560:11 *610:15 0.00134453
11 *551:11 *560:11 0.00352934
12 *552:11 *560:11 0
13 *553:11 *560:11 0
14 *555:11 *560:11 0
*RES
1 wbs_adr_i[25] *560:9 18.1868 
2 *560:9 *560:11 68.4383 
3 *560:11 *560:13 3.41 
4 *560:13 *560:15 86.9464 
5 *560:15 *988:wbs_adr_i[25] 1.50893 
*END

*D_NET *561 0.0927064
*CONN
*P wbs_adr_i[26] I
*I *988:wbs_adr_i[26] I *D soc_sys
*CAP
1 wbs_adr_i[26] 0.00170898
2 *988:wbs_adr_i[26] 0.000431778
3 *561:15 0.010727
4 *561:13 0.0102952
5 *561:11 0.00328436
6 *561:9 0.00499334
7 *988:wbs_adr_i[26] *631:17 0.000150485
8 *561:9 *610:9 0
9 *561:11 *610:9 0
10 *561:15 *612:15 0.00599548
11 *36:25 *561:15 0.0106874
12 *67:21 *561:15 0.0444323
*RES
1 wbs_adr_i[26] *561:9 31.8482 
2 *561:9 *561:11 64.3393 
3 *561:11 *561:13 3.41 
4 *561:13 *561:15 70.8885 
5 *561:15 *988:wbs_adr_i[26] 11.7225 
*END

*D_NET *562 0.105386
*CONN
*P wbs_adr_i[27] I
*I *988:wbs_adr_i[27] I *D soc_sys
*CAP
1 wbs_adr_i[27] 0.000554464
2 *988:wbs_adr_i[27] 0.000100721
3 *562:15 0.00474303
4 *562:13 0.00464231
5 *562:11 0.00788028
6 *562:9 0.00843474
7 *562:9 *595:7 0
8 *562:11 *566:11 0.0390253
9 *562:11 *586:11 0.00496955
10 *559:11 *562:11 0.0350356
*RES
1 wbs_adr_i[27] *562:9 14.375 
2 *562:9 *562:11 414.536 
3 *562:11 *562:13 4.5 
4 *562:13 *562:15 92.2589 
5 *562:15 *988:wbs_adr_i[27] 1.50893 
*END

*D_NET *563 0.0630231
*CONN
*P wbs_adr_i[28] I
*I *988:wbs_adr_i[28] I *D soc_sys
*CAP
1 wbs_adr_i[28] 0.00167126
2 *988:wbs_adr_i[28] 0.00112045
3 *563:15 0.0272099
4 *563:13 0.0260894
5 *563:11 0.00263042
6 *563:9 0.00430168
7 *563:9 wbs_dat_o[27] 0
8 *563:9 *627:25 0
9 *563:15 *583:19 0
10 *563:15 *594:15 0
11 *563:15 *596:15 0
12 *547:15 *563:11 0
*RES
1 wbs_adr_i[28] *563:9 31.2411 
2 *563:9 *563:11 52.1964 
3 *563:11 *563:13 3.41 
4 *563:13 *563:15 75.2846 
5 *563:15 *988:wbs_adr_i[28] 23.8654 
*END

*D_NET *564 0.0644419
*CONN
*P wbs_adr_i[29] I
*I *988:wbs_adr_i[29] I *D soc_sys
*CAP
1 wbs_adr_i[29] 0.00118817
2 *988:wbs_adr_i[29] 9.28194e-05
3 *564:15 0.00411503
4 *564:13 0.00402221
5 *564:11 0.0250168
6 *564:9 0.026205
7 *564:9 *597:7 0
8 *564:11 *567:11 0
9 *564:11 *613:13 0.00380184
*RES
1 wbs_adr_i[29] *564:9 24.8654 
2 *564:9 *564:11 77.2304 
3 *564:11 *564:13 3.41 
4 *564:13 *564:15 80.2679 
5 *564:15 *988:wbs_adr_i[29] 1.50893 
*END

*D_NET *565 0.0294237
*CONN
*P wbs_adr_i[2] I
*I *988:wbs_adr_i[2] I *D soc_sys
*CAP
1 wbs_adr_i[2] 0.000456164
2 *988:wbs_adr_i[2] 0.00263255
3 *565:13 0.00697949
4 *565:11 0.00480311
5 *565:13 *598:13 0.00109492
6 *565:13 *630:19 0
7 *36:25 *988:wbs_adr_i[2] 0.00369929
8 *47:35 *988:wbs_adr_i[2] 0.00975823
*RES
1 wbs_adr_i[2] *565:11 9.50922 
2 *565:11 *565:13 93.0179 
3 *565:13 *988:wbs_adr_i[2] 31.281 
*END

*D_NET *566 0.0901918
*CONN
*P wbs_adr_i[30] I
*I *988:wbs_adr_i[30] I *D soc_sys
*CAP
1 wbs_adr_i[30] 0.000543693
2 *988:wbs_adr_i[30] 9.28194e-05
3 *566:15 0.00469047
4 *566:13 0.00459765
5 *566:11 0.0163757
6 *566:9 0.0169194
7 *566:9 *599:7 0
8 *555:11 *566:11 0.0079467
9 *562:11 *566:11 0.0390253
*RES
1 wbs_adr_i[30] *566:9 14.0714 
2 *566:9 *566:11 451.911 
3 *566:11 *566:13 4.5 
4 *566:13 *566:15 92.5625 
5 *566:15 *988:wbs_adr_i[30] 1.50893 
*END

*D_NET *567 0.0728148
*CONN
*P wbs_adr_i[31] I
*I *988:wbs_adr_i[31] I *D soc_sys
*CAP
1 wbs_adr_i[31] 0.00151572
2 *988:wbs_adr_i[31] 9.28194e-05
3 *567:15 0.00377528
4 *567:13 0.00368246
5 *567:11 0.0263064
6 *567:9 0.0278221
7 *567:9 *600:9 0
8 *567:9 *613:9 0
9 *567:11 *593:11 0
10 *567:11 *613:13 0
11 *567:11 *616:13 0.00961996
12 *564:11 *567:11 0
*RES
1 wbs_adr_i[31] *567:9 30.9368 
2 *567:9 *567:11 81.6265 
3 *567:11 *567:13 3.41 
4 *567:13 *567:15 74.1964 
5 *567:15 *988:wbs_adr_i[31] 1.50893 
*END

*D_NET *568 0.031546
*CONN
*P wbs_adr_i[3] I
*I *988:wbs_adr_i[3] I *D soc_sys
*CAP
1 wbs_adr_i[3] 0.00156615
2 *988:wbs_adr_i[3] 0.00383675
3 *568:11 0.00670743
4 *568:9 0.00443683
5 *988:wbs_adr_i[3] *988:wbs_dat_i[5] 0.00784883
6 *988:wbs_adr_i[3] *633:13 0
7 *988:wbs_adr_i[0] *568:11 0
8 *65:25 *988:wbs_adr_i[3] 0.00715001
*RES
1 wbs_adr_i[3] *568:9 31.8482 
2 *568:9 *568:11 58.875 
3 *568:11 *988:wbs_adr_i[3] 40.2459 
*END

*D_NET *569 0.029077
*CONN
*P wbs_adr_i[4] I
*I *988:wbs_adr_i[4] I *D soc_sys
*CAP
1 wbs_adr_i[4] 0.0015735
2 *988:wbs_adr_i[4] 0.00799048
3 *569:11 0.010537
4 *569:9 0.00412
5 *988:wbs_adr_i[4] *988:wbs_dat_i[5] 0
6 *988:wbs_adr_i[4] *571:17 0
7 *988:wbs_adr_i[4] *607:17 0.00485604
8 *988:wbs_adr_i[4] *634:13 0
9 *569:9 *642:15 0
10 *569:9 *643:13 0
*RES
1 wbs_adr_i[4] *569:9 31.8482 
2 *569:9 *569:11 52.1964 
3 *569:11 *988:wbs_adr_i[4] 49.8792 
*END

*D_NET *570 0.027699
*CONN
*P wbs_adr_i[5] I
*I *988:wbs_adr_i[5] I *D soc_sys
*CAP
1 wbs_adr_i[5] 0.00194439
2 *988:wbs_adr_i[5] 9.28194e-05
3 *570:15 0.00334156
4 *570:13 0.0113757
5 *570:9 0.0100714
6 *570:9 *602:13 0
7 *570:9 *603:9 0
8 *570:13 *574:17 0
9 *570:13 *580:13 0.000873116
10 *570:13 *605:13 0
11 *570:15 wbs_dat_o[13] 0
12 *570:15 *612:17 0
*RES
1 wbs_adr_i[5] *570:9 42.6689 
2 *570:9 *570:13 28.0317 
3 *570:13 *570:15 62.0536 
4 *570:15 *988:wbs_adr_i[5] 1.50893 
*END

*D_NET *571 0.0287439
*CONN
*P wbs_adr_i[6] I
*I *988:wbs_adr_i[6] I *D soc_sys
*CAP
1 wbs_adr_i[6] 0.00157106
2 *988:wbs_adr_i[6] 0.00144167
3 *571:17 0.0105381
4 *571:13 0.0113592
5 *571:9 0.00383379
6 *571:17 *572:13 0
7 *571:17 *611:15 0
8 *988:wbs_adr_i[4] *571:17 0
*RES
1 wbs_adr_i[6] *571:9 31.8482 
2 *571:9 *571:13 49.535 
3 *571:13 *571:17 30.4099 
4 *571:17 *988:wbs_adr_i[6] 26.5268 
*END

*D_NET *572 0.0310324
*CONN
*P wbs_adr_i[7] I
*I *988:wbs_adr_i[7] I *D soc_sys
*CAP
1 wbs_adr_i[7] 4.32496e-05
2 *988:wbs_adr_i[7] 0.00180294
3 *572:13 0.0120093
4 *572:7 0.01367
5 *572:5 0.00350686
6 *572:7 wbs_dat_o[6] 0
7 *572:13 *573:17 0
8 *572:13 *614:13 0
9 *571:17 *572:13 0
*RES
1 wbs_adr_i[7] *572:5 0.883929 
2 *572:5 *572:7 69.9464 
3 *572:7 *572:13 36.1261 
4 *572:13 *988:wbs_adr_i[7] 32.5982 
*END

*D_NET *573 0.0366191
*CONN
*P wbs_adr_i[8] I
*I *988:wbs_adr_i[8] I *D soc_sys
*CAP
1 wbs_adr_i[8] 0.000166428
2 *988:wbs_adr_i[8] 0.0020744
3 *573:17 0.0122551
4 *573:11 0.0123524
5 *573:9 0.00233805
6 *573:11 *598:15 0.00405234
7 *573:17 *581:11 0
8 *573:17 *614:13 0.00338042
9 *572:13 *573:17 0
*RES
1 wbs_adr_i[8] *573:9 3.36607 
2 *573:9 *573:11 62.0536 
3 *573:11 *573:17 38.2881 
4 *573:17 *988:wbs_adr_i[8] 38.6696 
*END

*D_NET *574 0.034192
*CONN
*P wbs_adr_i[9] I
*I *988:wbs_adr_i[9] I *D soc_sys
*CAP
1 wbs_adr_i[9] 0.00234057
2 *988:wbs_adr_i[9] 8.89295e-05
3 *574:19 0.00301606
4 *574:17 0.0146665
5 *574:11 0.0140799
6 *574:11 *607:9 0
7 *574:17 *580:13 0
8 *574:17 *602:19 0
9 *574:19 *588:13 0
10 *574:19 *589:9 0
11 *570:13 *574:17 0
*RES
1 wbs_adr_i[9] *574:11 46.5982 
2 *574:11 *574:17 40.3059 
3 *574:17 *574:19 55.9821 
4 *574:19 *988:wbs_adr_i[9] 1.50893 
*END

*D_NET *575 0.0235552
*CONN
*P wbs_cyc_i I
*I *988:wbs_cyc_i I *D soc_sys
*CAP
1 wbs_cyc_i 0.00151762
2 *988:wbs_cyc_i 0.00131916
3 *575:11 0.00487907
4 *575:9 0.00507754
5 *988:wbs_cyc_i *608:23 0.00255613
6 *988:wbs_cyc_i *619:16 4.73953e-05
7 *33:21 *988:wbs_cyc_i 0.000294663
8 *34:21 *988:wbs_cyc_i 0.000276559
9 *34:35 *988:wbs_cyc_i 0.000749701
10 *42:43 *988:wbs_cyc_i 0.000139791
11 *44:43 *988:wbs_cyc_i 0.00448229
12 *49:29 *988:wbs_cyc_i 0.00159332
13 *540:25 *988:wbs_cyc_i 0.000621936
*RES
1 wbs_cyc_i *575:9 31.2411 
2 *575:9 *575:11 71.0179 
3 *575:11 *988:wbs_cyc_i 16.3664 
*END

*D_NET *576 0.0200291
*CONN
*P wbs_dat_i[0] I
*I *988:wbs_dat_i[0] I *D soc_sys
*CAP
1 wbs_dat_i[0] 0.00182589
2 *988:wbs_dat_i[0] 0.00375237
3 *576:15 0.00634217
4 *576:13 0.00441569
5 *576:13 wbs_dat_o[0] 0
6 *576:13 *587:19 0
7 *576:15 wbs_dat_o[1] 0.00204877
8 *576:15 *619:18 0.00164419
9 *988:wbs_adr_i[0] *988:wbs_dat_i[0] 0
10 *540:15 *576:13 0
11 *541:17 *576:13 0
*RES
1 wbs_dat_i[0] *576:13 17.1272 
2 *576:13 *576:15 77.2321 
3 *576:15 *988:wbs_dat_i[0] 34.457 
*END

*D_NET *577 0.0492072
*CONN
*P wbs_dat_i[10] I
*I *988:wbs_dat_i[10] I *D soc_sys
*CAP
1 wbs_dat_i[10] 0.00840465
2 *988:wbs_dat_i[10] 8.89295e-05
3 *577:13 0.00537544
4 *577:11 0.0136912
5 *577:11 wbs_dat_o[5] 0.00543678
6 *577:11 wbs_dat_o[7] 0.010284
7 *577:11 wbs_dat_o[9] 0.00198727
8 *577:11 *578:11 0
9 *577:11 *585:11 0.000806853
10 *577:11 *588:11 0.000744592
11 *577:11 *590:11 0.000286329
12 *577:11 *617:21 0
13 *577:11 *620:13 0.000762462
14 *577:11 *622:13 0.00128754
15 *577:13 wbs_dat_o[23] 0
16 *577:13 *591:7 0
17 *577:13 *623:17 0
18 *988:wbs_adr_i[21] *577:11 5.11642e-05
*RES
1 wbs_dat_i[10] *577:11 44.4112 
2 *577:11 *577:13 100.911 
3 *577:13 *988:wbs_dat_i[10] 1.50893 
*END

*D_NET *578 0.0478441
*CONN
*P wbs_dat_i[11] I
*I *988:wbs_dat_i[11] I *D soc_sys
*CAP
1 wbs_dat_i[11] 0.00755583
2 *988:wbs_dat_i[11] 8.89295e-05
3 *578:15 0.00514878
4 *578:13 0.00505985
5 *578:11 0.00755583
6 *578:11 wbs_dat_o[11] 0
7 *578:11 wbs_dat_o[4] 0.000848895
8 *578:11 wbs_dat_o[8] 0.00304302
9 *578:11 wbs_dat_o[9] 0.00039414
10 *578:11 *582:11 0.00449324
11 *578:11 *585:11 0
12 *578:11 *604:13 0
13 *578:11 *617:21 0.0117622
14 *578:11 *624:13 0.000865564
15 *578:15 *593:9 0
16 *988:wbs_adr_i[21] *578:11 0.00102784
17 *560:9 *578:15 0
18 *577:11 *578:11 0
*RES
1 wbs_dat_i[11] *578:11 47.2697 
2 *578:11 *578:13 3.41 
3 *578:13 *578:15 96.6607 
4 *578:15 *988:wbs_dat_i[11] 1.50893 
*END

*D_NET *579 0.0451209
*CONN
*P wbs_dat_i[12] I
*I *988:wbs_dat_i[12] I *D soc_sys
*CAP
1 wbs_dat_i[12] 0.000174581
2 *988:wbs_dat_i[12] 8.1461e-05
3 *579:21 0.002691
4 *579:17 0.0149621
5 *579:11 0.0139945
6 *579:9 0.00181654
7 *579:11 *634:13 0.00393672
8 *579:17 *581:11 0
9 *579:17 *589:11 0
10 *579:17 *591:11 0.00672141
11 *579:17 *602:19 0.00074264
12 *579:17 *609:15 0
13 *579:21 *595:7 0
*RES
1 wbs_dat_i[12] *579:9 3.36607 
2 *579:9 *579:11 49.9107 
3 *579:11 *579:17 47.8009 
4 *579:17 *579:21 49.5357 
5 *579:21 *988:wbs_dat_i[12] 1.27679 
*END

*D_NET *580 0.0467923
*CONN
*P wbs_dat_i[13] I
*I *988:wbs_dat_i[13] I *D soc_sys
*CAP
1 wbs_dat_i[13] 0.00135615
2 *988:wbs_dat_i[13] 9.73647e-05
3 *580:15 0.00330839
4 *580:13 0.0159934
5 *580:9 0.0141385
6 *580:9 *635:13 0.00313908
7 *580:13 *589:11 0
8 *580:13 *592:11 0.00788625
9 *548:13 *580:13 0
10 *570:13 *580:13 0.000873116
11 *574:17 *580:13 0
*RES
1 wbs_dat_i[13] *580:9 43.6868 
2 *580:9 *580:13 46.2646 
3 *580:13 *580:15 61.4464 
4 *580:15 *988:wbs_dat_i[13] 1.50893 
*END

*D_NET *581 0.055648
*CONN
*P wbs_dat_i[14] I
*I *988:wbs_dat_i[14] I *D soc_sys
*CAP
1 wbs_dat_i[14] 4.32496e-05
2 *988:wbs_dat_i[14] 0.00246226
3 *581:11 0.0132433
4 *581:7 0.013698
5 *581:5 0.00296019
6 *581:11 *595:11 0.00589518
7 *581:11 *599:11 0
8 *581:11 *609:15 0.0173458
9 *573:17 *581:11 0
10 *579:17 *581:11 0
*RES
1 wbs_dat_i[14] *581:5 0.883929 
2 *581:5 *581:7 57.1964 
3 *581:7 *581:11 48.7869 
4 *581:11 *988:wbs_dat_i[14] 48.1511 
*END

*D_NET *582 0.0673305
*CONN
*P wbs_dat_i[15] I
*I *988:wbs_dat_i[15] I *D soc_sys
*CAP
1 wbs_dat_i[15] 0.000420828
2 *988:wbs_dat_i[15] 0.000100721
3 *582:15 0.00504708
4 *582:13 0.00494636
5 *582:11 0.00646735
6 *582:9 0.00688817
7 *582:9 *614:17 0
8 *582:11 *604:13 0.00069833
9 *582:11 *624:13 0.00502769
10 *988:wbs_adr_i[21] *582:11 0.00428919
11 *550:11 *582:11 0.0289516
12 *578:11 *582:11 0.00449324
*RES
1 wbs_dat_i[15] *582:9 11.3118 
2 *582:9 *582:11 47.1786 
3 *582:11 *582:13 3.41 
4 *582:13 *582:15 94.2321 
5 *582:15 *988:wbs_dat_i[15] 1.50893 
*END

*D_NET *583 0.0523301
*CONN
*P wbs_dat_i[16] I
*I *988:wbs_dat_i[16] I *D soc_sys
*CAP
1 wbs_dat_i[16] 0.00123968
2 *988:wbs_dat_i[16] 0.00143294
3 *583:19 0.0161566
4 *583:17 0.0147237
5 *583:15 0.00163185
6 *583:13 0.00287153
7 *583:13 *604:15 0.00178252
8 *583:13 *637:13 0
9 *583:15 *604:15 0.00208016
10 *583:19 *585:17 0
11 *583:19 *596:15 0.0104111
12 *583:19 *611:15 0
13 *563:15 *583:19 0
*RES
1 wbs_dat_i[16] *583:13 32.0982 
2 *583:13 *583:15 46.7321 
3 *583:15 *583:17 3.41 
4 *583:17 *583:19 49.6289 
5 *583:19 *988:wbs_dat_i[16] 29.3296 
*END

*D_NET *584 0.0852604
*CONN
*P wbs_dat_i[17] I
*I *988:wbs_dat_i[17] I *D soc_sys
*CAP
1 wbs_dat_i[17] 0.000592525
2 *988:wbs_dat_i[17] 0.000100721
3 *584:15 0.00476538
4 *584:13 0.00466466
5 *584:11 0.00525393
6 *584:9 0.00584646
7 *550:11 *584:11 0.000228182
8 *551:11 *584:11 0.0319661
9 *552:11 *584:11 0.0318425
10 *560:11 *584:11 0
*RES
1 wbs_dat_i[17] *584:9 14.5439 
2 *584:9 *584:11 51.6467 
3 *584:11 *584:13 3.41 
4 *584:13 *584:15 90.5893 
5 *584:15 *988:wbs_dat_i[17] 1.50893 
*END

*D_NET *585 0.0574903
*CONN
*P wbs_dat_i[18] I
*I *988:wbs_dat_i[18] I *D soc_sys
*CAP
1 wbs_dat_i[18] 0.000347697
2 *988:wbs_dat_i[18] 0.00177363
3 *585:17 0.0168028
4 *585:15 0.0150292
5 *585:13 0.00358355
6 *585:11 0.00393125
7 *585:11 *617:21 9.83204e-05
8 *585:13 wbs_dat_o[18] 0
9 *585:17 *596:15 0
10 *585:17 *597:11 0.015117
11 *585:17 *614:13 0
12 *553:9 *585:13 0
13 *577:11 *585:11 0.000806853
14 *578:11 *585:11 0
15 *583:19 *585:17 0
*RES
1 wbs_dat_i[18] *585:11 9.79749 
2 *585:11 *585:13 69.9464 
3 *585:13 *585:15 3.41 
4 *585:15 *585:17 52.5115 
5 *585:17 *988:wbs_dat_i[18] 35.4011 
*END

*D_NET *586 0.110977
*CONN
*P wbs_dat_i[19] I
*I *988:wbs_dat_i[19] I *D soc_sys
*CAP
1 wbs_dat_i[19] 0.000520496
2 *988:wbs_dat_i[19] 0.000100721
3 *586:15 0.00485496
4 *586:13 0.00475424
5 *586:11 0.00599761
6 *586:9 0.00651811
7 *586:9 wbs_dat_o[19] 0
8 *988:wbs_adr_i[21] *586:11 0.00679645
9 *550:11 *586:11 0.000660463
10 *553:11 *586:11 0.0347659
11 *555:11 *586:11 0.034653
12 *559:11 *586:11 0.00638504
13 *560:11 *586:11 0
14 *562:11 *586:11 0.00496955
*RES
1 wbs_dat_i[19] *586:9 13.1332 
2 *586:9 *586:11 55.9707 
3 *586:11 *586:13 3.41 
4 *586:13 *586:15 92.4107 
5 *586:15 *988:wbs_dat_i[19] 1.50893 
*END

*D_NET *587 0.0203092
*CONN
*P wbs_dat_i[1] I
*I *988:wbs_dat_i[1] I *D soc_sys
*CAP
1 wbs_dat_i[1] 0.00512733
2 *988:wbs_dat_i[1] 9.67829e-05
3 *587:21 0.00479352
4 *587:19 0.00982406
5 *587:19 wbs_dat_o[1] 0
6 *587:19 *598:13 0
7 *587:19 *641:9 0
8 *587:19 *642:13 0.000467535
9 *587:19 *643:13 0
10 *587:21 *603:9 0
11 *587:21 *603:11 0
12 *576:13 *587:19 0
*RES
1 wbs_dat_i[1] *587:19 36.3699 
2 *587:19 *587:21 93.0179 
3 *587:21 *988:wbs_dat_i[1] 1.50893 
*END

*D_NET *588 0.0778039
*CONN
*P wbs_dat_i[20] I
*I *988:wbs_dat_i[20] I *D soc_sys
*CAP
1 wbs_dat_i[20] 0.000419427
2 *988:wbs_dat_i[20] 0.00202447
3 *588:17 0.0144615
4 *588:15 0.0124371
5 *588:13 0.00326509
6 *588:11 0.00368451
7 *588:11 *617:21 9.58789e-05
8 *588:11 *620:13 4.12053e-05
9 *588:13 wbs_dat_o[20] 8.33775e-05
10 *588:17 *597:11 0
11 *588:17 *599:11 0.0193365
12 *588:17 *614:13 0.0212102
13 *574:19 *588:13 0
14 *577:11 *588:11 0.000744592
*RES
1 wbs_dat_i[20] *588:11 9.31471 
2 *588:11 *588:13 63.875 
3 *588:13 *588:15 3.41 
4 *588:15 *588:17 57.0517 
5 *588:17 *988:wbs_dat_i[20] 41.4725 
*END

*D_NET *589 0.0663295
*CONN
*P wbs_dat_i[21] I
*I *988:wbs_dat_i[21] I *D soc_sys
*CAP
1 wbs_dat_i[21] 0.00242537
2 *988:wbs_dat_i[21] 0.000100721
3 *589:15 0.00295683
4 *589:13 0.00285611
5 *589:11 0.0174389
6 *589:9 0.0198643
7 *589:11 *591:11 0
8 *589:11 *600:11 0.0206873
9 *574:19 *589:9 0
10 *579:17 *589:11 0
11 *580:13 *589:11 0
*RES
1 wbs_dat_i[21] *589:9 49.9546 
2 *589:9 *589:11 60.7992 
3 *589:11 *589:13 3.41 
4 *589:13 *589:15 55.375 
5 *589:15 *988:wbs_dat_i[21] 1.50893 
*END

*D_NET *590 0.0983785
*CONN
*P wbs_dat_i[22] I
*I *988:wbs_dat_i[22] I *D soc_sys
*CAP
1 wbs_dat_i[22] 0.000124172
2 *988:wbs_dat_i[22] 0.000101815
3 *590:15 0.00534579
4 *590:13 0.00524398
5 *590:11 0.00622722
6 *590:9 0.0063514
7 *590:11 *620:13 0.00635542
8 *590:11 *622:13 0.0395259
9 *590:11 *628:21 0.0288164
10 *577:11 *590:11 0.000286329
*RES
1 wbs_dat_i[22] *590:9 5.8475 
2 *590:9 *590:11 62.5288 
3 *590:11 *590:13 3.41 
4 *590:13 *590:15 99.6964 
5 *590:15 *988:wbs_dat_i[22] 1.50893 
*END

*D_NET *591 0.059868
*CONN
*P wbs_dat_i[23] I
*I *988:wbs_dat_i[23] I *D soc_sys
*CAP
1 wbs_dat_i[23] 4.32496e-05
2 *988:wbs_dat_i[23] 0.000100721
3 *591:15 0.00267924
4 *591:13 0.00257852
5 *591:11 0.0211718
6 *591:9 0.0211718
7 *591:7 0.002679
8 *591:5 0.00272225
9 *591:11 *595:11 0
10 *591:11 *600:11 0
11 *558:9 *591:7 0
12 *577:13 *591:7 0
13 *579:17 *591:11 0.00672141
14 *589:11 *591:11 0
*RES
1 wbs_dat_i[23] *591:5 0.883929 
2 *591:5 *591:7 51.125 
3 *591:7 *591:9 3.41 
4 *591:9 *591:11 65.1232 
5 *591:11 *591:13 3.41 
6 *591:13 *591:15 49.9107 
7 *591:15 *988:wbs_dat_i[23] 1.50893 
*END

*D_NET *592 0.0601674
*CONN
*P wbs_dat_i[24] I
*I *988:wbs_dat_i[24] I *D soc_sys
*CAP
1 wbs_dat_i[24] 0.00210793
2 *988:wbs_dat_i[24] 0.000100721
3 *592:15 0.00326531
4 *592:13 0.00316459
5 *592:11 0.0207673
6 *592:9 0.0228753
7 *592:11 *593:11 0
8 *592:11 *600:11 0
9 *545:15 *592:9 0
10 *548:13 *592:11 0
11 *580:13 *592:11 0.00788625
*RES
1 wbs_dat_i[24] *592:9 43.0796 
2 *592:9 *592:11 66.9969 
3 *592:11 *592:13 3.41 
4 *592:13 *592:15 62.0536 
5 *592:15 *988:wbs_dat_i[24] 1.50893 
*END

*D_NET *593 0.0634288
*CONN
*P wbs_dat_i[25] I
*I *988:wbs_dat_i[25] I *D soc_sys
*CAP
1 wbs_dat_i[25] 0.00182282
2 *988:wbs_dat_i[25] 0.000100721
3 *593:15 0.00356238
4 *593:13 0.00346166
5 *593:11 0.0222597
6 *593:9 0.0240825
7 *593:9 wbs_dat_o[25] 0
8 *593:9 *625:13 0
9 *593:11 *616:13 0
10 *593:15 *626:17 0
11 *548:13 *593:11 0.00813898
12 *567:11 *593:11 0
13 *578:15 *593:9 0
14 *592:11 *593:11 0
*RES
1 wbs_dat_i[25] *593:9 37.4189 
2 *593:9 *593:11 69.0869 
3 *593:11 *593:13 3.41 
4 *593:13 *593:15 68.125 
5 *593:15 *988:wbs_dat_i[25] 1.50893 
*END

*D_NET *594 0.073118
*CONN
*P wbs_dat_i[26] I
*I *988:wbs_dat_i[26] I *D soc_sys
*CAP
1 wbs_dat_i[26] 0.00170627
2 *988:wbs_dat_i[26] 0.000853421
3 *594:15 0.0187306
4 *594:13 0.0178772
5 *594:11 0.00293304
6 *594:9 0.00463931
7 *594:15 *611:15 0
8 *594:15 *615:13 0.0150449
9 *65:25 *594:15 0.0113332
10 *546:15 *594:9 0
11 *546:15 *594:11 0
12 *563:15 *594:15 0
*RES
1 wbs_dat_i[26] *594:9 31.8482 
2 *594:9 *594:11 58.2679 
3 *594:11 *594:13 3.41 
4 *594:13 *594:15 71.6092 
5 *594:15 *988:wbs_dat_i[26] 17.7939 
*END

*D_NET *595 0.0641778
*CONN
*P wbs_dat_i[27] I
*I *988:wbs_dat_i[27] I *D soc_sys
*CAP
1 wbs_dat_i[27] 4.32496e-05
2 *988:wbs_dat_i[27] 0.00236591
3 *595:11 0.0261405
4 *595:9 0.0237746
5 *595:7 0.00295761
6 *595:5 0.00300086
7 *562:9 *595:7 0
8 *579:21 *595:7 0
9 *581:11 *595:11 0.00589518
10 *591:11 *595:11 0
*RES
1 wbs_dat_i[27] *595:5 0.883929 
2 *595:5 *595:7 56.5893 
3 *595:7 *595:9 3.41 
4 *595:9 *595:11 73.9153 
5 *595:11 *988:wbs_dat_i[27] 48.7582 
*END

*D_NET *596 0.068486
*CONN
*P wbs_dat_i[28] I
*I *988:wbs_dat_i[28] I *D soc_sys
*CAP
1 wbs_dat_i[28] 0.00161806
2 *988:wbs_dat_i[28] 0.00141148
3 *596:15 0.0250218
4 *596:13 0.0259383
5 *596:9 0.003946
6 *596:15 *597:11 0
7 *547:15 *596:9 0.000139276
8 *547:15 *596:13 0
9 *563:15 *596:15 0
10 *583:19 *596:15 0.0104111
11 *585:17 *596:15 0
*RES
1 wbs_dat_i[28] *596:9 31.2411 
2 *596:9 *596:13 49.535 
3 *596:13 *596:15 76.0053 
4 *596:15 *988:wbs_dat_i[28] 29.9368 
*END

*D_NET *597 0.0740967
*CONN
*P wbs_dat_i[29] I
*I *988:wbs_dat_i[29] I *D soc_sys
*CAP
1 wbs_dat_i[29] 4.32496e-05
2 *988:wbs_dat_i[29] 0.00169954
3 *597:11 0.0258404
4 *597:9 0.0241408
5 *597:7 0.00360625
6 *597:5 0.0036495
7 *597:11 *599:11 0
8 *597:11 *614:13 0
9 *564:9 *597:7 0
10 *585:17 *597:11 0.015117
11 *588:17 *597:11 0
12 *596:15 *597:11 0
*RES
1 wbs_dat_i[29] *597:5 0.883929 
2 *597:5 *597:7 69.3393 
3 *597:7 *597:9 3.41 
4 *597:9 *597:11 78.3114 
5 *597:11 *988:wbs_dat_i[29] 36.0082 
*END

*D_NET *598 0.0252431
*CONN
*P wbs_dat_i[2] I
*I *988:wbs_dat_i[2] I *D soc_sys
*CAP
1 wbs_dat_i[2] 0.00644578
2 *988:wbs_dat_i[2] 8.89295e-05
3 *598:15 0.00360216
4 *598:13 0.00995901
5 *598:13 *604:13 0
6 *565:13 *598:13 0.00109492
7 *573:11 *598:15 0.00405234
8 *587:19 *598:13 0
*RES
1 wbs_dat_i[2] *598:13 38.8677 
2 *598:13 *598:15 86.9464 
3 *598:15 *988:wbs_dat_i[2] 1.50893 
*END

*D_NET *599 0.0798728
*CONN
*P wbs_dat_i[30] I
*I *988:wbs_dat_i[30] I *D soc_sys
*CAP
1 wbs_dat_i[30] 4.32496e-05
2 *988:wbs_dat_i[30] 0.00198502
3 *599:11 0.0268947
4 *599:9 0.0249097
5 *599:7 0.00333014
6 *599:5 0.00337339
7 *548:15 *599:7 0
8 *566:9 *599:7 0
9 *581:11 *599:11 0
10 *588:17 *599:11 0.0193365
11 *597:11 *599:11 0
*RES
1 wbs_dat_i[30] *599:5 0.883929 
2 *599:5 *599:7 63.875 
3 *599:7 *599:9 3.41 
4 *599:9 *599:11 80.5455 
5 *599:11 *988:wbs_dat_i[30] 42.0796 
*END

*D_NET *600 0.0810164
*CONN
*P wbs_dat_i[31] I
*I *988:wbs_dat_i[31] I *D soc_sys
*CAP
1 wbs_dat_i[31] 0.00211987
2 *988:wbs_dat_i[31] 9.28194e-05
3 *600:15 0.00288371
4 *600:13 0.00279089
5 *600:11 0.0247916
6 *600:9 0.0269114
7 *600:9 *613:9 0.000738796
8 *567:9 *600:9 0
9 *589:11 *600:11 0.0206873
10 *591:11 *600:11 0
11 *592:11 *600:11 0
*RES
1 wbs_dat_i[31] *600:9 49.3475 
2 *600:9 *600:11 82.7075 
3 *600:11 *600:13 3.41 
4 *600:13 *600:15 55.9821 
5 *600:15 *988:wbs_dat_i[31] 1.50893 
*END

*D_NET *601 0.0242035
*CONN
*P wbs_dat_i[3] I
*I *988:wbs_dat_i[3] I *D soc_sys
*CAP
1 wbs_dat_i[3] 4.32496e-05
2 *988:wbs_dat_i[3] 0.00245085
3 *601:13 0.00924752
4 *601:7 0.00960764
5 *601:5 0.00285422
6 *601:13 *602:19 0
*RES
1 wbs_dat_i[3] *601:5 0.883929 
2 *601:5 *601:7 57.1964 
3 *601:7 *601:13 27.3339 
4 *601:13 *988:wbs_dat_i[3] 45.3482 
*END

*D_NET *602 0.0277611
*CONN
*P wbs_dat_i[4] I
*I *988:wbs_dat_i[4] I *D soc_sys
*CAP
1 wbs_dat_i[4] 0.000310827
2 *988:wbs_dat_i[4] 9.28194e-05
3 *602:21 0.00222301
4 *602:19 0.00939157
5 *602:13 0.00959606
6 *602:11 0.0026455
7 *602:11 wbs_dat_o[3] 0.000806853
8 *602:11 wbs_dat_o[4] 0.00013862
9 *602:11 *643:13 4.83606e-05
10 *602:13 wbs_dat_o[4] 0
11 *602:19 *609:15 0
12 *602:21 *611:17 0.00138918
13 *554:15 *602:13 0.000375673
14 *570:9 *602:13 0
15 *574:17 *602:19 0
16 *579:17 *602:19 0.00074264
17 *601:13 *602:19 0
*RES
1 wbs_dat_i[4] *602:11 9.79749 
2 *602:11 *602:13 50.5179 
3 *602:13 *602:19 28.6311 
4 *602:19 *602:21 49.9107 
5 *602:21 *988:wbs_dat_i[4] 1.50893 
*END

*D_NET *603 0.0339281
*CONN
*P wbs_dat_i[5] I
*I *988:wbs_dat_i[5] I *D soc_sys
*CAP
1 wbs_dat_i[5] 0.00157919
2 *988:wbs_dat_i[5] 0.00704882
3 *603:11 0.00990606
4 *603:9 0.00443643
5 *988:wbs_dat_i[5] *607:17 0
6 *988:wbs_adr_i[3] *988:wbs_dat_i[5] 0.00784883
7 *988:wbs_adr_i[4] *988:wbs_dat_i[5] 0
8 *65:25 *988:wbs_dat_i[5] 0.00310876
9 *570:9 *603:9 0
10 *587:21 *603:9 0
11 *587:21 *603:11 0
*RES
1 wbs_dat_i[5] *603:9 31.8482 
2 *603:9 *603:11 58.2679 
3 *603:11 *988:wbs_dat_i[5] 46.6905 
*END

*D_NET *604 0.0316205
*CONN
*P wbs_dat_i[6] I
*I *988:wbs_dat_i[6] I *D soc_sys
*CAP
1 wbs_dat_i[6] 0.00959234
2 *988:wbs_dat_i[6] 0.000100721
3 *604:15 0.00376112
4 *604:13 0.0132527
5 *604:13 wbs_dat_o[4] 0
6 *604:13 *643:13 0
7 *604:15 *637:13 0
8 *545:13 *604:13 0
9 *550:11 *604:13 0.000352538
10 *578:11 *604:13 0
11 *582:11 *604:13 0.00069833
12 *583:13 *604:15 0.00178252
13 *583:15 *604:15 0.00208016
14 *598:13 *604:13 0
*RES
1 wbs_dat_i[6] *604:13 43.0298 
2 *604:13 *604:15 93.0179 
3 *604:15 *988:wbs_dat_i[6] 1.50893 
*END

*D_NET *605 0.0388717
*CONN
*P wbs_dat_i[7] I
*I *988:wbs_dat_i[7] I *D soc_sys
*CAP
1 wbs_dat_i[7] 0.00168786
2 *988:wbs_dat_i[7] 0.000100721
3 *605:15 0.00240098
4 *605:13 0.0112401
5 *605:9 0.0106277
6 *605:13 *606:13 0
7 *605:15 *639:17 0.00542635
8 *548:13 *605:13 0.00738806
9 *570:13 *605:13 0
*RES
1 wbs_dat_i[7] *605:9 37.2046 
2 *605:9 *605:13 33.1485 
3 *605:13 *605:15 68.125 
4 *605:15 *988:wbs_dat_i[7] 1.50893 
*END

*D_NET *606 0.0378182
*CONN
*P wbs_dat_i[8] I
*I *988:wbs_dat_i[8] I *D soc_sys
*CAP
1 wbs_dat_i[8] 0.00145962
2 *988:wbs_dat_i[8] 9.67829e-05
3 *606:15 0.00386505
4 *606:13 0.0133776
5 *606:9 0.0110689
6 *606:13 *616:13 0.0036839
7 *606:15 wbs_dat_o[19] 0
8 *606:15 *618:17 0
9 *547:13 *606:13 0.0042663
10 *548:13 *606:13 0
11 *605:13 *606:13 0
*RES
1 wbs_dat_i[8] *606:9 32.5618 
2 *606:9 *606:13 35.2384 
3 *606:13 *606:15 72.9821 
4 *606:15 *988:wbs_dat_i[8] 1.50893 
*END

*D_NET *607 0.0489054
*CONN
*P wbs_dat_i[9] I
*I *988:wbs_dat_i[9] I *D soc_sys
*CAP
1 wbs_dat_i[9] 0.00159142
2 *988:wbs_dat_i[9] 0.000862416
3 *607:17 0.00921998
4 *607:11 0.0110749
5 *607:9 0.0043088
6 *988:wbs_dat_i[9] *621:17 0.00134199
7 *607:9 *633:13 0
8 *607:11 *633:13 0
9 *607:17 *611:15 0.0156498
10 *607:17 *615:13 0
11 *988:wbs_adr_i[4] *607:17 0.00485604
12 *988:wbs_dat_i[5] *607:17 0
13 *574:11 *607:9 0
*RES
1 wbs_dat_i[9] *607:9 31.2411 
2 *607:9 *607:11 52.8036 
3 *607:11 *607:17 41.0266 
4 *607:17 *988:wbs_dat_i[9] 20.0446 
*END

*D_NET *608 0.0323172
*CONN
*P wbs_dat_o[0] O
*I *988:wbs_dat_o[0] O *D soc_sys
*CAP
1 wbs_dat_o[0] 0.00156873
2 *988:wbs_dat_o[0] 0.0022937
3 *608:25 0.00510867
4 *608:23 0.00583363
5 *608:23 *988:wbs_sel_i[0] 0.00131287
6 *608:23 *988:wbs_sel_i[1] 0.00487592
7 *608:23 *988:wbs_sel_i[2] 0.00010928
8 *608:23 *988:wbs_stb_i 0.000582611
9 *988:wbs_cyc_i *608:23 0.00255613
10 *31:21 *608:23 0.000934553
11 *32:21 *608:23 0.00100596
12 *32:49 *608:25 1.15313e-05
13 *33:21 *608:23 0.000951742
14 *34:21 *608:23 0.00102628
15 *44:43 *608:23 6.6812e-05
16 *49:29 *608:23 0.00279027
17 *541:17 *608:23 6.57893e-06
18 *541:57 *608:23 0.00128189
19 *576:13 wbs_dat_o[0] 0
*RES
1 *988:wbs_dat_o[0] *608:23 27.9891 
2 *608:23 *608:25 70.4107 
3 *608:25 wbs_dat_o[0] 31.2411 
*END

*D_NET *609 0.046682
*CONN
*P wbs_dat_o[10] O
*I *988:wbs_dat_o[10] O *D soc_sys
*CAP
1 wbs_dat_o[10] 4.32496e-05
2 *988:wbs_dat_o[10] 0.00239865
3 *609:17 0.00288724
4 *609:15 0.0122262
5 *609:11 0.0117809
6 *579:17 *609:15 0
7 *581:11 *609:15 0.0173458
8 *602:19 *609:15 0
*RES
1 *988:wbs_dat_o[10] *609:11 48.7582 
2 *609:11 *609:15 40.7875 
3 *609:15 *609:17 56.5893 
4 *609:17 wbs_dat_o[10] 0.883929 
*END

*D_NET *610 0.053675
*CONN
*P wbs_dat_o[11] O
*I *988:wbs_dat_o[11] O *D soc_sys
*CAP
1 wbs_dat_o[11] 0.000796315
2 *988:wbs_dat_o[11] 9.28195e-05
3 *610:15 0.0102671
4 *610:9 0.0139353
5 *610:7 0.00455733
6 *610:9 wbs_dat_o[25] 0
7 *610:9 *625:13 0
8 *545:13 *610:15 0.0226816
9 *546:13 *610:15 0
10 *551:11 *610:15 0
11 *560:11 *610:15 0.00134453
12 *561:9 *610:9 0
13 *561:11 *610:9 0
14 *578:11 wbs_dat_o[11] 0
*RES
1 *988:wbs_dat_o[11] *610:7 1.50893 
2 *610:7 *610:9 86.3393 
3 *610:9 *610:15 46.3595 
4 *610:15 wbs_dat_o[11] 14.9732 
*END

*D_NET *611 0.0496868
*CONN
*P wbs_dat_o[12] O
*I *988:wbs_dat_o[12] O *D soc_sys
*CAP
1 wbs_dat_o[12] 0.00159189
2 *988:wbs_dat_o[12] 0.000921142
3 *611:17 0.00371857
4 *611:15 0.0134321
5 *611:11 0.0122266
6 *611:11 *627:23 0.000757559
7 *571:17 *611:15 0
8 *583:19 *611:15 0
9 *594:15 *611:15 0
10 *602:21 *611:17 0.00138918
11 *607:17 *611:15 0.0156498
*RES
1 *988:wbs_dat_o[12] *611:11 23.8654 
2 *611:11 *611:15 45.0395 
3 *611:15 *611:17 52.1964 
4 *611:17 wbs_dat_o[12] 31.2411 
*END

*D_NET *612 0.0610321
*CONN
*P wbs_dat_o[13] O
*I *988:wbs_dat_o[13] O *D soc_sys
*CAP
1 wbs_dat_o[13] 0.00226435
2 *988:wbs_dat_o[13] 0.000540477
3 *612:17 0.00494655
4 *612:15 0.00869247
5 *612:11 0.00655075
6 *612:11 *629:17 0
7 *612:17 *635:13 0
8 *36:25 *612:15 0.00437938
9 *67:21 *612:15 0.0113169
10 *544:17 *612:15 0.0163457
11 *548:9 wbs_dat_o[13] 0
12 *561:15 *612:15 0.00599548
13 *570:15 wbs_dat_o[13] 0
14 *570:15 *612:17 0
*RES
1 *988:wbs_dat_o[13] *612:11 12.3296 
2 *612:11 *612:15 47.2015 
3 *612:15 *612:17 51.4107 
4 *612:17 wbs_dat_o[13] 44.1696 
*END

*D_NET *613 0.0568427
*CONN
*P wbs_dat_o[14] O
*I *988:wbs_dat_o[14] O *D soc_sys
*CAP
1 wbs_dat_o[14] 0.00114876
2 *988:wbs_dat_o[14] 0.000100721
3 *613:13 0.0118026
4 *613:9 0.014467
5 *613:7 0.00391393
6 *613:13 *616:13 0
7 *546:13 *613:13 0.0208691
8 *547:13 *613:13 0
9 *549:9 wbs_dat_o[14] 0
10 *564:11 *613:13 0.00380184
11 *567:9 *613:9 0
12 *567:11 *613:13 0
13 *600:9 *613:9 0.000738796
*RES
1 *988:wbs_dat_o[14] *613:7 1.50893 
2 *613:7 *613:9 79.6607 
3 *613:9 *613:13 49.2193 
4 *613:13 wbs_dat_o[14] 25.4725 
*END

*D_NET *614 0.0597744
*CONN
*P wbs_dat_o[15] O
*I *988:wbs_dat_o[15] O *D soc_sys
*CAP
1 wbs_dat_o[15] 4.32496e-05
2 *988:wbs_dat_o[15] 0.00202905
3 *614:17 0.00333501
4 *614:15 0.00329176
5 *614:13 0.0122278
6 *614:11 0.0142569
7 *572:13 *614:13 0
8 *573:17 *614:13 0.00338042
9 *582:9 *614:17 0
10 *585:17 *614:13 0
11 *588:17 *614:13 0.0212102
12 *597:11 *614:13 0
*RES
1 *988:wbs_dat_o[15] *614:11 40.8654 
2 *614:11 *614:13 48.3317 
3 *614:13 *614:15 3.41 
4 *614:15 *614:17 64.4821 
5 *614:17 wbs_dat_o[15] 0.883929 
*END

*D_NET *615 0.072577
*CONN
*P wbs_dat_o[16] O
*I *988:wbs_dat_o[16] O *D soc_sys
*CAP
1 wbs_dat_o[16] 0.0016387
2 *988:wbs_dat_o[16] 0.000683023
3 *615:17 0.0046023
4 *615:15 0.00296359
5 *615:13 0.00833338
6 *615:11 0.0090164
7 *615:11 *617:17 0.000391829
8 *615:17 *638:13 0
9 *65:25 *615:13 0.00299999
10 *549:15 *615:13 0.0269029
11 *594:15 *615:13 0.0150449
12 *607:17 *615:13 0
*RES
1 *988:wbs_dat_o[16] *615:11 17.1868 
2 *615:11 *615:13 50.3495 
3 *615:13 *615:15 3.41 
4 *615:15 *615:17 58.875 
5 *615:17 wbs_dat_o[16] 31.8482 
*END

*D_NET *616 0.0672668
*CONN
*P wbs_dat_o[17] O
*I *988:wbs_dat_o[17] O *D soc_sys
*CAP
1 wbs_dat_o[17] 0.00148414
2 *988:wbs_dat_o[17] 0.000100721
3 *616:13 0.0139503
4 *616:11 0.0124661
5 *616:9 0.0038081
6 *616:7 0.00390883
7 *547:13 *616:13 0.0182447
8 *548:13 *616:13 0
9 *567:11 *616:13 0.00961996
10 *593:11 *616:13 0
11 *606:13 *616:13 0.0036839
12 *613:13 *616:13 0
*RES
1 *988:wbs_dat_o[17] *616:7 1.50893 
2 *616:7 *616:9 73.5893 
3 *616:9 *616:11 3.41 
4 *616:11 *616:13 52.2953 
5 *616:13 wbs_dat_o[17] 31.9546 
*END

*D_NET *617 0.0796984
*CONN
*P wbs_dat_o[18] O
*I *988:wbs_dat_o[18] O *D soc_sys
*CAP
1 wbs_dat_o[18] 0.000245552
2 *988:wbs_dat_o[18] 0.00132204
3 *617:21 0.00630814
4 *617:17 0.0109681
5 *617:15 0.00622755
6 *617:15 *618:13 0.00619446
7 *617:15 *629:13 0.00619703
8 *617:21 *620:13 0.00998372
9 *617:21 *624:13 0.00963505
10 *617:21 *631:21 0.0073199
11 *988:wbs_adr_i[21] *617:21 0.00294865
12 *577:11 *617:21 0
13 *578:11 *617:21 0.0117622
14 *585:11 *617:21 9.83204e-05
15 *585:13 wbs_dat_o[18] 0
16 *588:11 *617:21 9.58789e-05
17 *615:11 *617:17 0.000391829
*RES
1 *988:wbs_dat_o[18] *617:15 20.7306 
2 *617:15 *617:17 94.8393 
3 *617:17 *617:21 48.4987 
4 *617:21 wbs_dat_o[18] 8.06179 
*END

*D_NET *618 0.0802454
*CONN
*P wbs_dat_o[19] O
*I *988:wbs_dat_o[19] O *D soc_sys
*CAP
1 wbs_dat_o[19] 0.00168352
2 *988:wbs_dat_o[19] 0.000230236
3 *618:17 0.00522919
4 *618:15 0.00354567
5 *618:13 0.00850497
6 *618:11 0.00873521
7 *618:13 *621:13 0.0322621
8 *618:13 *629:13 0.00634497
9 *618:13 *639:15 0.00181845
10 *108:21 *618:13 0.00569657
11 *586:9 wbs_dat_o[19] 0
12 *606:15 wbs_dat_o[19] 0
13 *606:15 *618:17 0
14 *617:15 *618:13 0.00619446
*RES
1 *988:wbs_dat_o[19] *618:11 6.86536 
2 *618:11 *618:13 56.9797 
3 *618:13 *618:15 3.41 
4 *618:15 *618:17 69.1964 
5 *618:17 wbs_dat_o[19] 31.8482 
*END

*D_NET *619 0.0359292
*CONN
*P wbs_dat_o[1] O
*I *988:wbs_dat_o[1] O *D soc_sys
*CAP
1 wbs_dat_o[1] 0.00110496
2 *988:wbs_dat_o[1] 0.00163834
3 *619:18 0.00399438
4 *619:16 0.00452776
5 *988:wbs_cyc_i *619:16 4.73953e-05
6 *43:17 *619:16 0.00975935
7 *44:43 *619:16 5.11642e-05
8 *49:29 *619:16 0.00975935
9 *541:57 *619:16 0.00135355
10 *576:15 wbs_dat_o[1] 0.00204877
11 *576:15 *619:18 0.00164419
12 *587:19 wbs_dat_o[1] 0
*RES
1 *988:wbs_dat_o[1] *619:16 29.3944 
2 *619:16 *619:18 71.0179 
3 *619:18 wbs_dat_o[1] 31.8482 
*END

*D_NET *620 0.0848661
*CONN
*P wbs_dat_o[20] O
*I *988:wbs_dat_o[20] O *D soc_sys
*CAP
1 wbs_dat_o[20] 0.000159174
2 *988:wbs_dat_o[20] 0.000101672
3 *620:13 0.00676402
4 *620:11 0.00660484
5 *620:9 0.00519704
6 *620:7 0.00529871
7 *620:13 *628:21 0.0234993
8 *620:13 *631:21 0.0200032
9 *988:wbs_adr_i[21] *620:13 1.20192e-05
10 *577:11 *620:13 0.000762462
11 *588:11 *620:13 4.12053e-05
12 *588:13 wbs_dat_o[20] 8.33775e-05
13 *590:11 *620:13 0.00635542
14 *617:21 *620:13 0.00998372
*RES
1 *988:wbs_dat_o[20] *620:7 1.50893 
2 *620:7 *620:9 98.4821 
3 *620:9 *620:11 3.41 
4 *620:11 *620:13 58.8534 
5 *620:13 wbs_dat_o[20] 7.06179 
*END

*D_NET *621 0.112948
*CONN
*P wbs_dat_o[21] O
*I *988:wbs_dat_o[21] O *D soc_sys
*CAP
1 wbs_dat_o[21] 0.00172524
2 *988:wbs_dat_o[21] 0.000192389
3 *621:17 0.00509965
4 *621:15 0.00337441
5 *621:13 0.00774838
6 *621:11 0.00794077
7 *621:13 *623:13 0.0357522
8 *621:13 *629:13 0.00202191
9 *621:13 *639:15 0.00109657
10 *988:wbs_adr_i[21] *621:13 2.14879e-05
11 *988:wbs_dat_i[9] *621:17 0.00134199
12 *31:21 *621:13 0.000289711
13 *32:21 *621:13 0.000333271
14 *33:21 *621:13 0.000137202
15 *34:21 *621:13 0.000105257
16 *42:25 *621:13 0.00383916
17 *43:17 *621:13 0
18 *44:23 *621:13 0.000183906
19 *44:25 *621:13 0.000848137
20 *540:25 *621:13 0.000102535
21 *541:57 *621:13 0.00853142
22 *618:13 *621:13 0.0322621
*RES
1 *988:wbs_dat_o[21] *621:11 6.25821 
2 *621:11 *621:13 61.3757 
3 *621:13 *621:15 3.41 
4 *621:15 *621:17 69.8036 
5 *621:17 wbs_dat_o[21] 31.8482 
*END

*D_NET *622 0.101457
*CONN
*P wbs_dat_o[22] O
*I *988:wbs_dat_o[22] O *D soc_sys
*CAP
1 wbs_dat_o[22] 6.49481e-05
2 *988:wbs_dat_o[22] 0.000100721
3 *622:13 0.00807878
4 *622:11 0.00801383
5 *622:9 0.00512708
6 *622:7 0.0052278
7 *622:13 *626:21 0.0334593
8 *622:13 *628:21 0.000570628
9 *577:11 *622:13 0.00128754
10 *590:11 *622:13 0.0395259
*RES
1 *988:wbs_dat_o[22] *622:7 1.50893 
2 *622:7 *622:9 100.304 
3 *622:9 *622:11 3.41 
4 *622:11 *622:13 63.3215 
5 *622:13 wbs_dat_o[22] 4.70464 
*END

*D_NET *623 0.136216
*CONN
*P wbs_dat_o[23] O
*I *988:wbs_dat_o[23] O *D soc_sys
*CAP
1 wbs_dat_o[23] 0.00173262
2 *988:wbs_dat_o[23] 0.000154541
3 *623:17 0.00540777
4 *623:15 0.00367515
5 *623:13 0.00776694
6 *623:11 0.00792148
7 *623:13 *625:9 0.0385512
8 *623:13 *629:13 0.00140081
9 *31:21 *623:13 0.00870644
10 *32:21 *623:13 0.0147003
11 *33:21 *623:13 0.000683449
12 *34:21 *623:13 0.000595537
13 *43:17 *623:13 0
14 *540:25 *623:13 0.000274404
15 *541:57 *623:13 0.00889355
16 *577:13 wbs_dat_o[23] 0
17 *577:13 *623:17 0
18 *621:13 *623:13 0.0357522
*RES
1 *988:wbs_dat_o[23] *623:11 5.65107 
2 *623:11 *623:13 65.7718 
3 *623:13 *623:15 3.41 
4 *623:15 *623:17 70.4107 
5 *623:17 wbs_dat_o[23] 31.8482 
*END

*D_NET *624 0.0707726
*CONN
*P wbs_dat_o[24] O
*I *988:wbs_dat_o[24] O *D soc_sys
*CAP
1 wbs_dat_o[24] 0.000339861
2 *988:wbs_dat_o[24] 0.000100721
3 *624:13 0.0131718
4 *624:11 0.012832
5 *624:9 0.00485804
6 *624:7 0.00495876
7 *624:13 *631:21 0.00946464
8 *988:wbs_adr_i[21] *624:13 0.00642916
9 *550:11 *624:13 0.000576488
10 *555:11 *624:13 0.00251284
11 *578:11 *624:13 0.000865564
12 *582:11 *624:13 0.00502769
13 *617:21 *624:13 0.00963505
*RES
1 *988:wbs_dat_o[24] *624:7 1.50893 
2 *624:7 *624:9 96.0536 
3 *624:9 *624:11 3.41 
4 *624:11 *624:13 67.6455 
5 *624:13 wbs_dat_o[24] 9.49036 
*END

*D_NET *625 0.139109
*CONN
*P wbs_dat_o[25] O
*I *988:wbs_dat_o[25] O *D soc_sys
*CAP
1 wbs_dat_o[25] 0.00171528
2 *988:wbs_dat_o[25] 9.53145e-05
3 *625:13 0.00540202
4 *625:11 0.00368675
5 *625:9 0.00855944
6 *625:7 0.00865476
7 *625:9 *626:15 0.000154852
8 *625:9 *627:9 0.0351526
9 *625:9 *627:23 0.00312067
10 *625:9 *628:15 0.000112458
11 *625:9 *629:13 0.000777284
12 *31:21 *625:9 0.00124922
13 *32:21 *625:9 0.00269411
14 *33:21 *625:9 0.00862229
15 *34:21 *625:9 0.00925119
16 *42:23 *625:9 0.000657393
17 *43:17 *625:9 0.000707114
18 *540:25 *625:9 0.000611011
19 *541:57 *625:9 0.00933421
20 *593:9 wbs_dat_o[25] 0
21 *593:9 *625:13 0
22 *610:9 wbs_dat_o[25] 0
23 *610:9 *625:13 0
24 *623:13 *625:9 0.0385512
*RES
1 *988:wbs_dat_o[25] *625:7 4.68679 
2 *625:7 *625:9 70.1491 
3 *625:9 *625:11 3.41 
4 *625:11 *625:13 71.0179 
5 *625:13 wbs_dat_o[25] 31.8482 
*END

*D_NET *626 0.0842775
*CONN
*P wbs_dat_o[26] O
*I *988:wbs_dat_o[26] O *D soc_sys
*CAP
1 wbs_dat_o[26] 6.33454e-05
2 *988:wbs_dat_o[26] 0.00128023
3 *626:21 0.0144555
4 *626:19 0.0143921
5 *626:17 0.00496871
6 *626:15 0.00624893
7 *626:15 *628:15 0.0017199
8 *626:15 *629:13 0.00398608
9 *626:21 wbs_dat_o[31] 0.000273429
10 *626:21 *628:21 0.00327519
11 *593:15 *626:17 0
12 *622:13 *626:21 0.0334593
13 *625:9 *626:15 0.000154852
*RES
1 *988:wbs_dat_o[26] *626:15 17.2714 
2 *626:15 *626:17 98.4821 
3 *626:17 *626:19 3.41 
4 *626:19 *626:21 65.7718 
5 *626:21 wbs_dat_o[26] 4.70464 
*END

*D_NET *627 0.108996
*CONN
*P wbs_dat_o[27] O
*I *988:wbs_dat_o[27] O *D soc_sys
*CAP
1 wbs_dat_o[27] 0.000763572
2 *988:wbs_dat_o[27] 4.45274e-05
3 *627:25 0.00387176
4 *627:23 0.00609417
5 *627:9 0.0169363
6 *627:7 0.0139949
7 *627:9 *628:15 0.000409115
8 *627:9 *631:15 0.000332588
9 *627:9 *632:11 0.00457201
10 *33:21 *627:9 0.000372669
11 *34:21 *627:9 0.000345602
12 *42:23 *627:23 0.000652564
13 *43:17 *627:9 0.000443777
14 *43:17 *627:23 0.00224909
15 *540:25 *627:9 0.00808517
16 *540:25 *627:23 0.00114094
17 *541:57 *627:9 0.00842777
18 *541:57 *627:23 0.00122857
19 *563:9 wbs_dat_o[27] 0
20 *563:9 *627:25 0
21 *611:11 *627:23 0.000757559
22 *625:9 *627:9 0.0351526
23 *625:9 *627:23 0.00312067
*RES
1 *988:wbs_dat_o[27] *627:7 4.07964 
2 *627:7 *627:9 64.8522 
3 *627:9 *627:23 42.4677 
4 *627:23 *627:25 61.7321 
5 *627:25 wbs_dat_o[27] 12.9554 
*END

*D_NET *628 0.108914
*CONN
*P wbs_dat_o[28] O
*I *988:wbs_dat_o[28] O *D soc_sys
*CAP
1 wbs_dat_o[28] 0.000168198
2 *988:wbs_dat_o[28] 0.00259591
3 *628:21 0.00676714
4 *628:19 0.00659895
5 *628:17 0.00494014
6 *628:15 0.00753605
7 *628:15 *629:13 0.00204136
8 *628:15 *631:15 0.00836524
9 *628:21 *631:21 0.00896483
10 *31:21 *628:15 0.000180549
11 *32:21 *628:15 0.000415391
12 *541:57 *628:15 0.0019368
13 *590:11 *628:21 0.0288164
14 *620:13 *628:21 0.0234993
15 *622:13 *628:21 0.000570628
16 *625:9 *628:15 0.000112458
17 *626:15 *628:15 0.0017199
18 *626:21 *628:21 0.00327519
19 *627:9 *628:15 0.000409115
*RES
1 *988:wbs_dat_o[28] *628:15 24.9213 
2 *628:15 *628:17 97.875 
3 *628:17 *628:19 3.41 
4 *628:19 *628:21 61.2316 
5 *628:21 wbs_dat_o[28] 6.45464 
*END

*D_NET *629 0.108305
*CONN
*P wbs_dat_o[29] O
*I *988:wbs_dat_o[29] O *D soc_sys
*CAP
1 wbs_dat_o[29] 0.00171892
2 *988:wbs_dat_o[29] 0.000278403
3 *629:17 0.00532204
4 *629:15 0.00360312
5 *629:13 0.0120578
6 *629:11 0.0123362
7 *629:13 *631:15 0.000705453
8 *988:wbs_adr_i[21] *629:13 4.98422e-05
9 *108:21 *629:13 0.0494636
10 *612:11 *629:17 0
11 *617:15 *629:13 0.00619703
12 *618:13 *629:13 0.00634497
13 *621:13 *629:13 0.00202191
14 *623:13 *629:13 0.00140081
15 *625:9 *629:13 0.000777284
16 *626:15 *629:13 0.00398608
17 *628:15 *629:13 0.00204136
*RES
1 *988:wbs_dat_o[29] *629:11 8.07964 
2 *629:11 *629:13 78.8879 
3 *629:13 *629:15 3.41 
4 *629:15 *629:17 67.9821 
5 *629:17 wbs_dat_o[29] 31.2411 
*END

*D_NET *630 0.0373026
*CONN
*P wbs_dat_o[2] O
*I *988:wbs_dat_o[2] O *D soc_sys
*CAP
1 wbs_dat_o[2] 4.32496e-05
2 *988:wbs_dat_o[2] 0.00232366
3 *630:21 0.00360974
4 *630:19 0.00489888
5 *630:15 0.00365605
6 *630:19 *988:wbs_we_i 4.6025e-06
7 *630:21 *642:13 0
8 *54:19 *630:15 0.0113819
9 *108:21 *630:15 0.0113845
10 *565:13 *630:19 0
*RES
1 *988:wbs_dat_o[2] *630:15 29.6254 
2 *630:15 *630:19 25.3929 
3 *630:19 *630:21 73.1429 
4 *630:21 wbs_dat_o[2] 0.883929 
*END

*D_NET *631 0.11442
*CONN
*P wbs_dat_o[30] O
*I *988:wbs_dat_o[30] O *D soc_sys
*CAP
1 wbs_dat_o[30] 0.00022413
2 *988:wbs_dat_o[30] 0.00312381
3 *631:21 0.00831615
4 *631:19 0.00809202
5 *631:17 0.00483576
6 *631:15 0.00795957
7 *631:15 *632:11 0.0141633
8 *988:wbs_adr_i[26] *631:17 0.000150485
9 *31:21 *631:15 0.00311777
10 *32:21 *631:15 0.00576708
11 *108:21 *631:15 0.000456268
12 *541:57 *631:15 0.00305779
13 *617:21 *631:21 0.0073199
14 *620:13 *631:21 0.0200032
15 *624:13 *631:21 0.00946464
16 *627:9 *631:15 0.000332588
17 *628:15 *631:15 0.00836524
18 *628:21 *631:21 0.00896483
19 *629:13 *631:15 0.000705453
*RES
1 *988:wbs_dat_o[30] *631:15 32.0973 
2 *631:15 *631:17 97.2679 
3 *631:17 *631:19 3.41 
4 *631:19 *631:21 57.9165 
5 *631:21 wbs_dat_o[30] 7.25821 
*END

*D_NET *632 0.108391
*CONN
*P wbs_dat_o[31] O
*I *988:wbs_dat_o[31] O *D soc_sys
*CAP
1 wbs_dat_o[31] 0.0290848
2 *988:wbs_dat_o[31] 0.00594364
3 *632:11 0.0350284
4 *988:wbs_adr_i[21] wbs_dat_o[31] 0.00455511
5 *31:21 *632:11 0.000627283
6 *32:21 *632:11 0.00135282
7 *33:21 *632:11 0.00332644
8 *34:21 *632:11 0.00358696
9 *108:21 *632:11 0
10 *540:25 *632:11 0.00244404
11 *541:57 *632:11 0.00343295
12 *626:21 wbs_dat_o[31] 0.000273429
13 *627:9 *632:11 0.00457201
14 *631:15 *632:11 0.0141633
*RES
1 *988:wbs_dat_o[31] *632:11 35.186 
2 *632:11 wbs_dat_o[31] 33.9515 
*END

*D_NET *633 0.0373758
*CONN
*P wbs_dat_o[3] O
*I *988:wbs_dat_o[3] O *D soc_sys
*CAP
1 wbs_dat_o[3] 0.00366259
2 *988:wbs_dat_o[3] 0.00108865
3 *633:13 0.0088922
4 *633:11 0.00631826
5 wbs_dat_o[3] wbs_dat_o[4] 0.000696539
6 wbs_dat_o[3] wbs_dat_o[5] 0.00683033
7 wbs_dat_o[3] wbs_dat_o[6] 0.000637763
8 wbs_dat_o[3] wbs_dat_o[7] 0.00319136
9 wbs_dat_o[3] *642:13 0
10 wbs_dat_o[3] *643:13 0
11 *633:13 wbs_dat_o[9] 0
12 *988:wbs_adr_i[3] *633:13 0
13 *31:21 *633:11 0.000419971
14 *32:21 *633:11 0.000452863
15 *33:21 *633:11 0.000414624
16 *34:21 *633:11 0.000447097
17 *42:25 *633:11 0.000412594
18 *44:25 *633:11 0.000717332
19 *49:29 *633:11 0.000913968
20 *54:19 *633:11 0.000538979
21 *540:25 *633:11 0.00040734
22 *541:57 *633:11 0.000526441
23 *602:11 wbs_dat_o[3] 0.000806853
24 *607:9 *633:13 0
25 *607:11 *633:13 0
*RES
1 *988:wbs_dat_o[3] *633:11 11.9445 
2 *633:11 *633:13 100.911 
3 *633:13 wbs_dat_o[3] 25.508 
*END

*D_NET *634 0.044898
*CONN
*P wbs_dat_o[4] O
*I *988:wbs_dat_o[4] O *D soc_sys
*CAP
1 wbs_dat_o[4] 0.0027835
2 *988:wbs_dat_o[4] 0.000718093
3 *634:13 0.0069067
4 *634:11 0.00484129
5 wbs_dat_o[4] wbs_dat_o[6] 0.00195532
6 wbs_dat_o[4] wbs_dat_o[8] 0.00628112
7 wbs_dat_o[4] *643:13 0.0115773
8 wbs_dat_o[3] wbs_dat_o[4] 0.000696539
9 *988:wbs_adr_i[4] *634:13 0
10 *31:21 *634:11 0.000363426
11 *32:21 *634:11 0.000391889
12 *33:21 *634:11 0.000358079
13 *34:21 *634:11 0.000394518
14 *42:25 *634:11 0.000357042
15 *44:25 *634:11 0.00062075
16 *49:29 *634:11 0.000671228
17 *54:19 *634:11 0.000401018
18 *540:25 *634:11 0.000359437
19 *541:57 *634:11 0.00029649
20 *546:9 *634:13 0
21 *578:11 wbs_dat_o[4] 0.000848895
22 *579:11 *634:13 0.00393672
23 *602:11 wbs_dat_o[4] 0.00013862
24 *602:13 wbs_dat_o[4] 0
25 *604:13 wbs_dat_o[4] 0
*RES
1 *988:wbs_dat_o[4] *634:11 11.0077 
2 *634:11 *634:13 97.875 
3 *634:13 wbs_dat_o[4] 32.1713 
*END

*D_NET *635 0.0436199
*CONN
*P wbs_dat_o[5] O
*I *988:wbs_dat_o[5] O *D soc_sys
*CAP
1 wbs_dat_o[5] 0.00459222
2 *988:wbs_dat_o[5] 0.00139335
3 *635:13 0.00923764
4 *635:11 0.00603878
5 wbs_dat_o[5] wbs_dat_o[7] 0.000862749
6 *635:11 *636:11 0.000156181
7 *635:11 *636:13 1.23346e-05
8 wbs_dat_o[3] wbs_dat_o[5] 0.00683033
9 *31:21 *635:11 0.000546542
10 *32:21 *635:11 0.000589347
11 *33:21 *635:11 0.000546542
12 *34:21 *635:11 0.000597742
13 *42:25 *635:11 0.000536941
14 *43:17 *635:11 0.000317638
15 *44:25 *635:11 0.000933522
16 *49:29 *635:11 0.000360511
17 *54:19 *635:11 0.000491106
18 *540:25 *635:11 0.00054622
19 *541:57 *635:11 0.000454329
20 *577:11 wbs_dat_o[5] 0.00543678
21 *580:9 *635:13 0.00313908
22 *612:17 *635:13 0
*RES
1 *988:wbs_dat_o[5] *635:11 12.7373 
2 *635:11 *635:13 101.518 
3 *635:13 wbs_dat_o[5] 29.5654 
*END

*D_NET *636 0.051998
*CONN
*P wbs_dat_o[6] O
*I *988:wbs_dat_o[6] O *D soc_sys
*CAP
1 wbs_dat_o[6] 0.00294198
2 *988:wbs_dat_o[6] 0.00109544
3 *636:13 0.00664524
4 *636:11 0.0047987
5 wbs_dat_o[6] wbs_dat_o[7] 0.0019391
6 wbs_dat_o[6] wbs_dat_o[8] 0.0111164
7 wbs_dat_o[6] wbs_dat_o[9] 0.00938056
8 *636:11 *637:11 0.00132522
9 *636:11 *638:13 2.91935e-06
10 wbs_dat_o[3] wbs_dat_o[6] 0.000637763
11 wbs_dat_o[4] wbs_dat_o[6] 0.00195532
12 *31:21 *636:11 0.000365073
13 *32:21 *636:11 0.000317356
14 *33:21 *636:11 0.000396286
15 *34:21 *636:11 0.000369162
16 *42:25 *636:11 0.00024593
17 *43:17 *636:11 0.000968263
18 *44:25 *636:11 0.000214676
19 *540:25 *636:11 0.000621936
20 *541:57 *636:11 0.000839623
21 *549:9 *636:13 0.000841596
22 *549:11 *636:13 0.00481093
23 *572:7 wbs_dat_o[6] 0
24 *635:11 *636:11 0.000156181
25 *635:11 *636:13 1.23346e-05
*RES
1 *988:wbs_dat_o[6] *636:11 12.7066 
2 *636:11 *636:13 99.6964 
3 *636:13 wbs_dat_o[6] 32.8288 
*END

*D_NET *637 0.0594375
*CONN
*P wbs_dat_o[7] O
*I *988:wbs_dat_o[7] O *D soc_sys
*CAP
1 wbs_dat_o[7] 0.00348682
2 *988:wbs_dat_o[7] 0.00164206
3 *637:13 0.0085732
4 *637:11 0.00672844
5 wbs_dat_o[7] wbs_dat_o[9] 0.0114309
6 *637:11 *638:11 0.00309306
7 *637:11 *639:15 0.00101817
8 wbs_dat_o[3] wbs_dat_o[7] 0.00319136
9 wbs_dat_o[5] wbs_dat_o[7] 0.000862749
10 wbs_dat_o[6] wbs_dat_o[7] 0.0019391
11 *31:21 *637:11 0.000621936
12 *32:21 *637:11 0.000670646
13 *33:21 *637:11 0.000829248
14 *34:21 *637:11 0.000894194
15 *42:25 *637:11 0.000611011
16 *43:17 *637:11 1.50834e-05
17 *44:25 *637:11 0.0010623
18 *108:21 *637:11 0
19 *541:57 *637:11 0.000872351
20 *550:9 *637:13 0.000285638
21 *577:11 wbs_dat_o[7] 0.010284
22 *583:13 *637:13 0
23 *604:15 *637:13 0
24 *636:11 *637:11 0.00132522
*RES
1 *988:wbs_dat_o[7] *637:11 15.1155 
2 *637:11 *637:13 100.304 
3 *637:13 wbs_dat_o[7] 31.5112 
*END

*D_NET *638 0.0522116
*CONN
*P wbs_dat_o[8] O
*I *988:wbs_dat_o[8] O *D soc_sys
*CAP
1 wbs_dat_o[8] 0.00298865
2 *988:wbs_dat_o[8] 0.00154444
3 *638:13 0.00812819
4 *638:11 0.00668398
5 wbs_dat_o[8] wbs_dat_o[9] 0.0019861
6 *638:11 *639:15 0.00181513
7 wbs_dat_o[4] wbs_dat_o[8] 0.00628112
8 wbs_dat_o[6] wbs_dat_o[8] 0.0111164
9 *33:21 *638:11 0.000676412
10 *34:21 *638:11 0.000627283
11 *43:17 *638:11 0.00170681
12 *540:25 *638:11 0.00123281
13 *541:57 *638:11 0.0012853
14 *551:9 *638:13 0
15 *578:11 wbs_dat_o[8] 0.00304302
16 *615:17 *638:13 0
17 *636:11 *638:13 2.91935e-06
18 *637:11 *638:11 0.00309306
*RES
1 *988:wbs_dat_o[8] *638:11 17.3189 
2 *638:11 *638:13 99.0893 
3 *638:13 wbs_dat_o[8] 32.8811 
*END

*D_NET *639 0.0659869
*CONN
*P wbs_dat_o[9] O
*I *988:wbs_dat_o[9] O *D soc_sys
*CAP
1 wbs_dat_o[9] 0.00293583
2 *988:wbs_dat_o[9] 0.00263974
3 *639:17 0.00667724
4 *639:15 0.00638115
5 wbs_dat_o[6] wbs_dat_o[9] 0.00938056
6 wbs_dat_o[7] wbs_dat_o[9] 0.0114309
7 wbs_dat_o[8] wbs_dat_o[9] 0.0019861
8 *31:21 *639:15 0.00158344
9 *32:21 *639:15 0.00146065
10 *33:21 *639:15 0.000605777
11 *34:21 *639:15 0.000534648
12 *42:25 *639:15 0.00124391
13 *43:17 *639:15 0
14 *44:25 *639:15 0.00268267
15 *108:21 *639:15 0.000390977
16 *540:25 *639:15 0.000411606
17 *541:57 *639:15 0.00139271
18 *552:9 *639:17 0.000692943
19 *577:11 wbs_dat_o[9] 0.00198727
20 *578:11 wbs_dat_o[9] 0.00039414
21 *605:15 *639:17 0.00542635
22 *618:13 *639:15 0.00181845
23 *621:13 *639:15 0.00109657
24 *633:13 wbs_dat_o[9] 0
25 *637:11 *639:15 0.00101817
26 *638:11 *639:15 0.00181513
*RES
1 *988:wbs_dat_o[9] *639:15 20.6387 
2 *639:15 *639:17 99.0893 
3 *639:17 wbs_dat_o[9] 31.7606 
*END

*D_NET *640 0.0320722
*CONN
*P wbs_sel_i[0] I
*I *988:wbs_sel_i[0] I *D soc_sys
*CAP
1 wbs_sel_i[0] 0.00214899
2 *988:wbs_sel_i[0] 0.00210662
3 *640:11 0.0049701
4 *640:9 0.00501248
5 *988:wbs_sel_i[0] *988:wbs_sel_i[2] 0.000621987
6 *988:wbs_sel_i[0] *988:wbs_stb_i 0.00299809
7 *31:35 *640:11 2.83284e-06
8 *42:25 *988:wbs_sel_i[0] 0.000692102
9 *44:25 *988:wbs_sel_i[0] 0.00159233
10 *54:19 *988:wbs_sel_i[0] 0.00819956
11 *541:17 *640:9 0.000884921
12 *541:17 *640:11 0.0015293
13 *554:9 *640:9 0
14 *608:23 *988:wbs_sel_i[0] 0.00131287
*RES
1 wbs_sel_i[0] *640:9 44.1696 
2 *640:9 *640:11 56.875 
3 *640:11 *988:wbs_sel_i[0] 23.3664 
*END

*D_NET *641 0.0343912
*CONN
*P wbs_sel_i[1] I
*I *988:wbs_sel_i[1] I *D soc_sys
*CAP
1 wbs_sel_i[1] 0.00155148
2 *988:wbs_sel_i[1] 0.0019796
3 *641:11 0.00563503
4 *641:9 0.0052069
5 *988:wbs_sel_i[1] *988:wbs_sel_i[2] 0.00307208
6 *33:21 *988:wbs_sel_i[1] 0.00113369
7 *34:21 *988:wbs_sel_i[1] 0.00105135
8 *49:29 *988:wbs_sel_i[1] 0.00578538
9 *540:25 *988:wbs_sel_i[1] 0.00200553
10 *541:57 *988:wbs_sel_i[1] 0.00209419
11 *587:19 *641:9 0
12 *608:23 *988:wbs_sel_i[1] 0.00487592
*RES
1 wbs_sel_i[1] *641:9 31.8482 
2 *641:9 *641:11 71.625 
3 *641:11 *988:wbs_sel_i[1] 23.4446 
*END

*D_NET *642 0.039827
*CONN
*P wbs_sel_i[2] I
*I *988:wbs_sel_i[2] I *D soc_sys
*CAP
1 wbs_sel_i[2] 0.00150415
2 *988:wbs_sel_i[2] 0.00269499
3 *642:15 0.00749124
4 *642:13 0.0063004
5 wbs_dat_o[3] *642:13 0
6 *988:wbs_sel_i[0] *988:wbs_sel_i[2] 0.000621987
7 *988:wbs_sel_i[1] *988:wbs_sel_i[2] 0.00307208
8 *31:21 *988:wbs_sel_i[2] 0.00206103
9 *32:21 *988:wbs_sel_i[2] 0.00190355
10 *33:21 *988:wbs_sel_i[2] 0.000818706
11 *34:21 *988:wbs_sel_i[2] 0.000711698
12 *42:25 *988:wbs_sel_i[2] 0.00191135
13 *44:25 *988:wbs_sel_i[2] 0.0041221
14 *49:29 *988:wbs_sel_i[2] 0.00116598
15 *54:19 *988:wbs_sel_i[2] 0.00274553
16 *541:57 *988:wbs_sel_i[2] 0.00212546
17 *569:9 *642:15 0
18 *587:19 *642:13 0.000467535
19 *608:23 *988:wbs_sel_i[2] 0.00010928
20 *630:21 *642:13 0
*RES
1 wbs_sel_i[2] *642:13 16.6967 
2 *642:13 *642:15 95.4464 
3 *642:15 *988:wbs_sel_i[2] 24.17 
*END

*D_NET *643 0.0341795
*CONN
*P wbs_sel_i[3] I
*I *988:wbs_sel_i[3] I *D soc_sys
*CAP
1 wbs_sel_i[3] 0.00487059
2 *988:wbs_sel_i[3] 0.000377467
3 *643:15 0.00514398
4 *643:13 0.0096371
5 wbs_dat_o[3] *643:13 0
6 wbs_dat_o[4] *643:13 0.0115773
7 *31:21 *988:wbs_sel_i[3] 0.00014669
8 *32:21 *988:wbs_sel_i[3] 0.000158178
9 *33:21 *988:wbs_sel_i[3] 0.000141343
10 *34:21 *988:wbs_sel_i[3] 0.000160807
11 *42:25 *988:wbs_sel_i[3] 0.000144113
12 *44:25 *988:wbs_sel_i[3] 0.000250554
13 *49:29 *988:wbs_sel_i[3] 0.000258762
14 *54:19 *988:wbs_sel_i[3] 0.000157781
15 *540:25 *988:wbs_sel_i[3] 0.000146508
16 *541:57 *988:wbs_sel_i[3] 0.000113942
17 *545:9 *643:15 0.000845984
18 *569:9 *643:13 0
19 *587:19 *643:13 0
20 *602:11 *643:13 4.83606e-05
21 *604:13 *643:13 0
*RES
1 wbs_sel_i[3] *643:13 32.1279 
2 *643:13 *643:15 97.2679 
3 *643:15 *988:wbs_sel_i[3] 9.27805 
*END

*D_NET *644 0.0254761
*CONN
*P wbs_stb_i I
*I *988:wbs_stb_i I *D soc_sys
*CAP
1 wbs_stb_i 0.00151762
2 *988:wbs_stb_i 0.00187546
3 *644:11 0.00538999
4 *644:9 0.00503215
5 *988:wb_rst_i *988:wbs_stb_i 4.98422e-05
6 *988:wbs_sel_i[0] *988:wbs_stb_i 0.00299809
7 *31:35 *988:wbs_stb_i 0.00230718
8 *32:49 *988:wbs_stb_i 0.000408028
9 *33:35 *988:wbs_stb_i 0.000449297
10 *33:35 *644:11 1.65923e-05
11 *42:25 *988:wbs_stb_i 0.000721413
12 *44:25 *988:wbs_stb_i 0.000244988
13 *44:43 *988:wbs_stb_i 0.00382618
14 *54:19 *988:wbs_stb_i 5.66933e-05
15 *608:23 *988:wbs_stb_i 0.000582611
*RES
1 wbs_stb_i *644:9 31.2411 
2 *644:9 *644:11 70.4107 
3 *644:11 *988:wbs_stb_i 19.2844 
*END

*D_NET *645 0.0254626
*CONN
*P wbs_we_i I
*I *988:wbs_we_i I *D soc_sys
*CAP
1 wbs_we_i 0.00151762
2 *988:wbs_we_i 0.00148396
3 *645:11 0.00486365
4 *645:9 0.00489731
5 *54:19 *988:wbs_we_i 0.00634641
6 *108:21 *988:wbs_we_i 0.00634899
7 *630:19 *988:wbs_we_i 4.6025e-06
*RES
1 wbs_we_i *645:9 31.2411 
2 *645:9 *645:11 67.9821 
3 *645:11 *988:wbs_we_i 21.626 
*END

*D_NET *646 0.162999
*CONN
*I *988:adc_chopclk I *D soc_sys
*I *984:buf_chopclk O *D CF_ADC_DSM20
*CAP
1 *988:adc_chopclk 0.00183087
2 *984:buf_chopclk 0.00161795
3 *646:22 0.024477
4 *646:20 0.0226461
5 *646:18 0.00893869
6 *646:16 0.0105566
7 *988:adc_chopclk *799:9 0.00201212
8 *646:16 *984:SIGN 5.26044e-05
9 *646:16 *984:itrim_comp[3] 2.25666e-05
10 *646:16 *984:itrim_comp[2] 5.19987e-05
11 *646:16 *659:20 0.00499356
12 *646:16 *667:14 0
13 *646:16 *669:12 8.41262e-06
14 *646:16 *875:17 0.00207329
15 *646:18 *984:MODBIT 0.00237826
16 *646:18 *984:MODINPUT 0.00167984
17 *646:18 *659:20 0.0160161
18 *646:18 *669:12 0.017377
19 *646:18 *875:17 0.000980549
20 *646:22 *664:22 0.0452858
21 *66:13 *988:adc_chopclk 0
*RES
1 *984:buf_chopclk *646:16 20.3084 
2 *646:16 *646:18 47.8993 
3 *646:18 *646:20 3.41 
4 *646:20 *646:22 95.6074 
5 *646:22 *988:adc_chopclk 30.7073 
*END

*D_NET *647 0.162798
*CONN
*I *988:adc_dout[0] I *D soc_sys
*I *984:dout[0] I *D CF_ADC_DSM20
*CAP
1 *988:adc_dout[0] 0.0094901
2 *984:dout[0] 0.000512026
3 *647:24 0.014166
4 *647:18 0.0283789
5 *647:16 0.023703
6 *647:14 0.0194404
7 *647:12 0.0199525
8 *647:12 *648:8 0
9 *647:12 *648:10 0
10 *647:14 *648:10 0
11 *647:18 *810:13 0.0350496
12 *647:24 *650:24 0
13 *647:24 *792:9 0.0121051
*RES
1 *984:dout[0] *647:12 5.0832 
2 *647:12 *647:14 57.9886 
3 *647:14 *647:16 3.41 
4 *647:16 *647:18 97.525 
5 *647:18 *647:24 26.0007 
6 *647:24 *988:adc_dout[0] 188.277 
*END

*D_NET *648 0.166383
*CONN
*I *988:adc_dout[1] I *D soc_sys
*I *984:dout[1] I *D CF_ADC_DSM20
*CAP
1 *988:adc_dout[1] 0.00504482
2 *984:dout[1] 0.000179384
3 *648:14 0.037421
4 *648:12 0.0323762
5 *648:10 0.0205245
6 *648:8 0.0207038
7 *988:adc_dout[1] *651:16 0.00874958
8 *988:adc_dout[1] *799:9 0.000859876
9 *988:adc_dout[1] *817:9 0
10 *648:8 *649:8 0
11 *648:10 *649:8 0
12 *648:14 *668:22 0
13 *648:14 *754:13 0.0405236
14 *647:12 *648:8 0
15 *647:12 *648:10 0
16 *647:14 *648:10 0
*RES
1 *984:dout[1] *648:8 3.99907 
2 *648:8 *648:10 61.0154 
3 *648:10 *648:12 3.41 
4 *648:12 *648:14 127.248 
5 *648:14 *988:adc_dout[1] 45.5728 
*END

*D_NET *649 0.143373
*CONN
*I *988:adc_dout[2] I *D soc_sys
*I *984:dout[2] I *D CF_ADC_DSM20
*CAP
1 *988:adc_dout[2] 1.94258e-05
2 *984:dout[2] 0.00098574
3 *649:18 0.0354032
4 *649:16 0.0353837
5 *649:14 0.0225845
6 *649:12 0.0225845
7 *649:10 0.00484819
8 *649:8 0.00583393
9 *988:adc_dout[2] *700:12 9.84683e-05
10 *988:adc_dout[2] *755:22 9.5164e-05
11 *649:10 *653:13 0.00876278
12 *649:14 *812:17 0.00677294
13 *649:18 *716:21 0
14 *648:8 *649:8 0
15 *648:10 *649:8 0
*RES
1 *984:dout[2] *649:8 9.82173 
2 *649:8 *649:10 138.554 
3 *649:10 *649:12 3.41 
4 *649:12 *649:14 73.8072 
5 *649:14 *649:16 3.41 
6 *649:16 *649:18 107.752 
7 *649:18 *988:adc_dout[2] 6.9751 
*END

*D_NET *650 0.137253
*CONN
*I *988:adc_dout[3] I *D soc_sys
*I *984:dout[3] I *D CF_ADC_DSM20
*CAP
1 *988:adc_dout[3] 0.00976768
2 *984:dout[3] 0.000517936
3 *650:24 0.0183827
4 *650:18 0.0396029
5 *650:16 0.0309879
6 *650:14 0.0173638
7 *650:12 0.0178817
8 *650:12 *651:8 0
9 *650:14 *651:8 0
10 *650:18 *804:13 0
11 *650:18 *819:13 0
12 *650:18 *821:19 0.00274876
13 *650:24 *792:9 0
14 *650:24 *794:9 0
15 *40:53 *650:18 0
16 *647:24 *650:24 0
*RES
1 *984:dout[3] *650:12 5.0832 
2 *650:12 *650:14 51.5026 
3 *650:14 *650:16 3.41 
4 *650:16 *650:18 98.5903 
5 *650:18 *650:24 30.1085 
6 *650:24 *988:adc_dout[3] 193.741 
*END

*D_NET *651 0.186286
*CONN
*I *988:adc_dout[4] I *D soc_sys
*I *984:dout[4] I *D CF_ADC_DSM20
*CAP
1 *988:adc_dout[4] 0.00114839
2 *984:dout[4] 0.0142885
3 *651:16 0.00703027
4 *651:10 0.0401829
5 *651:8 0.0485895
6 *651:8 *984:RESCAP[1] 0
7 *651:8 *652:11 9.77841e-05
8 *651:8 *761:14 0
9 *651:10 *659:22 0
10 *651:10 *807:13 0.0354253
11 *651:10 *813:13 0
12 *651:16 *799:9 0.0211863
13 *651:16 *817:9 0
14 *988:adc_dout[1] *651:16 0.00874958
15 *19:34 *651:8 0.00126509
16 *19:46 *651:8 0.00805494
17 *19:87 *651:8 0.000267934
18 *40:23 *651:8 0
19 *650:12 *651:8 0
20 *650:14 *651:8 0
*RES
1 *984:dout[4] *651:8 48.8458 
2 *651:8 *651:10 129.378 
3 *651:10 *651:16 40.1258 
4 *651:16 *988:adc_dout[4] 21.9196 
*END

*D_NET *652 0.171691
*CONN
*I *988:adc_dout[5] I *D soc_sys
*I *984:dout[5] I *D CF_ADC_DSM20
*CAP
1 *988:adc_dout[5] 1.22931e-05
2 *984:dout[5] 0.000244219
3 *652:21 0.0271303
4 *652:19 0.027118
5 *652:17 0.0256039
6 *652:15 0.0256039
7 *652:13 0.00330537
8 *652:11 0.00354959
9 *988:adc_dout[5] *700:12 5.27153e-05
10 *988:adc_dout[5] *755:22 4.98422e-05
11 *652:11 *653:11 0
12 *652:13 *654:13 0.00865943
13 *652:17 *662:20 0
14 *652:17 *791:17 0
15 *652:21 *653:21 0
16 *652:21 *693:13 0.0502635
17 *19:87 *652:13 0
18 *651:8 *652:11 9.77841e-05
*RES
1 *984:dout[5] *652:11 8.39124 
2 *652:11 *652:13 106.375 
3 *652:13 *652:15 3.41 
4 *652:15 *652:17 73.7352 
5 *652:17 *652:19 3.41 
6 *652:19 *652:21 115.316 
7 *652:21 *988:adc_dout[5] 6.90303 
*END

*D_NET *653 0.144225
*CONN
*I *988:adc_dout[6] I *D soc_sys
*I *984:dout[6] I *D CF_ADC_DSM20
*CAP
1 *988:adc_dout[6] 1.94258e-05
2 *984:dout[6] 0.00100711
3 *653:21 0.0371818
4 *653:19 0.0371623
5 *653:17 0.0253021
6 *653:15 0.0253021
7 *653:13 0.00404133
8 *653:11 0.00504843
9 *988:adc_dout[6] *700:12 9.84683e-05
10 *988:adc_dout[6] *755:22 9.5164e-05
11 *653:17 *791:17 0
12 *653:21 *654:21 0
13 *653:21 *693:13 0
14 *984:vgndd_vnb *653:13 0.000204088
15 *19:54 *653:13 0
16 *649:10 *653:13 0.00876278
17 *652:11 *653:11 0
18 *652:21 *653:21 0
*RES
1 *984:dout[6] *653:11 10.3657 
2 *653:11 *653:13 123.375 
3 *653:13 *653:15 3.41 
4 *653:15 *653:17 70.7084 
5 *653:17 *653:19 3.41 
6 *653:19 *653:21 113.185 
7 *653:21 *988:adc_dout[6] 6.9751 
*END

*D_NET *654 0.144795
*CONN
*I *988:adc_dout[7] I *D soc_sys
*I *984:dout[7] I *D CF_ADC_DSM20
*CAP
1 *988:adc_dout[7] 1.22931e-05
2 *984:dout[7] 0.000325207
3 *654:21 0.0361397
4 *654:19 0.0361274
5 *654:17 0.0247228
6 *654:15 0.0247228
7 *654:13 0.00680324
8 *654:11 0.00712845
9 *988:adc_dout[7] *700:12 5.27153e-05
10 *988:adc_dout[7] *755:22 4.98422e-05
11 *654:13 *984:NONOV[1] 1.19384e-05
12 *654:13 *984:NONOV[0] 3.87724e-05
13 *654:17 *663:20 0
14 *654:17 *665:18 0
15 *652:13 *654:13 0.00865943
16 *653:21 *654:21 0
*RES
1 *984:dout[7] *654:11 8.38295 
2 *654:11 *654:13 177.411 
3 *654:13 *654:15 3.41 
4 *654:15 *654:17 72.0776 
5 *654:17 *654:19 3.41 
6 *654:19 *654:21 104.45 
7 *654:21 *988:adc_dout[7] 6.90303 
*END

*D_NET *655 0.487926
*CONN
*I *986:iref I *D CF_BUF_HIZ
*I *984:iin I *D CF_ADC_DSM20
*I *985:ibg_2p375uA O *D CF_BGR
*CAP
1 *986:iref 3.54602e-05
2 *984:iin 0.00269451
3 *985:ibg_2p375uA 3.98448e-05
4 *655:41 0.0356848
5 *655:26 0.0461834
6 *655:14 0.0303853
7 *655:12 0.0225458
8 *655:10 0.0238141
9 *655:8 0.0238539
10 *984:iin *984:iinc 0.00620875
11 *984:iin *738:10 0.000677464
12 *655:8 *670:16 4.14954e-05
13 *655:10 *670:16 0.0161369
14 *655:14 *656:25 0
15 *655:14 *656:27 0
16 *655:14 *670:26 7.33603e-05
17 *655:14 *670:30 0.00133478
18 *655:14 *670:32 0
19 *655:26 *656:31 0.0198411
20 *655:26 *657:6 7.65262e-05
21 *655:41 *986:iref_casc 1.70199e-05
22 *655:41 *656:31 4.31981e-05
23 *655:41 *656:48 0.000179919
24 *655:41 *656:50 0.164905
25 *655:41 *657:6 0.0445212
26 *15:14 *655:14 0.0486326
27 *23:13 *655:41 0
28 *23:17 *655:41 0
*RES
1 *985:ibg_2p375uA *655:8 3.5933 
2 *655:8 *655:10 83.0318 
3 *655:10 *655:12 3.41 
4 *655:12 *655:14 680.732 
5 *655:14 *655:26 42.8684 
6 *655:26 *984:iin 23.6234 
7 *655:26 *655:41 258.19 
8 *655:41 *986:iref 3.57058 
*END

*D_NET *656 0.479991
*CONN
*I *987:nbias I *D CF_REFBUF
*I *986:iref_casc I *D CF_BUF_HIZ
*I *984:iinc I *D CF_ADC_DSM20
*I *985:ibg_3uA O *D CF_BGR
*CAP
1 *987:nbias 0.00981851
2 *986:iref_casc 4.51092e-05
3 *984:iinc 0.00278952
4 *985:ibg_3uA 0.00207419
5 *656:50 0.0547453
6 *656:48 0.0548807
7 *656:31 0.0103145
8 *656:27 0.0313802
9 *656:25 0.0251241
10 *656:19 0.0381669
11 *656:17 0.0293342
12 *656:17 *670:16 0
13 *656:19 *670:22 0
14 *656:25 *670:26 0.000215106
15 *656:25 *670:30 0.00177703
16 *656:27 *670:30 0.000940805
17 *656:27 *670:32 0.0256666
18 *656:27 *695:5 0
19 *656:31 *657:6 0
20 *984:iin *984:iinc 0.00620875
21 *986:vcm *656:50 0.000528395
22 *121:30 *656:17 0.000994591
23 *655:14 *656:25 0
24 *655:14 *656:27 0
25 *655:26 *656:31 0.0198411
26 *655:41 *986:iref_casc 1.70199e-05
27 *655:41 *656:31 4.31981e-05
28 *655:41 *656:48 0.000179919
29 *655:41 *656:50 0.164905
*RES
1 *985:ibg_3uA *656:17 45.8854 
2 *656:17 *656:19 82.0589 
3 *656:19 *656:25 34.4279 
4 *656:25 *656:27 615.768 
5 *656:27 *656:31 35.4186 
6 *656:31 *984:iinc 23.3383 
7 *656:31 *656:48 0.705 
8 *656:48 *656:50 257.325 
9 *656:50 *986:iref_casc 3.5933 
10 *656:19 *987:nbias 39.2199 
*END

*D_NET *657 0.234444
*CONN
*I *984:COMBUF_INP I *D CF_ADC_DSM20
*I *984:PBUF_INP I *D CF_ADC_DSM20
*I *984:INP I *D CF_ADC_DSM20
*I *986:out1 O *D CF_BUF_HIZ
*CAP
1 *984:COMBUF_INP 0.0019354
2 *984:PBUF_INP 0.00257881
3 *984:INP 0.000393814
4 *986:out1 0
5 *657:24 0.00610606
6 *657:22 0.00546265
7 *657:10 0.00490985
8 *657:8 0.00451604
9 *657:6 0.0734952
10 *657:4 0.0734952
11 *984:PBUF_INP *697:20 0
12 *984:COMBUF_INP *708:18 0.000329881
13 *657:10 *701:18 0
14 *984:VGND_DAC *657:24 4.5539e-05
15 *984:PBUF_INN *984:PBUF_INP 0.00137017
16 *984:COMBUF_INN *984:COMBUF_INP 9.22615e-05
17 *13:25 *984:INP 0
18 *13:31 *984:PBUF_INP 0
19 *13:31 *657:24 0.0146043
20 *23:17 *657:6 0.000511474
21 *655:26 *657:6 7.65262e-05
22 *655:41 *657:6 0.0445212
23 *656:31 *657:6 0
*RES
1 *986:out1 *657:4 3.41 
2 *657:4 *657:6 278.801 
3 *657:6 *657:8 3.41 
4 *657:8 *657:10 92.5625 
5 *657:10 *984:INP 11.5446 
6 *984:INP *657:22 4.5 
7 *657:22 *657:24 179.08 
8 *657:24 *984:PBUF_INP 23.1875 
9 *984:PBUF_INP *984:COMBUF_INP 44.3304 
*END

*D_NET *658 0.135293
*CONN
*I *988:adc_ov_one I *D soc_sys
*I *984:overload_det_one O *D CF_ADC_DSM20
*CAP
1 *988:adc_ov_one 1.22931e-05
2 *984:overload_det_one 0.000574084
3 *658:18 0.0227003
4 *658:16 0.022688
5 *658:14 0.0234795
6 *658:12 0.0240536
7 *988:adc_ov_one *700:12 5.27153e-05
8 *988:adc_ov_one *755:22 4.98422e-05
9 *658:12 *660:12 0.00128018
10 *658:12 *715:21 0
11 *658:12 *829:13 0
12 *658:14 *660:14 0
13 *658:18 *660:18 0
14 *658:18 *874:13 0.0404026
15 *20:19 *658:14 0
*RES
1 *984:overload_det_one *658:12 13.0829 
2 *658:12 *658:14 65.3394 
3 *658:14 *658:16 3.41 
4 *658:16 *658:18 96.8858 
5 *658:18 *988:adc_ov_one 6.90303 
*END

*D_NET *659 0.146487
*CONN
*I *988:adc_ov_zero I *D soc_sys
*I *984:overload_det_zero O *D CF_ADC_DSM20
*CAP
1 *988:adc_ov_zero 0.0020612
2 *984:overload_det_zero 0.00478999
3 *659:28 0.0124525
4 *659:22 0.0314953
5 *659:20 0.0258941
6 *659:20 *984:MODBIT 0.00362595
7 *659:20 *984:MODINPUT 4.48075e-05
8 *659:20 *669:12 0.00428455
9 *659:20 *875:17 0.00161562
10 *659:22 *813:13 0.0392137
11 *659:28 *804:9 0
12 *659:28 *805:9 0
13 *646:16 *659:20 0.00499356
14 *646:18 *659:20 0.0160161
15 *651:10 *659:22 0
*RES
1 *984:overload_det_zero *659:20 41.7198 
2 *659:20 *659:22 92.4114 
3 *659:22 *659:28 35.9459 
4 *659:28 *988:adc_ov_zero 39.5268 
*END

*D_NET *660 0.120544
*CONN
*I *988:adc_scanout I *D soc_sys
*I *984:SCANOUTPUT O *D CF_ADC_DSM20
*CAP
1 *988:adc_scanout 1.94258e-05
2 *984:SCANOUTPUT 0.000957237
3 *660:18 0.0240673
4 *660:16 0.0240479
5 *660:14 0.0237241
6 *660:12 0.0246813
7 *988:adc_scanout *700:12 9.84683e-05
8 *988:adc_scanout *755:22 9.5164e-05
9 *660:12 *715:21 0
10 *660:12 *829:13 0
11 *660:18 *791:13 0.0215726
12 *660:18 *874:13 0
13 *658:12 *660:12 0.00128018
14 *658:14 *660:14 0
15 *658:18 *660:18 0
*RES
1 *984:SCANOUTPUT *660:12 13.9986 
2 *660:12 *660:14 64.3305 
3 *660:14 *660:16 3.41 
4 *660:16 *660:18 95.8205 
5 *660:18 *988:adc_scanout 6.9751 
*END

*D_NET *661 0.135402
*CONN
*I *988:adc_test[0] I *D soc_sys
*I *984:test[0] I *D CF_ADC_DSM20
*CAP
1 *988:adc_test[0] 1.22931e-05
2 *984:test[0] 0.00525416
3 *661:22 0.0386081
4 *661:20 0.0385958
5 *661:18 0.0168104
6 *661:16 0.0220645
7 *988:adc_test[0] *700:12 5.27153e-05
8 *988:adc_test[0] *755:22 4.98422e-05
9 *661:16 *984:TESTMODE 0.000916145
10 *661:16 *662:16 0.00147223
11 *661:16 *666:16 0.0112053
12 *661:16 *828:31 0.000228766
13 *661:16 *866:41 0.000125821
14 *661:18 *662:20 0
15 *661:18 *668:20 0
16 *661:22 *988:adc_test[1] 5.92917e-06
17 *661:22 *662:22 0
*RES
1 *984:test[0] *661:16 40.8153 
2 *661:16 *661:18 49.1965 
3 *661:18 *661:20 3.41 
4 *661:20 *661:22 117.447 
5 *661:22 *988:adc_test[0] 6.90303 
*END

*D_NET *662 0.134942
*CONN
*I *988:adc_test[1] I *D soc_sys
*I *984:test[1] I *D CF_ADC_DSM20
*CAP
1 *988:adc_test[1] 0.00025533
2 *984:test[1] 0.00865296
3 *662:22 0.0307584
4 *662:20 0.0462617
5 *662:16 0.0244115
6 *988:adc_test[1] *663:22 4.28187e-06
7 *988:adc_test[1] *700:12 0.000144221
8 *988:adc_test[1] *755:22 0.000140922
9 *662:16 *984:TESTMODE 0.00117769
10 *662:16 *663:12 0.00376973
11 *662:16 *663:16 0
12 *662:16 *866:41 2.55367e-05
13 *662:22 *663:22 0.0178615
14 *652:17 *662:20 0
15 *661:16 *662:16 0.00147223
16 *661:18 *662:20 0
17 *661:22 *988:adc_test[1] 5.92917e-06
18 *661:22 *662:22 0
*RES
1 *984:test[1] *662:16 45.6657 
2 *662:16 *662:20 48.2825 
3 *662:20 *662:22 116.212 
4 *662:22 *988:adc_test[1] 7.4545 
*END

*D_NET *663 0.151054
*CONN
*I *988:adc_test[2] I *D soc_sys
*I *984:test[2] I *D CF_ADC_DSM20
*CAP
1 *988:adc_test[2] 6.91604e-05
2 *984:test[2] 0.00140366
3 *663:22 0.0297234
4 *663:20 0.0426469
5 *663:16 0.0212504
6 *663:12 0.00966141
7 *988:adc_test[2] *700:12 0.000274435
8 *988:adc_test[2] *755:22 0.000271136
9 *663:12 *984:TESTMODE 0.00017902
10 *663:12 *666:16 0.000881277
11 *663:12 *667:12 2.56434e-05
12 *663:12 *866:41 1.60027e-05
13 *663:16 *796:13 0.0177713
14 *988:adc_test[1] *663:22 4.28187e-06
15 *14:37 *663:20 0.00524503
16 *654:17 *663:20 0
17 *662:16 *663:12 0.00376973
18 *662:16 *663:16 0
19 *662:22 *663:22 0.0178615
*RES
1 *984:test[2] *663:12 18.5395 
2 *663:12 *663:16 41.1698 
3 *663:16 *663:20 46.9853 
4 *663:20 *663:22 103.384 
5 *663:22 *988:adc_test[2] 7.26337 
*END

*D_NET *664 0.161276
*CONN
*I *988:adc_test[3] I *D soc_sys
*I *984:test[3] I *D CF_ADC_DSM20
*CAP
1 *988:adc_test[3] 1.94258e-05
2 *984:test[3] 0.00582907
3 *664:22 0.0265051
4 *664:20 0.0264857
5 *664:18 0.0134874
6 *664:16 0.0193164
7 *988:adc_test[3] *700:12 9.84683e-05
8 *988:adc_test[3] *755:22 9.5164e-05
9 *664:16 *665:16 0.0130373
10 *664:18 *666:20 0
11 *664:22 *665:22 0
12 *664:22 *666:22 0
13 *540:45 *664:18 0.0111161
14 *646:22 *664:22 0.0452858
*RES
1 *984:test[3] *664:16 42.219 
2 *664:16 *664:18 48.7641 
3 *664:18 *664:20 3.41 
4 *664:20 *664:22 112.014 
5 *664:22 *988:adc_test[3] 6.9751 
*END

*D_NET *665 0.137025
*CONN
*I *988:adc_test[4] I *D soc_sys
*I *984:test[4] I *D CF_ADC_DSM20
*CAP
1 *988:adc_test[4] 1.22931e-05
2 *984:test[4] 0.00578998
3 *665:22 0.0347395
4 *665:20 0.0347272
5 *665:18 0.0163311
6 *665:16 0.022121
7 *988:adc_test[4] *700:12 5.27153e-05
8 *988:adc_test[4] *755:22 4.98422e-05
9 *665:16 *668:16 0.010164
10 *665:22 *666:22 0
11 *654:17 *665:18 0
12 *664:16 *665:16 0.0130373
13 *664:22 *665:22 0
*RES
1 *984:test[4] *665:16 49.0434 
2 *665:16 *665:18 47.8993 
3 *665:18 *665:20 3.41 
4 *665:20 *665:22 105.515 
5 *665:22 *988:adc_test[4] 6.90303 
*END

*D_NET *666 0.142839
*CONN
*I *988:adc_test[5] I *D soc_sys
*I *984:test[5] I *D CF_ADC_DSM20
*CAP
1 *988:adc_test[5] 1.22931e-05
2 *984:test[5] 0.0043821
3 *666:22 0.0373329
4 *666:20 0.0527938
5 *666:16 0.0198553
6 *988:adc_test[5] *700:12 5.27153e-05
7 *988:adc_test[5] *755:22 4.98422e-05
8 *666:16 *667:12 0.00179926
9 *666:16 *667:14 0.0144522
10 *666:16 *866:41 2.15903e-05
11 *540:45 *666:20 0
12 *661:16 *666:16 0.0112053
13 *663:12 *666:16 0.000881277
14 *664:18 *666:20 0
15 *664:22 *666:22 0
16 *665:22 *666:22 0
*RES
1 *984:test[5] *666:16 48.2601 
2 *666:16 *666:20 48.5707 
3 *666:20 *666:22 110.948 
4 *666:22 *988:adc_test[5] 6.90303 
*END

*D_NET *667 0.145972
*CONN
*I *988:adc_test[6] I *D soc_sys
*I *984:test[6] I *D CF_ADC_DSM20
*CAP
1 *988:adc_test[6] 0.00303493
2 *984:test[6] 0.0006997
3 *667:20 0.00303493
4 *667:18 0.0135347
5 *667:14 0.0482569
6 *667:12 0.0354219
7 *667:14 *984:BUF_CHOP_EN 0.00231358
8 *667:14 *792:13 0.0158875
9 *667:18 *669:20 0
10 *667:18 *800:9 0
11 *667:18 *819:9 0.00751069
12 *646:16 *667:14 0
13 *663:12 *667:12 2.56434e-05
14 *666:16 *667:12 0.00179926
15 *666:16 *667:14 0.0144522
*RES
1 *984:test[6] *667:12 14.6604 
2 *667:12 *667:14 130.976 
3 *667:14 *667:18 47.5978 
4 *667:18 *667:20 3.41 
5 *667:20 *988:adc_test[6] 58.3482 
*END

*D_NET *668 0.139845
*CONN
*I *988:adc_test[7] I *D soc_sys
*I *984:test[7] I *D CF_ADC_DSM20
*CAP
1 *988:adc_test[7] 3.07486e-05
2 *984:test[7] 0.00459997
3 *668:22 0.036734
4 *668:20 0.0526008
5 *668:16 0.0204975
6 *988:adc_test[7] *671:10 1.48433e-05
7 *988:adc_test[7] *755:22 9.5164e-05
8 *668:20 *788:16 0
9 *668:22 *700:14 0.00853141
10 *668:22 *700:22 0.00657624
11 *648:14 *668:22 0
12 *661:18 *668:20 0
13 *665:16 *668:16 0.010164
*RES
1 *984:test[7] *668:16 36.5226 
2 *668:16 *668:20 48.7149 
3 *668:20 *668:22 118.512 
4 *668:22 *988:adc_test[7] 6.9751 
*END

*D_NET *669 0.15073
*CONN
*I *988:adc_test_dig I *D soc_sys
*I *984:test_dig_out O *D CF_ADC_DSM20
*CAP
1 *988:adc_test_dig 0.00264391
2 *984:test_dig_out 0.00834048
3 *669:20 0.00831643
4 *669:14 0.024972
5 *669:12 0.0276399
6 *669:12 *984:MODINPUT 0.00107514
7 *669:14 *704:29 0.00289977
8 *669:14 *814:13 0.037557
9 *669:14 *815:13 0
10 *669:20 *818:9 0.0156151
11 *984:vpwr_cp *669:12 0
12 *646:16 *669:12 8.41262e-06
13 *646:18 *669:12 0.017377
14 *659:20 *669:12 0.00428455
15 *667:18 *669:20 0
*RES
1 *984:test_dig_out *669:12 43.4933 
2 *669:12 *669:14 89.9611 
3 *669:14 *669:20 31.4057 
4 *669:20 *988:adc_test_dig 52.2768 
*END

*D_NET *670 0.147167
*CONN
*I *987:ref_1v2 I *D CF_REFBUF
*I *984:VREF I *D CF_ADC_DSM20
*I *984:VREFQ I *D CF_ADC_DSM20
*I *985:Vout O *D CF_BGR
*CAP
1 *987:ref_1v2 0.00870307
2 *984:VREF 4.80354e-05
3 *984:VREFQ 0.000934418
4 *985:Vout 0.00545879
5 *670:65 0.0100945
6 *670:32 0.010538
7 *670:30 0.0105597
8 *670:26 0.00235434
9 *670:22 0.0189876
10 *670:20 0.0208796
11 *670:16 0.00740552
12 *984:VREFQ *737:9 0.00239115
13 *670:22 *868:19 0.00159816
14 *670:65 *868:19 0.000934888
15 *984:PBUF_INN *984:VREFQ 9.32494e-05
16 *19:19 *984:VREFQ 0
17 *655:8 *670:16 4.14954e-05
18 *655:10 *670:16 0.0161369
19 *655:14 *670:26 7.33603e-05
20 *655:14 *670:30 0.00133478
21 *655:14 *670:32 0
22 *656:17 *670:16 0
23 *656:19 *670:22 0
24 *656:25 *670:26 0.000215106
25 *656:25 *670:30 0.00177703
26 *656:27 *670:30 0.000940805
27 *656:27 *670:32 0.0256666
*RES
1 *985:Vout *670:16 33.2653 
2 *670:16 *670:20 42.9993 
3 *670:20 *670:22 57.1959 
4 *670:22 *670:26 6.11536 
5 *670:26 *670:30 44.0268 
6 *670:30 *670:32 314.821 
7 *670:32 *984:VREFQ 18.0424 
8 *984:VREFQ *984:VREF 0.919643 
9 *670:26 *670:65 39.5082 
10 *670:65 *987:ref_1v2 31.3774 
*END

*D_NET *671 0.277804
*CONN
*I *986:pd I *D CF_BUF_HIZ
*I *988:analog_ctrl[0] O *D soc_sys
*CAP
1 *986:pd 0.00085982
2 *988:analog_ctrl[0] 0.00256209
3 *671:14 0.0160423
4 *671:12 0.0151825
5 *671:10 0.0995567
6 *671:8 0.102119
7 *671:10 *697:8 0
8 *671:10 *700:6 0.00493595
9 *671:10 *700:12 0.00200754
10 *671:10 *755:20 0.00175402
11 *671:10 *755:22 0
12 *671:10 *773:8 1.21346e-05
13 *671:10 *774:8 2.26665e-05
14 *671:10 *775:8 6.81741e-05
15 *671:10 *777:8 1.21346e-05
16 *671:10 *778:8 1.21346e-05
17 *671:10 *779:8 3.31983e-05
18 *671:10 *780:8 2.26665e-05
19 *671:10 *783:8 1.21346e-05
20 *671:10 *784:8 2.26665e-05
21 *671:10 *785:8 1.21346e-05
22 *671:10 *787:8 1.21346e-05
23 *671:10 *788:8 2.26665e-05
24 *671:10 *789:8 2.26665e-05
25 *671:10 *853:29 0.0172915
26 *671:10 *854:16 0.0135962
27 *671:10 *856:8 0
28 *671:10 *862:20 0.000852297
29 *671:10 *863:20 0.000741465
30 *988:adc_test[7] *671:10 1.48433e-05
31 *48:37 *671:10 0
32 *111:13 *671:8 0
*RES
1 *988:analog_ctrl[0] *671:8 10.5242 
2 *671:8 *671:10 311.591 
3 *671:10 *671:12 3.41 
4 *671:12 *671:14 47.7739 
5 *671:14 *986:pd 10.2549 
*END

*D_NET *672 0.086548
*CONN
*I *984:itrim_2_3[1] I *D CF_ADC_DSM20
*I *988:analog_ctrl[100] O *D soc_sys
*CAP
1 *984:itrim_2_3[1] 0.00214247
2 *988:analog_ctrl[100] 0.00452832
3 *672:13 0.0149298
4 *672:11 0.0181468
5 *672:5 0.00988781
6 *984:itrim_2_3[1] *699:13 0.000234295
7 *672:11 *813:9 0
8 *672:11 *815:9 0.0145886
9 *672:13 *678:21 0.00531697
10 *672:13 *702:10 0
11 *672:13 *703:10 0.016773
*RES
1 *988:analog_ctrl[100] *672:5 89.3125 
2 *672:5 *672:11 29.8202 
3 *672:11 *672:13 56.2966 
4 *672:13 *984:itrim_2_3[1] 16.1429 
*END

*D_NET *673 0.0867012
*CONN
*I *984:itrim_2_3[2] I *D CF_ADC_DSM20
*I *988:analog_ctrl[101] O *D soc_sys
*CAP
1 *984:itrim_2_3[2] 0.00255739
2 *988:analog_ctrl[101] 0.00817538
3 *673:15 0.0113876
4 *673:11 0.0154115
5 *673:5 0.0147567
6 *984:itrim_2_3[2] *984:itrim_sum[4] 1.33082e-05
7 *984:itrim_2_3[2] *984:itrim_2_3[5] 0.0011919
8 *984:itrim_2_3[2] *675:21 0.00137699
9 *673:11 *781:9 0.0165497
10 *673:11 *801:9 0
11 *673:15 *709:10 0.0112303
12 *673:15 *710:10 0.00405046
13 *673:15 *711:10 0
*RES
1 *988:analog_ctrl[101] *673:5 157.312 
2 *673:5 *673:11 33.3515 
3 *673:11 *673:15 47.7749 
4 *673:15 *984:itrim_2_3[2] 18.5858 
*END

*D_NET *674 0.10236
*CONN
*I *984:itrim_2_3[3] I *D CF_ADC_DSM20
*I *988:analog_ctrl[102] O *D soc_sys
*CAP
1 *984:itrim_2_3[3] 0.00853291
2 *988:analog_ctrl[102] 0.0095295
3 *674:11 0.0187022
4 *674:5 0.0196988
5 *984:itrim_2_3[3] *733:10 0.0186409
6 *984:itrim_2_3[3] *734:10 0
7 *674:11 *792:9 0.0272552
8 *674:11 *876:11 0
*RES
1 *988:analog_ctrl[102] *674:5 188.277 
2 *674:5 *674:11 49.8548 
3 *674:11 *984:itrim_2_3[3] 46.1543 
*END

*D_NET *675 0.100987
*CONN
*I *984:itrim_2_3[4] I *D CF_ADC_DSM20
*I *988:analog_ctrl[103] O *D soc_sys
*CAP
1 *984:itrim_2_3[4] 0
2 *988:analog_ctrl[103] 0.00599675
3 *675:21 0.00657257
4 *675:11 0.0137508
5 *675:5 0.013175
6 *675:5 *868:13 0.0114837
7 *675:11 *790:9 0.019373
8 *675:11 *796:9 0
9 *675:21 *984:itrim_2_3[5] 0.00181918
10 *675:21 *680:13 0.020087
11 *675:21 *718:10 0.00735174
12 *984:itrim_2_3[2] *675:21 0.00137699
*RES
1 *988:analog_ctrl[103] *675:5 169.455 
2 *675:5 *675:11 37.3872 
3 *675:11 *675:21 48.9491 
4 *675:21 *984:itrim_2_3[4] 3.41 
*END

*D_NET *676 0.0949577
*CONN
*I *984:itrim_2_3[5] I *D CF_ADC_DSM20
*I *988:analog_ctrl[104] O *D soc_sys
*CAP
1 *984:itrim_2_3[5] 0.00140872
2 *988:analog_ctrl[104] 0.00621784
3 *676:13 0.0113771
4 *676:11 0.0161243
5 *676:5 0.0123737
6 *984:itrim_2_3[5] *984:itrim_sum[4] 0.00077078
7 *676:5 *868:13 0
8 *676:11 *759:9 0
9 *676:11 *810:9 0.0167876
10 *676:13 *712:10 0.0241208
11 *676:13 *713:10 0.00276571
12 *984:itrim_2_3[2] *984:itrim_2_3[5] 0.0011919
13 *675:21 *984:itrim_2_3[5] 0.00181918
*RES
1 *988:analog_ctrl[104] *676:5 120.884 
2 *676:5 *676:11 33.2794 
3 *676:11 *676:13 50.9699 
4 *676:13 *984:itrim_2_3[5] 14.0063 
*END

*D_NET *677 0.103917
*CONN
*I *984:itrim_sum[0] I *D CF_ADC_DSM20
*I *988:analog_ctrl[105] O *D soc_sys
*CAP
1 *984:itrim_sum[0] 0.0022521
2 *988:analog_ctrl[105] 0.00617146
3 *677:13 0.0174552
4 *677:11 0.0152031
5 *677:9 0.00617146
6 *984:itrim_sum[0] *984:itrim_sum[3] 0.000887156
7 *984:itrim_sum[0] *678:21 0.00730851
8 *984:itrim_sum[0] *708:16 0.000330621
9 *984:itrim_sum[0] *709:16 0.000565124
10 *984:itrim_sum[0] *719:16 9.31015e-05
11 *984:itrim_sum[0] *721:16 0.000206547
12 *984:itrim_sum[0] *722:16 9.61175e-05
13 *984:itrim_sum[0] *723:16 0.000316689
14 *984:itrim_sum[0] *723:18 4.6025e-06
15 *677:9 *817:9 0
16 *677:9 *820:9 0.0141366
17 *677:13 *707:10 0
18 *677:13 *708:10 0.0327185
*RES
1 *988:analog_ctrl[105] *677:9 48.1443 
2 *677:9 *677:11 3.41 
3 *677:11 *677:13 69.0806 
4 *677:13 *984:itrim_sum[0] 19.6923 
*END

*D_NET *678 0.0846357
*CONN
*I *984:itrim_sum[1] I *D CF_ADC_DSM20
*I *988:analog_ctrl[106] O *D soc_sys
*CAP
1 *984:itrim_sum[1] 0
2 *988:analog_ctrl[106] 0.0126457
3 *678:21 0.00822276
4 *678:11 0.0125163
5 *678:5 0.0169393
6 *678:11 *715:9 0
7 *678:11 *825:9 0.0117648
8 *678:21 *984:itrim_sum[3] 2.46867e-05
9 *678:21 *984:itrim_sum[4] 0.00441635
10 *678:21 *702:10 0
11 *678:21 *703:10 0.00355073
12 *678:21 *705:10 0.00162865
13 *678:21 *705:16 0.000170575
14 *678:21 *706:16 2.48858e-05
15 *678:21 *707:16 0.000105588
16 *984:itrim_sum[0] *678:21 0.00730851
17 *672:13 *678:21 0.00531697
*RES
1 *988:analog_ctrl[106] *678:5 249.598 
2 *678:5 *678:11 25.3521 
3 *678:11 *678:21 47.0957 
4 *678:21 *984:itrim_sum[1] 3.41 
*END

*D_NET *679 0.0917543
*CONN
*I *984:itrim_sum[2] I *D CF_ADC_DSM20
*I *988:analog_ctrl[107] O *D soc_sys
*CAP
1 *984:itrim_sum[2] 0.00642842
2 *988:analog_ctrl[107] 0.0123405
3 *679:11 0.0150148
4 *679:5 0.0209269
5 *984:itrim_sum[2] *729:10 0.0143385
6 *984:itrim_sum[2] *730:10 0
7 *679:11 *798:9 0.0227051
8 *679:11 *825:9 0
*RES
1 *988:analog_ctrl[107] *679:5 243.527 
2 *679:5 *679:11 42.7202 
3 *679:11 *984:itrim_sum[2] 36.9924 
*END

*D_NET *680 0.100409
*CONN
*I *984:itrim_sum[3] I *D CF_ADC_DSM20
*I *988:analog_ctrl[108] O *D soc_sys
*CAP
1 *984:itrim_sum[3] 0.00160628
2 *988:analog_ctrl[108] 0.00594043
3 *680:13 0.0108557
4 *680:11 0.0154174
5 *680:5 0.0121084
6 *984:itrim_sum[3] *984:itrim_sum[4] 6.22936e-06
7 *984:itrim_sum[3] *718:16 0.000612025
8 *984:itrim_sum[3] *719:16 4.30781e-05
9 *984:itrim_sum[3] *721:16 0.000421541
10 *984:itrim_sum[3] *722:16 2.23401e-05
11 *984:itrim_sum[3] *723:16 0.000162333
12 *680:11 *814:9 0.0167842
13 *680:11 *866:9 0
14 *680:13 *717:10 0.0148496
15 *680:13 *718:10 0.000580295
16 *984:itrim_sum[0] *984:itrim_sum[3] 0.000887156
17 *675:21 *680:13 0.020087
18 *678:21 *984:itrim_sum[3] 2.46867e-05
*RES
1 *988:analog_ctrl[108] *680:5 114.205 
2 *680:5 *680:11 33.2794 
3 *680:11 *680:13 53.3137 
4 *680:13 *984:itrim_sum[3] 12.6551 
*END

*D_NET *681 0.0832964
*CONN
*I *984:itrim_sum[4] I *D CF_ADC_DSM20
*I *988:analog_ctrl[109] O *D soc_sys
*CAP
1 *984:itrim_sum[4] 0.00295852
2 *988:analog_ctrl[109] 0.00204128
3 *681:13 0.017073
4 *681:11 0.0182188
5 *681:7 0.0061456
6 *681:11 *805:9 0
7 *681:11 *812:9 0.0114662
8 *681:13 *706:10 0.00359016
9 *681:13 *707:10 0.016596
10 *984:itrim_sum[3] *984:itrim_sum[4] 6.22936e-06
11 *984:itrim_2_3[2] *984:itrim_sum[4] 1.33082e-05
12 *984:itrim_2_3[5] *984:itrim_sum[4] 0.00077078
13 *678:21 *984:itrim_sum[4] 0.00441635
*RES
1 *988:analog_ctrl[109] *681:7 43.5439 
2 *681:7 *681:11 21.4376 
3 *681:11 *681:13 65.6715 
4 *681:13 *984:itrim_sum[4] 19.5178 
*END

*D_NET *682 0.123349
*CONN
*I *984:sleep I *D CF_ADC_DSM20
*I *988:analog_ctrl[10] O *D soc_sys
*CAP
1 *984:sleep 0.00438859
2 *988:analog_ctrl[10] 0.0107248
3 *682:9 0.0289755
4 *682:7 0.0245869
5 *682:5 0.0107248
6 *984:sleep *688:13 0.00258323
7 *984:sleep *697:10 0
8 *984:sleep *698:5 0.000411322
9 *682:9 *823:9 0.0374905
10 *682:9 *824:9 0
11 *47:23 *682:5 0
12 *85:14 *682:5 0.00346387
*RES
1 *988:analog_ctrl[10] *682:5 218.634 
2 *682:5 *682:7 3.41 
3 *682:7 *682:9 90.5988 
4 *682:9 *984:sleep 25.563 
*END

*D_NET *683 0.085656
*CONN
*I *984:itrim_sum[5] I *D CF_ADC_DSM20
*I *988:analog_ctrl[110] O *D soc_sys
*CAP
1 *984:itrim_sum[5] 0.00497409
2 *988:analog_ctrl[110] 0.0117404
3 *683:11 0.0132432
4 *683:5 0.0200096
5 *984:itrim_sum[5] *730:10 0.00819971
6 *984:itrim_sum[5] *731:10 0.00565315
7 *683:11 *802:9 0.0218359
8 *20:11 *683:11 0
*RES
1 *988:analog_ctrl[110] *683:5 231.384 
2 *683:5 *683:11 41.3509 
3 *683:11 *984:itrim_sum[5] 38.892 
*END

*D_NET *684 0.0932264
*CONN
*I *984:itrim_1[0] I *D CF_ADC_DSM20
*I *988:analog_ctrl[111] O *D soc_sys
*CAP
1 *984:itrim_1[0] 3.93512e-05
2 *988:analog_ctrl[111] 0.00673074
3 *684:13 0.00811002
4 *684:11 0.0172977
5 *684:5 0.0159578
6 *684:11 *770:9 0
7 *684:11 *809:9 0.0244411
8 *684:13 *736:10 0.00839613
9 *684:13 *738:10 0.0122536
*RES
1 *988:analog_ctrl[111] *684:5 132.42 
2 *684:5 *684:11 45.4587 
3 *684:11 *684:13 48.6011 
4 *684:13 *984:itrim_1[0] 6.90303 
*END

*D_NET *685 0.0726942
*CONN
*I *984:itrim_1[1] I *D CF_ADC_DSM20
*I *988:analog_ctrl[112] O *D soc_sys
*CAP
1 *984:itrim_1[1] 0.0077365
2 *988:analog_ctrl[112] 0.00757503
3 *685:11 0.0101281
4 *685:5 0.00996659
5 *984:itrim_1[1] *984:itrim_1[2] 0.0119675
6 *984:itrim_1[1] *688:13 0.0185509
7 *984:itrim_1[1] *699:5 0.000220995
8 *685:11 *795:9 0
9 *685:11 *807:9 0.00654863
*RES
1 *988:analog_ctrl[112] *685:5 145.17 
2 *685:5 *685:11 17.1365 
3 *685:11 *984:itrim_1[1] 46.1864 
*END

*D_NET *686 0.0572833
*CONN
*I *984:itrim_1[2] I *D CF_ADC_DSM20
*I *988:analog_ctrl[113] O *D soc_sys
*CAP
1 *984:itrim_1[2] 0.00688866
2 *988:analog_ctrl[113] 0.0114567
3 *686:5 0.0183454
4 *984:itrim_1[2] *984:itrim_1[5] 0.00259721
5 *984:itrim_1[2] *688:13 1.58115e-05
6 *984:itrim_1[2] *802:9 0
7 *984:itrim_1[2] *824:9 0.00601212
8 *984:itrim_1[1] *984:itrim_1[2] 0.0119675
*RES
1 *988:analog_ctrl[113] *686:5 225.312 
2 *686:5 *984:itrim_1[2] 48.6863 
*END

*D_NET *687 0.0424163
*CONN
*I *984:itrim_1[3] I *D CF_ADC_DSM20
*I *988:analog_ctrl[114] O *D soc_sys
*CAP
1 *984:itrim_1[3] 0.00261532
2 *988:analog_ctrl[114] 0.0185928
3 *687:5 0.0212082
*RES
1 *988:analog_ctrl[114] *687:5 369.812 
2 *687:5 *984:itrim_1[3] 14.0447 
*END

*D_NET *688 0.0666506
*CONN
*I *984:itrim_1[4] I *D CF_ADC_DSM20
*I *988:analog_ctrl[115] O *D soc_sys
*CAP
1 *984:itrim_1[4] 3.93512e-05
2 *988:analog_ctrl[115] 0.00281384
3 *688:13 0.0164635
4 *688:11 0.019238
5 *688:11 *799:9 0
6 *688:13 *697:10 0
7 *688:13 *699:5 0.00210232
8 *984:sleep *688:13 0.00258323
9 *984:itrim_1[1] *688:13 0.0185509
10 *984:itrim_1[2] *688:13 1.58115e-05
11 *18:19 *688:13 0
12 *66:13 *688:11 0.00484372
*RES
1 *988:analog_ctrl[115] *688:11 30.4624 
2 *688:11 *688:13 62.2092 
3 *688:13 *984:itrim_1[4] 6.90303 
*END

*D_NET *689 0.0442289
*CONN
*I *984:itrim_1[5] I *D CF_ADC_DSM20
*I *988:analog_ctrl[116] O *D soc_sys
*CAP
1 *984:itrim_1[5] 0.0060141
2 *988:analog_ctrl[116] 0.0133177
3 *689:5 0.0193318
4 *984:itrim_1[5] *984:itrim_1[7] 0.000222486
5 *984:itrim_1[5] *704:9 0.00274564
6 *984:itrim_1[2] *984:itrim_1[5] 0.00259721
*RES
1 *988:analog_ctrl[116] *689:5 261.134 
2 *689:5 *984:itrim_1[5] 36.4945 
*END

*D_NET *690 0.0422058
*CONN
*I *984:itrim_1[6] I *D CF_ADC_DSM20
*I *988:analog_ctrl[117] O *D soc_sys
*CAP
1 *984:itrim_1[6] 0.00280025
2 *988:analog_ctrl[117] 0.0172284
3 *690:5 0.0200286
4 *984:itrim_1[6] *984:itrim_1[8] 0
5 *984:itrim_1[6] *984:itrim_1[7] 0.000295599
6 *43:13 *690:5 0.00185288
*RES
1 *988:analog_ctrl[117] *690:5 341.277 
2 *690:5 *984:itrim_1[6] 24.515 
*END

*D_NET *691 0.0400929
*CONN
*I *984:itrim_1[7] I *D CF_ADC_DSM20
*I *988:analog_ctrl[118] O *D soc_sys
*CAP
1 *984:itrim_1[7] 0.00285175
2 *988:analog_ctrl[118] 0.0169356
3 *691:5 0.0197874
4 *984:itrim_1[6] *984:itrim_1[7] 0.000295599
5 *984:itrim_1[5] *984:itrim_1[7] 0.000222486
*RES
1 *988:analog_ctrl[118] *691:5 335.205 
2 *691:5 *984:itrim_1[7] 29.5775 
*END

*D_NET *692 0.0430954
*CONN
*I *984:itrim_1[8] I *D CF_ADC_DSM20
*I *988:analog_ctrl[119] O *D soc_sys
*CAP
1 *984:itrim_1[8] 0.00109692
2 *988:analog_ctrl[119] 0.000656848
3 *692:13 0.0130576
4 *692:11 0.0126176
5 *692:13 *694:5 0
6 *692:13 *695:5 0.015169
7 *984:itrim_1[6] *984:itrim_1[8] 0
8 *71:13 *692:11 0.000166282
9 *113:13 *692:11 0.000331104
*RES
1 *988:analog_ctrl[119] *692:11 13.8351 
2 *692:11 *692:13 340.732 
3 *692:13 *984:itrim_1[8] 10.1476 
*END

*D_NET *693 0.323374
*CONN
*I *984:enable_hv I *D CF_ADC_DSM20
*I *988:analog_ctrl[11] O *D soc_sys
*CAP
1 *984:enable_hv 0.000169594
2 *988:analog_ctrl[11] 0.00259789
3 *693:17 0.0247492
4 *693:15 0.0245796
5 *693:13 0.0257572
6 *693:11 0.0257572
7 *693:9 0.0407551
8 *693:7 0.0407551
9 *693:5 0.00259789
10 *984:enable_hv *704:37 0
11 *693:9 *791:9 0
12 *693:9 *818:9 0.0836613
13 *693:17 *704:37 0
14 *18:30 *693:17 0
15 *91:22 *693:5 0.00173065
16 *652:21 *693:13 0.0502635
17 *653:21 *693:13 0
*RES
1 *988:analog_ctrl[11] *693:5 52.2768 
2 *693:5 *693:7 3.41 
3 *693:7 *693:9 159.567 
4 *693:9 *693:11 3.41 
5 *693:11 *693:13 114.251 
6 *693:13 *693:15 3.41 
7 *693:15 *693:17 73.2667 
8 *693:17 *984:enable_hv 3.92935 
*END

*D_NET *694 0.041761
*CONN
*I *984:itrim_1[9] I *D CF_ADC_DSM20
*I *988:analog_ctrl[120] O *D soc_sys
*CAP
1 *984:itrim_1[9] 0.00182299
2 *988:analog_ctrl[120] 0.0190575
3 *694:5 0.0208805
4 *692:13 *694:5 0
*RES
1 *988:analog_ctrl[120] *694:5 378.312 
2 *694:5 *984:itrim_1[9] 18.4691 
*END

*D_NET *695 0.20965
*CONN
*I *984:refsel[0] I *D CF_ADC_DSM20
*I *988:analog_ctrl[121] O *D soc_sys
*CAP
1 *984:refsel[0] 0.000251308
2 *988:analog_ctrl[121] 0.0275747
3 *695:9 0.0222784
4 *695:7 0.0220271
5 *695:5 0.0275747
6 *984:refsel[0] *984:refsel[1] 0
7 *695:5 *696:20 0.00207894
8 *695:5 *698:13 0.0150384
9 *695:5 *698:19 0.00375697
10 *695:5 *698:21 7.61671e-05
11 *695:9 *696:22 7.21957e-05
12 *695:9 *698:25 0.0736555
13 *695:9 *699:25 8.64392e-05
14 *984:VCM *695:5 1.01912e-05
15 *656:27 *695:5 0
16 *692:13 *695:5 0.015169
*RES
1 *988:analog_ctrl[121] *695:5 827.598 
2 *695:5 *695:7 3.41 
3 *695:7 *695:9 114.489 
4 *695:9 *984:refsel[0] 12.4993 
*END

*D_NET *696 0.263567
*CONN
*I *984:refsel[1] I *D CF_ADC_DSM20
*I *988:analog_ctrl[122] O *D soc_sys
*CAP
1 *984:refsel[1] 0.000166465
2 *988:analog_ctrl[122] 2.99707e-05
3 *696:22 0.00869565
4 *696:20 0.00922175
5 *696:16 0.000892101
6 *696:10 0.0456016
7 *696:8 0.0454321
8 *984:refsel[1] *984:refsel[3] 0.00013229
9 *696:10 *697:10 0
10 *696:20 *698:21 0.00371404
11 *696:22 *698:25 0.0736555
12 *696:22 *699:25 0.0736989
13 *984:refsel[0] *984:refsel[1] 0
14 *13:62 *696:16 0.000168607
15 *111:13 *696:8 6.63171e-06
16 *695:5 *696:20 0.00207894
17 *695:9 *696:22 7.21957e-05
*RES
1 *988:analog_ctrl[122] *696:8 6.90303 
2 *696:8 *696:10 137.155 
3 *696:10 *696:16 7.55163 
4 *696:16 *696:20 49.0707 
5 *696:20 *696:22 113.984 
6 *696:22 *984:refsel[1] 11.5618 
*END

*D_NET *697 0.238395
*CONN
*I *984:refsel[2] I *D CF_ADC_DSM20
*I *988:analog_ctrl[123] O *D soc_sys
*CAP
1 *984:refsel[2] 0.000730326
2 *988:analog_ctrl[123] 0.000123251
3 *697:26 0.00302002
4 *697:24 0.00231348
5 *697:22 0.0176228
6 *697:20 0.0182271
7 *697:10 0.0435156
8 *697:8 0.0430108
9 *984:refsel[2] *984:refsel[15] 2.39852e-05
10 *984:refsel[2] *714:14 0.000255582
11 *984:refsel[2] *733:14 0.00014968
12 *984:refsel[2] *737:27 0.000146371
13 *984:refsel[2] *737:29 0.00141737
14 *984:refsel[2] *827:33 2.32249e-05
15 *697:20 *737:9 2.72228e-05
16 *697:20 *827:9 0.000705826
17 *697:22 *714:14 0.0117081
18 *697:22 *737:17 0.0579361
19 *697:26 *733:14 0.00126422
20 *697:26 *737:17 0.00366721
21 *984:PBUF_INP *697:20 0
22 *984:sleep *697:10 0
23 *18:19 *697:10 0.0324832
24 *111:13 *697:8 2.38992e-05
25 *671:10 *697:8 0
26 *688:13 *697:10 0
27 *696:10 *697:10 0
*RES
1 *988:analog_ctrl[123] *697:8 7.11923 
2 *697:8 *697:10 134.386 
3 *697:10 *697:20 15.5344 
4 *697:20 *697:22 548.634 
5 *697:22 *697:24 0.428571 
6 *697:24 *697:26 63.9911 
7 *697:26 *984:refsel[2] 28.4286 
*END

*D_NET *698 0.279896
*CONN
*I *984:refsel[3] I *D CF_ADC_DSM20
*I *988:analog_ctrl[124] O *D soc_sys
*CAP
1 *984:refsel[3] 0.000205652
2 *988:analog_ctrl[124] 0.0131897
3 *698:25 0.00867465
4 *698:23 0.008469
5 *698:21 0.000651494
6 *698:19 0.00143568
7 *698:13 0.00887692
8 *698:11 0.00875438
9 *698:5 0.0138513
10 *698:11 *808:9 0.000589369
11 *698:13 *699:13 0.0382553
12 *698:19 *699:13 0.000694443
13 *698:19 *699:19 0.00195875
14 *698:19 *699:21 1.5942e-05
15 *698:21 *699:21 0.00381432
16 *984:refsel[1] *984:refsel[3] 0.00013229
17 *984:VCM *698:13 1.94945e-05
18 *984:sleep *698:5 0.000411322
19 *695:5 *698:13 0.0150384
20 *695:5 *698:19 0.00375697
21 *695:5 *698:21 7.61671e-05
22 *695:9 *698:25 0.0736555
23 *696:20 *698:21 0.00371404
24 *696:22 *698:25 0.0736555
*RES
1 *988:analog_ctrl[124] *698:5 258.857 
2 *698:5 *698:11 21.4464 
3 *698:11 *698:13 474.205 
4 *698:13 *698:19 48.1071 
5 *698:19 *698:21 48.0893 
6 *698:21 *698:23 3.41 
7 *698:23 *698:25 113.768 
8 *698:25 *984:refsel[3] 12.2225 
*END

*D_NET *699 0.236386
*CONN
*I *984:refsel[4] I *D CF_ADC_DSM20
*I *988:analog_ctrl[125] O *D soc_sys
*CAP
1 *984:refsel[4] 0.00207411
2 *988:analog_ctrl[125] 0.0134346
3 *699:25 0.0248955
4 *699:23 0.0228214
5 *699:21 0.00146395
6 *699:19 0.00229218
7 *699:13 0.0159364
8 *699:11 0.0159846
9 *699:5 0.014311
10 *984:refsel[4] *984:FCAP2[3] 0.000581416
11 *984:refsel[4] *984:FCAP2[0] 7.06786e-05
12 *984:refsel[4] *984:DACCAPEN 0.000800394
13 *984:refsel[4] *984:IPCAP1[5] 0.000123922
14 *984:refsel[4] *984:FCAP1[3] 0.000292213
15 *984:refsel[4] *984:IPCAP1OFFSET 9.31834e-05
16 *984:refsel[4] *734:22 8.38123e-05
17 *699:19 *984:buf_sel 4.45966e-05
18 *984:itrim_1[1] *699:5 0.000220995
19 *984:itrim_2_3[1] *699:13 0.000234295
20 *688:13 *699:5 0.00210232
21 *695:9 *699:25 8.64392e-05
22 *696:22 *699:25 0.0736989
23 *698:13 *699:13 0.0382553
24 *698:19 *699:13 0.000694443
25 *698:19 *699:19 0.00195875
26 *698:19 *699:21 1.5942e-05
27 *698:21 *699:21 0.00381432
*RES
1 *988:analog_ctrl[125] *699:5 263.714 
2 *699:5 *699:11 25.5536 
3 *699:11 *699:13 491.152 
4 *699:13 *699:19 25.6964 
5 *699:19 *699:21 47.4821 
6 *699:21 *699:23 3.41 
7 *699:23 *699:25 117.047 
8 *699:25 *984:refsel[4] 22.9623 
*END

*D_NET *700 0.197891
*CONN
*I *984:refsel[5] I *D CF_ADC_DSM20
*I *988:analog_ctrl[126] O *D soc_sys
*CAP
1 *984:refsel[5] 0.00123717
2 *988:analog_ctrl[126] 0
3 *700:30 0.00324719
4 *700:28 0.00203381
5 *700:26 0.00271788
6 *700:24 0.0026941
7 *700:22 0.0258635
8 *700:20 0.0260969
9 *700:14 0.0145224
10 *700:12 0.0170673
11 *700:6 0.0193263
12 *700:4 0.0165481
13 *984:refsel[5] *984:refsel[6] 0
14 *984:refsel[5] *984:FCAP2[0] 0.000218741
15 *984:refsel[5] *984:DACCAP[0] 4.17684e-05
16 *984:refsel[5] *718:42 1.15246e-05
17 *984:refsel[5] *734:22 0.000144784
18 *984:refsel[5] *736:22 0.000607812
19 *984:refsel[5] *769:56 0
20 *984:refsel[5] *772:35 2.81855e-05
21 *700:6 *701:8 9.84683e-05
22 *700:6 *702:8 5.27153e-05
23 *700:6 *703:8 9.84683e-05
24 *700:6 *705:8 5.27153e-05
25 *700:6 *706:8 5.27153e-05
26 *700:6 *707:8 5.27153e-05
27 *700:6 *708:8 9.84683e-05
28 *700:6 *709:8 5.27153e-05
29 *700:6 *710:8 5.27153e-05
30 *700:6 *711:8 0.000187917
31 *700:6 *712:8 9.84683e-05
32 *700:6 *713:8 5.27153e-05
33 *700:6 *714:8 9.84683e-05
34 *700:6 *717:8 9.84683e-05
35 *700:6 *718:8 5.27153e-05
36 *700:6 *719:8 9.84683e-05
37 *700:6 *721:8 9.84683e-05
38 *700:6 *722:8 9.84683e-05
39 *700:6 *723:8 0.000144221
40 *700:6 *724:8 5.27153e-05
41 *700:6 *725:8 9.84683e-05
42 *700:6 *727:8 5.27153e-05
43 *700:6 *728:8 0.000317695
44 *700:6 *729:8 5.27153e-05
45 *700:6 *730:8 9.84683e-05
46 *700:6 *731:8 5.27153e-05
47 *700:6 *733:8 5.27153e-05
48 *700:6 *734:8 9.84683e-05
49 *700:6 *735:8 9.64108e-05
50 *700:6 *736:8 9.84683e-05
51 *700:6 *738:8 5.27153e-05
52 *700:6 *739:8 5.27153e-05
53 *700:6 *741:8 9.84683e-05
54 *700:6 *742:8 5.27153e-05
55 *700:6 *743:8 5.27153e-05
56 *700:6 *744:8 5.27153e-05
57 *700:6 *745:8 9.84683e-05
58 *700:6 *746:8 5.27153e-05
59 *700:6 *747:8 9.84683e-05
60 *700:6 *749:8 5.27153e-05
61 *700:6 *750:8 9.84683e-05
62 *700:6 *751:8 0.000226194
63 *700:6 *752:8 9.84683e-05
64 *700:6 *753:8 5.27153e-05
65 *700:6 *755:20 0.00508864
66 *700:6 *755:22 0.00964608
67 *700:6 *756:8 9.84683e-05
68 *700:6 *757:8 5.27153e-05
69 *700:6 *760:8 0.000418739
70 *700:6 *761:8 9.84683e-05
71 *700:6 *762:8 5.27153e-05
72 *700:6 *763:8 0.00090669
73 *700:6 *764:8 5.27153e-05
74 *700:6 *765:8 9.84683e-05
75 *700:6 *767:8 9.64162e-05
76 *700:6 *768:8 5.27153e-05
77 *700:6 *769:8 9.84683e-05
78 *700:6 *773:8 4.98422e-05
79 *700:6 *774:8 9.5164e-05
80 *700:6 *775:8 0.000314396
81 *700:6 *777:8 4.98422e-05
82 *700:6 *778:8 4.98422e-05
83 *700:6 *779:8 0.000140917
84 *700:6 *780:8 9.5164e-05
85 *700:6 *783:8 4.98422e-05
86 *700:6 *784:8 9.5164e-05
87 *700:6 *785:8 4.98422e-05
88 *700:6 *787:8 4.98422e-05
89 *700:6 *788:8 9.5164e-05
90 *700:6 *789:8 9.51694e-05
91 *700:12 *755:22 0.00409576
92 *700:20 *844:9 0.000651651
93 *700:26 *701:22 0.00916088
94 *700:26 *709:22 0.00213254
95 *700:30 *701:22 0.00324572
96 *700:30 *722:22 0.00117331
97 *700:30 *769:56 0
98 *988:adc_dout[2] *700:12 9.84683e-05
99 *988:adc_dout[5] *700:12 5.27153e-05
100 *988:adc_dout[6] *700:12 9.84683e-05
101 *988:adc_dout[7] *700:12 5.27153e-05
102 *988:adc_ov_one *700:12 5.27153e-05
103 *988:adc_scanout *700:12 9.84683e-05
104 *988:adc_test[0] *700:12 5.27153e-05
105 *988:adc_test[1] *700:12 0.000144221
106 *988:adc_test[2] *700:12 0.000274435
107 *988:adc_test[3] *700:12 9.84683e-05
108 *988:adc_test[4] *700:12 5.27153e-05
109 *988:adc_test[5] *700:12 5.27153e-05
110 *111:13 *700:6 0
111 *668:22 *700:14 0.00853141
112 *668:22 *700:22 0.00657624
113 *671:10 *700:6 0.00493595
114 *671:10 *700:12 0.00200754
*RES
1 *988:analog_ctrl[126] *700:4 3.41 
2 *700:4 *700:6 65.6637 
3 *700:6 *700:12 17.7356 
4 *700:12 *700:14 50.1177 
5 *700:14 *700:20 7.8399 
6 *700:20 *700:22 518.473 
7 *700:22 *700:24 4.5 
8 *700:24 *700:26 86.5804 
9 *700:26 *700:28 0.428571 
10 *700:28 *700:30 56.5982 
11 *700:30 *984:refsel[5] 43.9554 
*END

*D_NET *701 0.204784
*CONN
*I *984:refsel[6] I *D CF_ADC_DSM20
*I *988:analog_ctrl[127] O *D soc_sys
*CAP
1 *984:refsel[6] 0.0010888
2 *988:analog_ctrl[127] 3.28656e-05
3 *701:22 0.0284778
4 *701:20 0.027389
5 *701:18 0.0118732
6 *701:16 0.0121803
7 *701:10 0.02718
8 *701:8 0.0269057
9 *984:refsel[6] *984:refsel[13] 0.000655321
10 *984:refsel[6] *984:refsel[12] 0.000351517
11 *984:refsel[6] *984:refsel[7] 6.40716e-05
12 *984:refsel[6] *984:FCAP2[3] 0.00018919
13 *984:refsel[6] *984:DACCAPEN 0.000258233
14 *984:refsel[6] *984:DACCAP[0] 8.22793e-06
15 *984:refsel[6] *984:FCAP1OFFSET 0.000449812
16 *984:refsel[6] *709:22 0.000363708
17 *984:refsel[6] *719:62 0
18 *984:refsel[6] *772:35 2.8945e-05
19 *701:10 *702:10 0
20 *701:16 *702:16 9.32365e-05
21 *701:18 *702:18 0.0310881
22 *701:22 *707:22 0.000552258
23 *701:22 *709:22 0.0230356
24 *701:22 *824:25 0
25 *701:22 *825:25 0
26 *984:refsel[5] *984:refsel[6] 0
27 *111:13 *701:8 1.33363e-05
28 *657:10 *701:18 0
29 *700:6 *701:8 9.84683e-05
30 *700:26 *701:22 0.00916088
31 *700:30 *701:22 0.00324572
*RES
1 *988:analog_ctrl[127] *701:8 6.9751 
2 *701:8 *701:10 73.3419 
3 *701:10 *701:16 7.76783 
4 *701:16 *701:18 384.598 
5 *701:18 *701:20 4.5 
6 *701:20 *701:22 592.786 
7 *701:22 *984:refsel[6] 47.1212 
*END

*D_NET *702 0.195381
*CONN
*I *984:refsel[7] I *D CF_ADC_DSM20
*I *988:analog_ctrl[128] O *D soc_sys
*CAP
1 *984:refsel[7] 0.000536355
2 *988:analog_ctrl[128] 2.01968e-05
3 *702:22 0.0192458
4 *702:20 0.0187094
5 *702:18 0.0117451
6 *702:16 0.0117967
7 *702:10 0.0242346
8 *702:8 0.0242032
9 *984:refsel[7] *984:bw[1] 6.54597e-06
10 *984:refsel[7] *984:SUMCAPIN[2] 0.000111116
11 *984:refsel[7] *984:DACCAPEN 6.62727e-05
12 *984:refsel[7] *984:IPCAP1[2] 0
13 *984:refsel[7] *984:bw[3] 4.06299e-05
14 *984:refsel[7] *984:IPCAP1OFFSET 0.000610734
15 *984:refsel[7] *984:FCAP1OFFSET 0.000809338
16 *984:refsel[7] *719:62 0.000138878
17 *702:10 *703:10 0
18 *702:22 *984:bw[1] 0.00133397
19 *702:22 *984:SUMCAPIN[2] 0.00128707
20 *702:22 *984:refsel[12] 4.67642e-05
21 *702:22 *706:22 0.00330258
22 *702:22 *707:22 0.0175609
23 *702:22 *708:22 0.00119253
24 *702:22 *709:22 3.57908e-05
25 *702:22 *721:22 0.000565109
26 *702:22 *727:22 0.0205379
27 *702:22 *765:26 0.00128197
28 *702:22 *824:25 0.00234747
29 *702:22 *825:25 0.00230889
30 *984:refsel[6] *984:refsel[7] 6.40716e-05
31 *111:13 *702:8 6.63171e-06
32 *672:13 *702:10 0
33 *678:21 *702:10 0
34 *700:6 *702:8 5.27153e-05
35 *701:10 *702:10 0
36 *701:16 *702:16 9.32365e-05
37 *701:18 *702:18 0.0310881
*RES
1 *988:analog_ctrl[128] *702:8 6.90303 
2 *702:8 *702:10 73.2354 
3 *702:10 *702:16 6.9751 
4 *702:16 *702:18 382.018 
5 *702:18 *702:20 3.41 
6 *702:20 *702:22 105.985 
7 *702:22 *984:refsel[7] 25.4581 
*END

*D_NET *703 0.237983
*CONN
*I *984:refsel[8] I *D CF_ADC_DSM20
*I *988:analog_ctrl[129] O *D soc_sys
*CAP
1 *984:refsel[8] 0.000568317
2 *988:analog_ctrl[129] 3.28656e-05
3 *703:46 0.00162756
4 *703:18 0.0150106
5 *703:16 0.0139513
6 *703:14 0.02503
7 *703:12 0.02503
8 *703:10 0.0126269
9 *703:8 0.0126598
10 *984:refsel[8] *984:SUMCAPIN[3] 5.13266e-05
11 *984:refsel[8] *984:refsel[9] 0.000503349
12 *984:refsel[8] *984:SUMCAP3[1] 0.000241427
13 *984:refsel[8] *984:SUMCAP1[1] 0.00117218
14 *984:refsel[8] *984:FCAP3[1] 9.14867e-05
15 *984:refsel[8] *984:DACCAPEN 0.000489944
16 *984:refsel[8] *984:IPCAP1OFFSET 5.35475e-05
17 *984:refsel[8] *984:FCAP2EN 4.18384e-06
18 *984:refsel[8] *721:22 6.60633e-06
19 *984:refsel[8] *727:22 1.90602e-05
20 *703:10 *705:10 0
21 *703:14 *710:14 0.0621076
22 *703:18 *735:18 0.00505112
23 *703:18 *775:18 0.0299651
24 *703:18 *788:18 0.0077046
25 *703:46 *984:SUMCAPIN[0] 1.94135e-05
26 *703:46 *984:SUMCAP3[1] 0.000906625
27 *703:46 *705:22 0.000141858
28 *703:46 *718:42 0.000851606
29 *703:46 *735:38 0.000503538
30 *703:46 *768:36 5.78619e-05
31 *703:46 *772:35 4.43299e-05
32 *703:46 *775:30 0.000565581
33 *703:46 *785:50 6.28356e-05
34 *703:46 *788:50 0.000394893
35 *111:13 *703:8 1.33363e-05
36 *672:13 *703:10 0.016773
37 *678:21 *703:10 0.00355073
38 *700:6 *703:8 9.84683e-05
39 *702:10 *703:10 0
*RES
1 *988:analog_ctrl[129] *703:8 6.9751 
2 *703:8 *703:10 51.3961 
3 *703:10 *703:12 3.41 
4 *703:12 *703:14 102.778 
5 *703:14 *703:16 3.41 
6 *703:16 *703:18 483.562 
7 *703:18 *703:46 48.6017 
8 *703:46 *984:refsel[8] 20.5936 
*END

*D_NET *704 0.313028
*CONN
*I *984:iso I *D CF_ADC_DSM20
*I *988:analog_ctrl[12] O *D soc_sys
*CAP
1 *984:iso 0
2 *988:analog_ctrl[12] 0.0131729
3 *704:37 0.0148347
4 *704:29 0.0371403
5 *704:27 0.0224569
6 *704:17 0.00875602
7 *704:15 0.00886235
8 *704:9 0.0320572
9 *704:7 0.0317995
10 *704:5 0.0131729
11 *704:9 *715:9 0
12 *704:9 *728:24 0.00122918
13 *704:9 *732:9 0.00998793
14 *704:9 *803:9 0
15 *704:9 *808:9 0.0774757
16 *704:15 *772:5 5.75125e-05
17 *704:17 *766:9 0.00611391
18 *704:17 *808:17 0.0255095
19 *704:27 *766:9 0.000379342
20 *704:29 *814:13 0
21 *704:29 *815:13 0.00297594
22 *984:enable_hv *704:37 0
23 *984:itrim_1[5] *704:9 0.00274564
24 *18:30 *704:37 0.00140099
25 *669:14 *704:29 0.00289977
26 *693:17 *704:37 0
*RES
1 *988:analog_ctrl[12] *704:5 259.92 
2 *704:5 *704:7 3.41 
3 *704:7 *704:9 141.874 
4 *704:9 *704:15 12.4368 
5 *704:15 *704:17 256 
6 *704:17 *704:27 12.1843 
7 *704:27 *704:29 76.0053 
8 *704:29 *704:37 49.141 
9 *704:37 *984:iso 3.41 
*END

*D_NET *705 0.215633
*CONN
*I *984:refsel[9] I *D CF_ADC_DSM20
*I *988:analog_ctrl[130] O *D soc_sys
*CAP
1 *984:refsel[9] 0.00125573
2 *988:analog_ctrl[130] 2.01968e-05
3 *705:22 0.0212532
4 *705:20 0.0199974
5 *705:18 0.0112155
6 *705:16 0.0113962
7 *705:10 0.0236335
8 *705:8 0.023473
9 *984:refsel[9] *984:IPCAP3[1] 4.51406e-05
10 *984:refsel[9] *984:IPCAP2[2] 0.00197224
11 *984:refsel[9] *984:FCAP3[2] 4.21517e-05
12 *984:refsel[9] *984:FCAP3[1] 0.000513125
13 *984:refsel[9] *984:FCAP2[1] 0.00016828
14 *984:refsel[9] *984:DACCAPEN 2.05803e-05
15 *984:refsel[9] *984:DACCAP[4] 0.000116562
16 *984:refsel[9] *984:IPCAP1[4] 6.30931e-05
17 *984:refsel[9] *719:62 1.99901e-06
18 *984:refsel[9] *735:38 3.07351e-06
19 *984:refsel[9] *754:29 0.00235331
20 *705:10 *706:10 0
21 *705:16 *706:16 6.58294e-06
22 *705:18 *706:18 0.0297892
23 *705:22 *984:IPCAP2[2] 0.000330051
24 *705:22 *723:22 0.0533754
25 *705:22 *730:22 4.49306e-05
26 *705:22 *778:14 0.0120387
27 *984:refsel[8] *984:refsel[9] 0.000503349
28 *111:13 *705:8 6.63171e-06
29 *678:21 *705:10 0.00162865
30 *678:21 *705:16 0.000170575
31 *700:6 *705:8 5.27153e-05
32 *703:10 *705:10 0
33 *703:46 *705:22 0.000141858
*RES
1 *988:analog_ctrl[130] *705:8 6.90303 
2 *705:8 *705:10 73.3419 
3 *705:10 *705:16 7.55163 
4 *705:16 *705:18 365.473 
5 *705:18 *705:20 4.5 
6 *705:20 *705:22 580.464 
7 *705:22 *984:refsel[9] 30.3502 
*END

*D_NET *706 0.219288
*CONN
*I *984:refsel[10] I *D CF_ADC_DSM20
*I *988:analog_ctrl[131] O *D soc_sys
*CAP
1 *984:refsel[10] 0.00073413
2 *988:analog_ctrl[131] 2.01968e-05
3 *706:22 0.0177439
4 *706:20 0.0170098
5 *706:18 0.0119843
6 *706:16 0.0120186
7 *706:10 0.0225291
8 *706:8 0.022515
9 *984:refsel[10] *984:SUMCAPFB[3] 0.000767633
10 *984:refsel[10] *984:SUMCAP3[0] 0.000842157
11 *984:refsel[10] *984:DACCAP[0] 0.00256035
12 *984:refsel[10] *743:22 0.00292223
13 *984:refsel[10] *767:42 1.01912e-05
14 *984:refsel[10] *775:30 0.000783917
15 *984:refsel[10] *780:26 0.000306237
16 *706:10 *707:10 0
17 *706:22 *727:22 0.0124188
18 *706:22 *742:22 0.000458983
19 *706:22 *752:22 0.00268153
20 *706:22 *765:22 0.0295381
21 *706:22 *765:26 0.00308541
22 *706:22 *773:22 0.000767308
23 *706:22 *777:22 0.0112767
24 *706:22 *823:25 0.00954107
25 *111:13 *706:8 6.63171e-06
26 *678:21 *706:16 2.48858e-05
27 *681:13 *706:10 0.00359016
28 *700:6 *706:8 5.27153e-05
29 *702:22 *706:22 0.00330258
30 *705:10 *706:10 0
31 *705:16 *706:16 6.58294e-06
32 *705:18 *706:18 0.0297892
*RES
1 *988:analog_ctrl[131] *706:8 6.90303 
2 *706:8 *706:10 73.2354 
3 *706:10 *706:16 6.90303 
4 *706:16 *706:18 380.955 
5 *706:18 *706:20 4.5 
6 *706:20 *706:22 576.357 
7 *706:22 *984:refsel[10] 31.5137 
*END

*D_NET *707 0.205112
*CONN
*I *984:refsel[11] I *D CF_ADC_DSM20
*I *988:analog_ctrl[132] O *D soc_sys
*CAP
1 *984:refsel[11] 0.00106577
2 *988:analog_ctrl[132] 2.01968e-05
3 *707:22 0.015212
4 *707:20 0.0141463
5 *707:18 0.0188409
6 *707:16 0.0189217
7 *707:10 0.0184829
8 *707:8 0.0184223
9 *984:refsel[11] *984:SUMCAPFB[3] 0.000593268
10 *984:refsel[11] *984:SUMCAP3[0] 0.000425898
11 *984:refsel[11] *984:SUMCAP2[1] 0.000471332
12 *984:refsel[11] *984:DACCAP[0] 2.69575e-05
13 *984:refsel[11] *744:22 4.6841e-05
14 *984:refsel[11] *767:42 0
15 *984:refsel[11] *768:36 0.000395951
16 *984:refsel[11] *769:56 7.4416e-05
17 *984:refsel[11] *775:30 0.00125069
18 *984:refsel[11] *780:26 6.31884e-05
19 *707:10 *708:10 0
20 *707:22 *709:22 0.0617771
21 *111:13 *707:8 6.63171e-06
22 *677:13 *707:10 0
23 *678:21 *707:16 0.000105588
24 *681:13 *707:10 0.016596
25 *700:6 *707:8 5.27153e-05
26 *701:22 *707:22 0.000552258
27 *702:22 *707:22 0.0175609
28 *706:10 *707:10 0
*RES
1 *988:analog_ctrl[132] *707:8 6.90303 
2 *707:8 *707:10 73.2354 
3 *707:10 *707:16 7.11923 
4 *707:16 *707:18 384.446 
5 *707:18 *707:20 3.41 
6 *707:20 *707:22 99.9314 
7 *707:22 *984:refsel[11] 44.1686 
*END

*D_NET *708 0.244139
*CONN
*I *984:refsel[12] I *D CF_ADC_DSM20
*I *988:analog_ctrl[133] O *D soc_sys
*CAP
1 *984:refsel[12] 0.00083383
2 *988:analog_ctrl[133] 3.28656e-05
3 *708:22 0.01453
4 *708:20 0.0136962
5 *708:18 0.0183503
6 *708:16 0.0184636
7 *708:10 0.0167763
8 *708:8 0.0166959
9 *984:refsel[12] *984:bw[1] 1.39702e-05
10 *984:refsel[12] *984:bw[2] 0.00170478
11 *984:refsel[12] *984:SUMCAPFB[0] 0.000328513
12 *984:refsel[12] *984:SUMCAP1[1] 9.66354e-05
13 *984:refsel[12] *984:FCAP2[3] 0.000994848
14 *984:refsel[12] *984:DACCAPEN 0.000459538
15 *984:refsel[12] *984:DACCAP[0] 7.03487e-05
16 *984:refsel[12] *984:FCAP1OFFSET 0.00014359
17 *984:refsel[12] *709:22 0.000887192
18 *984:refsel[12] *722:22 4.47593e-05
19 *984:refsel[12] *725:22 2.06702e-05
20 *984:refsel[12] *768:36 4.11994e-05
21 *708:10 *709:10 0
22 *708:22 *984:IPCAP3[2] 0.000326339
23 *708:22 *984:FCAP3[1] 0.000363415
24 *708:22 *718:22 0
25 *708:22 *721:22 0.0574166
26 *708:22 *724:22 0
27 *708:22 *729:22 0.000142591
28 *708:22 *731:22 0.00127995
29 *708:22 *741:22 0.00159711
30 *708:22 *742:22 0.0176854
31 *708:22 *750:22 0.0244309
32 *708:22 *786:25 0.00163037
33 *984:refsel[6] *984:refsel[12] 0.000351517
34 *984:COMBUF_INP *708:18 0.000329881
35 *984:itrim_sum[0] *708:16 0.000330621
36 *111:13 *708:8 1.33363e-05
37 *677:13 *708:10 0.0327185
38 *700:6 *708:8 9.84683e-05
39 *702:22 *984:refsel[12] 4.67642e-05
40 *702:22 *708:22 0.00119253
41 *707:10 *708:10 0
*RES
1 *988:analog_ctrl[133] *708:8 6.9751 
2 *708:8 *708:10 73.2354 
3 *708:10 *708:16 7.33543 
4 *708:16 *708:18 378.982 
5 *708:18 *708:20 3.41 
6 *708:20 *708:22 99.2828 
7 *708:22 *984:refsel[12] 24.8856 
*END

*D_NET *709 0.260402
*CONN
*I *984:refsel[13] I *D CF_ADC_DSM20
*I *988:analog_ctrl[134] O *D soc_sys
*CAP
1 *984:refsel[13] 0.00055919
2 *988:analog_ctrl[134] 2.01968e-05
3 *709:22 0.0115325
4 *709:20 0.0109733
5 *709:18 0.0188054
6 *709:16 0.0189839
7 *709:10 0.0204451
8 *709:8 0.0202867
9 *984:refsel[13] *984:SUMCAP2_EN 0.000102424
10 *984:refsel[13] *984:FCAP2[3] 0.000248963
11 *984:refsel[13] *984:FCAP2[0] 2.44705e-05
12 *984:refsel[13] *984:bw[3] 0
13 *984:refsel[13] *718:42 4.21517e-05
14 *984:refsel[13] *772:35 0.000210128
15 *709:10 *710:10 0
16 *709:22 *722:22 0.0574261
17 *984:refsel[12] *709:22 0.000887192
18 *984:refsel[6] *984:refsel[13] 0.000655321
19 *984:refsel[6] *709:22 0.000363708
20 *984:itrim_sum[0] *709:16 0.000565124
21 *111:13 *709:8 6.63171e-06
22 *673:15 *709:10 0.0112303
23 *700:6 *709:8 5.27153e-05
24 *700:26 *709:22 0.00213254
25 *701:22 *709:22 0.0230356
26 *702:22 *709:22 3.57908e-05
27 *707:22 *709:22 0.0617771
28 *708:10 *709:10 0
*RES
1 *988:analog_ctrl[134] *709:8 6.90303 
2 *709:8 *709:10 73.2354 
3 *709:10 *709:16 7.69577 
4 *709:16 *709:18 385.054 
5 *709:18 *709:20 3.41 
6 *709:20 *709:22 99.5711 
7 *709:22 *984:refsel[13] 41.8386 
*END

*D_NET *710 0.242512
*CONN
*I *984:refsel[14] I *D CF_ADC_DSM20
*I *988:analog_ctrl[135] O *D soc_sys
*CAP
1 *984:refsel[14] 0.00020348
2 *988:analog_ctrl[135] 2.01968e-05
3 *710:18 0.0237922
4 *710:16 0.0235888
5 *710:14 0.0122823
6 *710:12 0.0122823
7 *710:10 0.0142717
8 *710:8 0.0142919
9 *984:refsel[14] *984:IPCAP3[0] 9.07615e-06
10 *710:10 *711:10 0.00276265
11 *710:14 *711:14 0.0640775
12 *710:18 *984:SUMCAPFB_EN 0.00111254
13 *710:18 *984:refsel[15] 0
14 *710:18 *984:DACCAP[1] 0.000112719
15 *710:18 *711:18 0.00748747
16 *111:13 *710:8 6.63171e-06
17 *673:15 *710:10 0.00405046
18 *700:6 *710:8 5.27153e-05
19 *703:14 *710:14 0.0621076
20 *709:10 *710:10 0
*RES
1 *988:analog_ctrl[135] *710:8 6.90303 
2 *710:8 *710:10 51.5026 
3 *710:10 *710:12 3.41 
4 *710:12 *710:14 101.841 
5 *710:14 *710:16 3.41 
6 *710:16 *710:18 475.518 
7 *710:18 *984:refsel[14] 7.65179 
*END

*D_NET *711 0.261282
*CONN
*I *984:refsel[15] I *D CF_ADC_DSM20
*I *988:analog_ctrl[136] O *D soc_sys
*CAP
1 *984:refsel[15] 0.000236276
2 *988:analog_ctrl[136] 6.45395e-05
3 *711:18 0.0206376
4 *711:16 0.0204013
5 *711:14 0.0123416
6 *711:12 0.0123416
7 *711:10 0.017969
8 *711:8 0.0180336
9 *984:refsel[15] *984:DACCAP[1] 9.61096e-05
10 *984:refsel[15] *713:14 9.32361e-05
11 *711:14 *717:14 0.0616077
12 *711:18 *984:SUMCAPFB_EN 0.00193429
13 *711:18 *766:13 0.0209592
14 *711:18 *776:13 0
15 *984:refsel[2] *984:refsel[15] 2.39852e-05
16 *111:13 *711:8 2.61961e-05
17 *673:15 *711:10 0
18 *700:6 *711:8 0.000187917
19 *710:10 *711:10 0.00276265
20 *710:14 *711:14 0.0640775
21 *710:18 *984:refsel[15] 0
22 *710:18 *711:18 0.00748747
*RES
1 *988:analog_ctrl[136] *711:8 7.11923 
2 *711:8 *711:10 51.6091 
3 *711:10 *711:12 3.41 
4 *711:12 *711:14 101.661 
5 *711:14 *711:16 3.41 
6 *711:16 *711:18 82.9299 
7 *711:18 *984:refsel[15] 14.484 
*END

*D_NET *712 0.22619
*CONN
*I *984:FCAP1[0] I *D CF_ADC_DSM20
*I *988:analog_ctrl[137] O *D soc_sys
*CAP
1 *984:FCAP1[0] 0.00147305
2 *988:analog_ctrl[137] 3.28656e-05
3 *712:30 0.0599523
4 *712:10 0.0980664
5 *712:8 0.0396201
6 *984:FCAP1[0] *984:FCAP1[2] 0
7 *984:FCAP1[0] *984:IPCAP2EN 6.30086e-06
8 *984:FCAP1[0] *984:IPCAP1EN 0.000221333
9 *984:FCAP1[0] *984:FCAP2EN 0.000466967
10 *984:FCAP1[0] *984:FCAP1EN 0.000504356
11 *984:FCAP1[0] *984:FCAP1OFFSET 2.48556e-05
12 *712:10 *713:10 0
13 *712:30 *984:IPCAP1[0] 0.000891647
14 *712:30 *796:13 0.000670053
15 *712:30 *866:13 1.99203e-05
16 *712:30 *866:25 7.02339e-06
17 *111:13 *712:8 1.33363e-05
18 *676:13 *712:10 0.0241208
19 *700:6 *712:8 9.84683e-05
*RES
1 *988:analog_ctrl[137] *712:8 6.9751 
2 *712:8 *712:10 134.279 
3 *712:10 *712:30 35.0788 
4 *712:30 *984:FCAP1[0] 41.7343 
*END

*D_NET *713 0.265859
*CONN
*I *984:FCAP1[1] I *D CF_ADC_DSM20
*I *988:analog_ctrl[138] O *D soc_sys
*CAP
1 *984:FCAP1[1] 0.00182298
2 *988:analog_ctrl[138] 2.01968e-05
3 *713:14 0.0184547
4 *713:12 0.0166317
5 *713:10 0.0422751
6 *713:8 0.0422953
7 *984:FCAP1[1] *984:IPCAP1[5] 0.00010026
8 *984:FCAP1[1] *984:IPCAP1[0] 0.00113828
9 *984:FCAP1[1] *984:FCAP1[3] 0
10 *984:FCAP1[1] *984:FCAP1[2] 0.00174494
11 *984:FCAP1[1] *984:IPCAP1OFFSET 0.000202104
12 *984:FCAP1[1] *984:IPCAP3EN 0.00145713
13 *984:FCAP1[1] *984:FCAP1OFFSET 0.000101601
14 *984:FCAP1[1] *828:13 0
15 *984:FCAP1[1] *828:31 0
16 *713:10 *714:10 0
17 *713:14 *984:DACCAP[5] 3.34733e-05
18 *713:14 *984:DACCAP[1] 0.00124305
19 *713:14 *984:FCAP1[4] 4.73953e-05
20 *713:14 *984:RESCAP[1] 0.000242032
21 *713:14 *984:FCAP3EN 4.73953e-05
22 *713:14 *714:14 0.0664417
23 *713:14 *733:14 4.51406e-05
24 *713:14 *737:17 0.000111104
25 *713:14 *757:14 0.0430379
26 *713:14 *827:17 0.0230586
27 *713:14 *827:21 0.00126135
28 *713:14 *827:33 0.000101419
29 *713:14 *827:35 0.00102611
30 *984:refsel[15] *713:14 9.32361e-05
31 *111:13 *713:8 6.63171e-06
32 *676:13 *713:10 0.00276571
33 *700:6 *713:8 5.27153e-05
34 *712:10 *713:10 0
*RES
1 *988:analog_ctrl[138] *713:8 6.90303 
2 *713:8 *713:10 134.599 
3 *713:10 *713:12 3.41 
4 *713:12 *713:14 107.138 
5 *713:14 *984:FCAP1[1] 23.8632 
*END

*D_NET *714 0.274359
*CONN
*I *984:FCAP1[2] I *D CF_ADC_DSM20
*I *988:analog_ctrl[139] O *D soc_sys
*CAP
1 *984:FCAP1[2] 0.00185716
2 *988:analog_ctrl[139] 3.28656e-05
3 *714:14 0.0161748
4 *714:12 0.0143176
5 *714:10 0.0448765
6 *714:8 0.0449093
7 *984:FCAP1[2] *984:IPCAP1[5] 0.000601592
8 *984:FCAP1[2] *984:IPCAP1EN 0
9 *984:FCAP1[2] *984:FCAP1EN 0
10 *714:14 *984:IPCAP3EN 0.000104314
11 *714:14 *733:14 0.0580764
12 *714:14 *737:17 0.012122
13 *714:14 *737:27 0.000101419
14 *714:14 *737:29 0.000923306
15 *984:refsel[2] *714:14 0.000255582
16 *984:FCAP1[1] *984:FCAP1[2] 0.00174494
17 *984:FCAP1[0] *984:FCAP1[2] 0
18 *111:13 *714:8 1.33363e-05
19 *697:22 *714:14 0.0117081
20 *700:6 *714:8 9.84683e-05
21 *713:10 *714:10 0
22 *713:14 *714:14 0.0664417
*RES
1 *988:analog_ctrl[139] *714:8 6.9751 
2 *714:8 *714:10 134.705 
3 *714:10 *714:12 3.41 
4 *714:12 *714:14 106.129 
5 *714:14 *984:FCAP1[2] 22.3889 
*END

*D_NET *715 0.299981
*CONN
*I *984:phi2_buffer I *D CF_ADC_DSM20
*I *988:analog_ctrl[13] O *D soc_sys
*CAP
1 *984:phi2_buffer 3.93512e-05
2 *988:analog_ctrl[13] 0.0125254
3 *715:21 0.0130562
4 *715:19 0.0136471
5 *715:9 0.0584895
6 *715:7 0.0578592
7 *715:5 0.0125254
8 *715:9 *720:19 0
9 *715:9 *732:9 0
10 *715:9 *771:9 0
11 *715:9 *776:9 0
12 *715:9 *803:9 0.112408
13 *715:9 *825:9 0
14 *715:19 *808:17 0.000104937
15 *715:19 *826:19 0.000911926
16 *715:19 *873:13 0.000211187
17 *715:21 *826:21 0.00938244
18 *715:21 *873:13 4.53109e-06
19 *31:13 *715:19 0.000104937
20 *39:9 *715:19 0.000202002
21 *67:13 *715:9 0
22 *110:21 *715:9 0
23 *121:22 *715:5 0.00850923
24 *658:12 *715:21 0
25 *660:12 *715:21 0
26 *678:11 *715:9 0
27 *704:9 *715:9 0
*RES
1 *988:analog_ctrl[13] *715:5 255.062 
2 *715:5 *715:7 3.41 
3 *715:7 *715:9 224.463 
4 *715:9 *715:19 19.7308 
5 *715:19 *715:21 53.4343 
6 *715:21 *984:phi2_buffer 6.90303 
*END

*D_NET *716 0.22304
*CONN
*I *984:FCAP1[3] I *D CF_ADC_DSM20
*I *988:analog_ctrl[140] O *D soc_sys
*CAP
1 *984:FCAP1[3] 0.00209085
2 *988:analog_ctrl[140] 0.013469
3 *716:25 0.0132327
4 *716:23 0.0111419
5 *716:21 0.0292922
6 *716:19 0.0294199
7 *716:9 0.0106666
8 *716:7 0.0105389
9 *716:5 0.013469
10 *984:FCAP1[3] *984:IPCAP1[5] 0.00208021
11 *984:FCAP1[3] *984:IPCAP1[0] 0.00249477
12 *984:FCAP1[3] *828:13 1.65282e-05
13 *984:FCAP1[3] *828:31 0.0007294
14 *984:FCAP1[3] *866:13 0.00128125
15 *716:9 *720:9 0.0312532
16 *716:9 *771:9 0.00371305
17 *716:9 *808:9 0.011036
18 *716:19 *771:9 0.000516403
19 *716:19 *776:9 0.000509127
20 *716:25 *984:SUMCAP3_EN 0
21 *716:25 *984:SUMCAP1[2] 2.53202e-05
22 *716:25 *984:IPCAP3[0] 6.0174e-05
23 *716:25 *984:FCAP3[0] 0.000188992
24 *716:25 *984:IPCAP1[4] 2.30802e-05
25 *716:25 *984:RESCAPEN 4.51246e-05
26 *716:25 *984:RESCAP[2] 0
27 *716:25 *984:FCAP1EN 0.00380553
28 *716:25 *984:SUMCAPIN_EN 0.00282809
29 *716:25 *733:14 0
30 *716:25 *746:14 0
31 *716:25 *747:14 0
32 *716:25 *784:14 0.0257409
33 *984:refsel[4] *984:FCAP1[3] 0.000292213
34 *984:FCAP1[1] *984:FCAP1[3] 0
35 *984:vpwr_ext *716:25 4.59737e-05
36 *984:vpwrd_int *716:25 0.00303425
37 *649:18 *716:21 0
*RES
1 *988:analog_ctrl[140] *716:5 258.857 
2 *716:5 *716:7 4.5 
3 *716:7 *716:9 312.268 
4 *716:9 *716:19 12.7041 
5 *716:19 *716:21 90.1742 
6 *716:21 *716:23 3.41 
7 *716:23 *716:25 51.6467 
8 *716:25 *984:FCAP1[3] 32.8765 
*END

*D_NET *717 0.244791
*CONN
*I *984:FCAP1[4] I *D CF_ADC_DSM20
*I *988:analog_ctrl[141] O *D soc_sys
*CAP
1 *984:FCAP1[4] 0.000189764
2 *988:analog_ctrl[141] 3.28656e-05
3 *717:18 0.0214329
4 *717:16 0.0212431
5 *717:14 0.0145768
6 *717:12 0.0145768
7 *717:10 0.0139272
8 *717:8 0.0139601
9 *984:FCAP1[4] *984:DACCAP[1] 0
10 *984:FCAP1[4] *984:RESCAP[1] 1.47728e-05
11 *984:FCAP1[4] *737:29 2.75959e-05
12 *717:10 *718:10 0
13 *717:14 *735:14 0.050566
14 *717:18 *984:RESCAP[2] 0.00274857
15 *717:18 *732:13 0
16 *717:18 *762:18 0.0148778
17 *717:18 *764:18 0
18 *111:13 *717:8 1.33363e-05
19 *680:13 *717:10 0.0148496
20 *700:6 *717:8 9.84683e-05
21 *711:14 *717:14 0.0616077
22 *713:14 *984:FCAP1[4] 4.73953e-05
*RES
1 *988:analog_ctrl[141] *717:8 6.9751 
2 *717:8 *717:10 51.7157 
3 *717:10 *717:12 3.41 
4 *717:12 *717:14 101.084 
5 *717:14 *717:16 3.41 
6 *717:16 *717:18 82.8234 
7 *717:18 *984:FCAP1[4] 13.8405 
*END

*D_NET *718 0.23219
*CONN
*I *984:FCAP1[5] I *D CF_ADC_DSM20
*I *988:analog_ctrl[142] O *D soc_sys
*CAP
1 *984:FCAP1[5] 0
2 *988:analog_ctrl[142] 2.01968e-05
3 *718:42 0.00226056
4 *718:22 0.0168628
5 *718:20 0.0146022
6 *718:18 0.0114991
7 *718:16 0.0116862
8 *718:10 0.0210623
9 *718:8 0.0208954
10 *718:10 *719:10 0
11 *718:18 *719:18 0.030199
12 *718:22 *724:22 0.054795
13 *718:22 *745:14 0
14 *718:22 *749:14 0
15 *718:22 *756:14 0
16 *718:22 *768:14 0
17 *718:22 *774:24 0
18 *718:22 *779:32 0.0292055
19 *718:42 *984:SUMCAP3[1] 0.000703046
20 *718:42 *984:FCAP3[1] 0.000274319
21 *718:42 *984:FCAP2[2] 0.00180271
22 *718:42 *984:FCAP2[0] 8.78052e-05
23 *718:42 *984:DACCAP[0] 0.000733243
24 *718:42 *719:22 0.000231943
25 *718:42 *734:22 1.15412e-05
26 *718:42 *736:22 0.000138696
27 *718:42 *744:22 3.09773e-05
28 *718:42 *768:36 0.00259145
29 *718:42 *769:56 4.65158e-06
30 *718:42 *772:35 0.000459114
31 *718:42 *775:30 0.00233052
32 *718:42 *779:32 0.00019056
33 *718:42 *785:50 2.35042e-06
34 *984:refsel[13] *718:42 4.21517e-05
35 *984:refsel[5] *718:42 1.15246e-05
36 *984:itrim_sum[3] *718:16 0.000612025
37 *111:13 *718:8 6.63171e-06
38 *675:21 *718:10 0.00735174
39 *680:13 *718:10 0.000580295
40 *700:6 *718:8 5.27153e-05
41 *703:46 *718:42 0.000851606
42 *708:22 *718:22 0
43 *717:10 *718:10 0
*RES
1 *988:analog_ctrl[142] *718:8 6.90303 
2 *718:8 *718:10 73.555 
3 *718:10 *718:16 7.76783 
4 *718:16 *718:18 372.911 
5 *718:18 *718:20 3.41 
6 *718:20 *718:22 89.9141 
7 *718:22 *718:42 46.041 
8 *718:42 *984:FCAP1[5] 4.5 
*END

*D_NET *719 0.203192
*CONN
*I *984:FCAP1[6] I *D CF_ADC_DSM20
*I *988:analog_ctrl[143] O *D soc_sys
*CAP
1 *984:FCAP1[6] 1.29125e-05
2 *988:analog_ctrl[143] 3.28656e-05
3 *719:62 0.00190104
4 *719:22 0.0246383
5 *719:20 0.0227502
6 *719:18 0.011795
7 *719:16 0.0118381
8 *719:10 0.0301258
9 *719:8 0.0301156
10 *984:FCAP1[6] *984:FCAP2EN 1.40157e-05
11 *719:22 *984:SUMCAP3[1] 0.000421269
12 *719:22 *768:14 0.000270326
13 *719:22 *774:24 0.00451351
14 *719:22 *787:22 0.0262191
15 *719:62 *984:SUMCAPIN[3] 0.000351795
16 *719:62 *984:SUMCAPIN[2] 6.69171e-06
17 *719:62 *984:SUMCAPFB[2] 0.00128419
18 *719:62 *984:SUMCAP1[1] 6.19761e-05
19 *719:62 *984:FCAP3[1] 0.000847869
20 *719:62 *984:DACCAP[4] 0.000440119
21 *719:62 *984:IPCAP1[2] 0.000263054
22 *719:62 *984:IPCAP1OFFSET 0.000629822
23 *719:62 *984:IPCAP1EN 0.00023707
24 *719:62 *984:FCAP2EN 0.00208535
25 *719:62 *984:FCAP1OFFSET 0.000178201
26 *719:62 *735:38 5.05693e-05
27 *719:62 *741:22 0.00128707
28 *984:refsel[9] *719:62 1.99901e-06
29 *984:refsel[7] *719:62 0.000138878
30 *984:refsel[6] *719:62 0
31 *984:itrim_sum[0] *719:16 9.31015e-05
32 *984:itrim_sum[3] *719:16 4.30781e-05
33 *111:13 *719:8 1.33363e-05
34 *700:6 *719:8 9.84683e-05
35 *718:10 *719:10 0
36 *718:18 *719:18 0.030199
37 *718:42 *719:22 0.000231943
*RES
1 *988:analog_ctrl[143] *719:8 6.9751 
2 *719:8 *719:10 73.2354 
3 *719:10 *719:16 6.9751 
4 *719:16 *719:18 372.455 
5 *719:18 *719:20 4.5 
6 *719:20 *719:22 524.196 
7 *719:22 *719:62 48.6834 
8 *719:62 *984:FCAP1[6] 8.18679 
*END

*D_NET *720 0.19596
*CONN
*I *984:FCAP1EN I *D CF_ADC_DSM20
*I *988:analog_ctrl[144] O *D soc_sys
*CAP
1 *984:FCAP1EN 0.00170046
2 *988:analog_ctrl[144] 0.0134782
3 *720:21 0.0236098
4 *720:19 0.0221603
5 *720:9 0.0207196
6 *720:7 0.0204686
7 *720:5 0.0134782
8 *984:FCAP1EN *984:SUMCAP1[0] 0
9 *984:FCAP1EN *984:SUMCAP1[2] 0.000189045
10 *984:FCAP1EN *984:IPCAP3[0] 4.65308e-06
11 *984:FCAP1EN *984:DACCAP[3] 2.71326e-05
12 *984:FCAP1EN *984:IPCAP2EN 0.00234147
13 *984:FCAP1EN *984:FCAP2EN 1.06839e-05
14 *720:9 *771:9 0.00534864
15 *720:9 *776:9 0.000240725
16 *720:19 *732:9 0.000245932
17 *720:21 *766:13 0.0223752
18 *984:FCAP1[2] *984:FCAP1EN 0
19 *984:FCAP1[0] *984:FCAP1EN 0.000504356
20 *984:vpwrd_int *984:FCAP1EN 0.00306469
21 *37:25 *720:9 0.0106507
22 *37:25 *720:19 0.000282777
23 *108:29 *720:9 0
24 *715:9 *720:19 0
25 *716:9 *720:9 0.0312532
26 *716:25 *984:FCAP1EN 0.00380553
*RES
1 *988:analog_ctrl[144] *720:5 259.161 
2 *720:5 *720:7 4.5 
3 *720:7 *720:9 539.393 
4 *720:9 *720:19 12.6167 
5 *720:19 *720:21 90.0677 
6 *720:21 *984:FCAP1EN 37.6994 
*END

*D_NET *721 0.266088
*CONN
*I *984:FCAP1OFFSET I *D CF_ADC_DSM20
*I *988:analog_ctrl[145] O *D soc_sys
*CAP
1 *984:FCAP1OFFSET 0.00129831
2 *988:analog_ctrl[145] 3.28656e-05
3 *721:22 0.010176
4 *721:20 0.00887767
5 *721:18 0.0116725
6 *721:16 0.0117541
7 *721:10 0.0226017
8 *721:8 0.0225529
9 *984:FCAP1OFFSET *984:bw[1] 0.000333402
10 *984:FCAP1OFFSET *984:bw[2] 0.000368668
11 *984:FCAP1OFFSET *984:SUMCAPIN[2] 4.89273e-05
12 *984:FCAP1OFFSET *984:DACCAPEN 4.6025e-06
13 *984:FCAP1OFFSET *984:IPCAP1[2] 0.00212721
14 *984:FCAP1OFFSET *984:IPCAP1OFFSET 0.00227427
15 *984:FCAP1OFFSET *984:IPCAP3EN 2.54474e-05
16 *984:FCAP1OFFSET *984:IPCAP2EN 0.000244152
17 *984:FCAP1OFFSET *984:IPCAP1EN 1.1537e-05
18 *984:FCAP1OFFSET *984:FCAP2EN 0.000569372
19 *721:10 *722:10 0.00397812
20 *721:16 *722:16 4.98422e-05
21 *721:18 *722:18 0.0308688
22 *721:22 *984:SUMCAP1[1] 0.00010416
23 *721:22 *984:FCAP3[1] 2.92751e-05
24 *721:22 *984:IPCAP1[2] 0.000241306
25 *721:22 *984:IPCAP1OFFSET 0.00130668
26 *721:22 *727:22 0.056927
27 *721:22 *735:38 0.000294463
28 *721:22 *742:22 0.000829289
29 *721:22 *752:22 0.00873275
30 *721:22 *773:22 0.0073167
31 *984:refsel[12] *984:FCAP1OFFSET 0.00014359
32 *984:refsel[8] *721:22 6.60633e-06
33 *984:refsel[7] *984:FCAP1OFFSET 0.000809338
34 *984:refsel[6] *984:FCAP1OFFSET 0.000449812
35 *984:FCAP1[1] *984:FCAP1OFFSET 0.000101601
36 *984:FCAP1[0] *984:FCAP1OFFSET 2.48556e-05
37 *984:itrim_sum[0] *721:16 0.000206547
38 *984:itrim_sum[3] *721:16 0.000421541
39 *111:13 *721:8 1.33363e-05
40 *700:6 *721:8 9.84683e-05
41 *702:22 *721:22 0.000565109
42 *708:22 *721:22 0.0574166
43 *719:62 *984:FCAP1OFFSET 0.000178201
*RES
1 *988:analog_ctrl[145] *721:8 6.9751 
2 *721:8 *721:10 73.3419 
3 *721:10 *721:16 7.47957 
4 *721:16 *721:18 378.982 
5 *721:18 *721:20 3.41 
6 *721:20 *721:22 92.1122 
7 *721:22 *984:FCAP1OFFSET 31.4373 
*END

*D_NET *722 0.243971
*CONN
*I *984:FCAP2[0] I *D CF_ADC_DSM20
*I *988:analog_ctrl[146] O *D soc_sys
*CAP
1 *984:FCAP2[0] 0.000715246
2 *988:analog_ctrl[146] 3.28528e-05
3 *722:22 0.0102118
4 *722:20 0.00949658
5 *722:18 0.0120449
6 *722:16 0.0120748
7 *722:10 0.022363
8 *722:8 0.022366
9 *984:FCAP2[0] *984:SUMCAP2_EN 0.0019229
10 *984:FCAP2[0] *984:FCAP2[3] 0.00249411
11 *984:FCAP2[0] *734:22 0.000475691
12 *984:FCAP2[0] *772:35 0.000121914
13 *722:10 *723:10 0
14 *722:22 *725:22 0.055478
15 *984:refsel[13] *984:FCAP2[0] 2.44705e-05
16 *984:refsel[12] *722:22 4.47593e-05
17 *984:refsel[5] *984:FCAP2[0] 0.000218741
18 *984:refsel[4] *984:FCAP2[0] 7.06786e-05
19 *984:itrim_sum[0] *722:16 9.61175e-05
20 *984:itrim_sum[3] *722:16 2.23401e-05
21 *111:13 *722:8 1.33388e-05
22 *700:6 *722:8 9.84683e-05
23 *700:30 *722:22 0.00117331
24 *709:22 *722:22 0.0574261
25 *718:42 *984:FCAP2[0] 8.78052e-05
26 *721:10 *722:10 0.00397812
27 *721:16 *722:16 4.98422e-05
28 *721:18 *722:18 0.0308688
*RES
1 *988:analog_ctrl[146] *722:8 6.9751 
2 *722:8 *722:10 73.2354 
3 *722:10 *722:16 6.9751 
4 *722:16 *722:18 385.661 
5 *722:18 *722:20 3.41 
6 *722:20 *722:22 91.0672 
7 *722:22 *984:FCAP2[0] 35.8311 
*END

*D_NET *723 0.230441
*CONN
*I *984:FCAP2[1] I *D CF_ADC_DSM20
*I *988:analog_ctrl[147] O *D soc_sys
*CAP
1 *984:FCAP2[1] 0.00117703
2 *988:analog_ctrl[147] 4.45044e-05
3 *723:22 0.00837408
4 *723:20 0.00719705
5 *723:18 0.0184921
6 *723:16 0.0186002
7 *723:10 0.0286143
8 *723:8 0.0285507
9 *984:FCAP2[1] *984:IPCAP3[1] 0.00223979
10 *984:FCAP2[1] *984:FCAP3[0] 0.00264553
11 *984:FCAP2[1] *984:FCAP2[2] 0.00177231
12 *984:FCAP2[1] *984:DACCAP[4] 0.000404808
13 *984:FCAP2[1] *984:IPCAP1[6] 7.63422e-05
14 *984:FCAP2[1] *984:IPCAP1[4] 5.14314e-05
15 *984:FCAP2[1] *735:38 0.000228908
16 *984:FCAP2[1] *754:29 2.54474e-05
17 *984:FCAP2[1] *788:50 0.000795879
18 *723:22 *984:IPCAP2[2] 0.000181132
19 *723:22 *730:22 0.050171
20 *723:22 *778:14 0.00660687
21 *984:refsel[9] *984:FCAP2[1] 0.00016828
22 *984:itrim_sum[0] *723:16 0.000316689
23 *984:itrim_sum[0] *723:18 4.6025e-06
24 *984:itrim_sum[3] *723:16 0.000162333
25 *111:13 *723:8 2.02357e-05
26 *700:6 *723:8 0.000144221
27 *705:22 *723:22 0.0533754
28 *722:10 *723:10 0
*RES
1 *988:analog_ctrl[147] *723:8 7.04717 
2 *723:8 *723:10 73.2354 
3 *723:10 *723:16 7.33543 
4 *723:16 *723:18 366.384 
5 *723:18 *723:20 4.5 
6 *723:20 *723:22 505.304 
7 *723:22 *984:FCAP2[1] 33.0243 
*END

*D_NET *724 0.236655
*CONN
*I *984:FCAP2[2] I *D CF_ADC_DSM20
*I *988:analog_ctrl[148] O *D soc_sys
*CAP
1 *984:FCAP2[2] 0.00102649
2 *988:analog_ctrl[148] 2.01968e-05
3 *724:22 0.00942288
4 *724:20 0.00839639
5 *724:18 0.0182443
6 *724:16 0.0184434
7 *724:10 0.0224602
8 *724:8 0.0222814
9 *984:FCAP2[2] *984:SUMCAPIN[0] 6.99048e-05
10 *984:FCAP2[2] *984:SUMCAPFB[1] 2.04706e-05
11 *984:FCAP2[2] *984:SUMCAPFB[2] 1.06765e-05
12 *984:FCAP2[2] *984:SUMCAP3[1] 0.000154539
13 *984:FCAP2[2] *984:IPCAP3[2] 1.83122e-05
14 *984:FCAP2[2] *984:FCAP3[3] 0.00285097
15 *984:FCAP2[2] *984:FCAP3[0] 0
16 *984:FCAP2[2] *754:29 0.00204446
17 *984:FCAP2[2] *779:32 0.000100938
18 *984:FCAP2[2] *785:50 0.00108358
19 *724:10 *984:itrim_2_3[0] 0.0183386
20 *724:10 *725:10 0
21 *724:22 *729:22 0.0530524
22 *724:22 *779:32 0.000185828
23 *984:FCAP2[1] *984:FCAP2[2] 0.00177231
24 *111:13 *724:8 6.63171e-06
25 *700:6 *724:8 5.27153e-05
26 *708:22 *724:22 0
27 *718:22 *724:22 0.054795
28 *718:42 *984:FCAP2[2] 0.00180271
*RES
1 *988:analog_ctrl[148] *724:8 6.90303 
2 *724:8 *724:10 73.555 
3 *724:10 *724:16 7.4075 
4 *724:16 *724:18 373.518 
5 *724:18 *724:20 3.41 
6 *724:20 *724:22 86.0225 
7 *724:22 *984:FCAP2[2] 24.8367 
*END

*D_NET *725 0.237316
*CONN
*I *984:FCAP2[3] I *D CF_ADC_DSM20
*I *988:analog_ctrl[149] O *D soc_sys
*CAP
1 *984:FCAP2[3] 0.000999869
2 *988:analog_ctrl[149] 3.28656e-05
3 *725:22 0.0105065
4 *725:20 0.00950666
5 *725:18 0.0120489
6 *725:16 0.0123252
7 *725:10 0.0244357
8 *725:8 0.0241923
9 *984:FCAP2[3] *984:SUMCAP2_EN 7.34179e-05
10 *984:FCAP2[3] *984:DACCAPEN 0.000618441
11 *984:FCAP2[3] *734:22 0.000119512
12 *725:10 *984:itrim_2_3[0] 0
13 *725:10 *727:10 0
14 *725:16 *727:16 4.8817e-05
15 *725:18 *727:18 0.0308134
16 *725:22 *734:22 0.0514756
17 *984:refsel[13] *984:FCAP2[3] 0.000248963
18 *984:refsel[12] *984:FCAP2[3] 0.000994848
19 *984:refsel[12] *725:22 2.06702e-05
20 *984:refsel[6] *984:FCAP2[3] 0.00018919
21 *984:refsel[4] *984:FCAP2[3] 0.000581416
22 *984:FCAP2[0] *984:FCAP2[3] 0.00249411
23 *111:13 *725:8 1.33363e-05
24 *700:6 *725:8 9.84683e-05
25 *722:22 *725:22 0.055478
26 *724:10 *725:10 0
*RES
1 *988:analog_ctrl[149] *725:8 6.9751 
2 *725:8 *725:10 73.4485 
3 *725:10 *725:16 7.6237 
4 *725:16 *725:18 385.054 
5 *725:18 *725:20 3.41 
6 *725:20 *725:22 87.9683 
7 *725:22 *984:FCAP2[3] 13.2941 
*END

*D_NET *726 0.194762
*CONN
*I *984:buf_sel I *D CF_ADC_DSM20
*I *988:analog_ctrl[14] O *D soc_sys
*CAP
1 *984:buf_sel 8.3026e-05
2 *988:analog_ctrl[14] 0.000833603
3 *726:17 0.0172826
4 *726:15 0.0171995
5 *726:13 0.0235755
6 *726:11 0.0326835
7 *726:7 0.00994162
8 *726:11 *799:9 0
9 *726:13 *831:5 0.0617043
10 *726:13 *832:5 0
11 *726:13 *843:10 0.00945986
12 *66:13 *726:11 0.0217063
13 *88:12 *726:7 0.00024721
14 *699:19 *984:buf_sel 4.45966e-05
*RES
1 *988:analog_ctrl[14] *726:7 19.2582 
2 *726:7 *726:11 38.4093 
3 *726:11 *726:13 758.446 
4 *726:13 *726:15 3.41 
5 *726:15 *726:17 50.2054 
6 *726:17 *984:buf_sel 5.32964 
*END

*D_NET *727 0.241309
*CONN
*I *984:FCAP2EN I *D CF_ADC_DSM20
*I *988:analog_ctrl[150] O *D soc_sys
*CAP
1 *984:FCAP2EN 0.00106881
2 *988:analog_ctrl[150] 2.01968e-05
3 *727:22 0.0123129
4 *727:20 0.0112441
5 *727:18 0.0116684
6 *727:16 0.0116996
7 *727:10 0.0203019
8 *727:8 0.0202908
9 *984:FCAP2EN *984:SUMCAPIN[3] 0
10 *984:FCAP2EN *984:SUMCAP1[1] 0.000991992
11 *984:FCAP2EN *984:IPCAP1[2] 0.000779917
12 *984:FCAP2EN *984:IPCAP1OFFSET 3.14954e-05
13 *984:FCAP2EN *984:IPCAP1EN 4.05618e-05
14 *727:10 *728:12 0.0114903
15 *727:22 *984:bw[0] 0.00136629
16 *727:22 *984:SUMCAPIN[2] 4.97144e-05
17 *727:22 *984:SUMCAP1[1] 2.83129e-05
18 *727:22 *765:22 0.00538312
19 *727:22 *777:22 0.00637064
20 *727:22 *823:25 0.00219503
21 *984:refsel[8] *984:FCAP2EN 4.18384e-06
22 *984:refsel[8] *727:22 1.90602e-05
23 *984:FCAP1[6] *984:FCAP2EN 1.40157e-05
24 *984:FCAP1[0] *984:FCAP2EN 0.000466967
25 *984:FCAP1EN *984:FCAP2EN 1.06839e-05
26 *984:FCAP1OFFSET *984:FCAP2EN 0.000569372
27 *111:13 *727:8 6.63171e-06
28 *700:6 *727:8 5.27153e-05
29 *702:22 *727:22 0.0205379
30 *706:22 *727:22 0.0124188
31 *719:62 *984:FCAP2EN 0.00208535
32 *721:22 *727:22 0.056927
33 *725:10 *727:10 0
34 *725:16 *727:16 4.8817e-05
35 *725:18 *727:18 0.0308134
*RES
1 *988:analog_ctrl[150] *727:8 6.90303 
2 *727:8 *727:10 73.555 
3 *727:10 *727:16 6.90303 
4 *727:16 *727:18 378.375 
5 *727:18 *727:20 3.41 
6 *727:20 *727:22 88.9773 
7 *727:22 *984:FCAP2EN 41.4248 
*END

*D_NET *728 0.234677
*CONN
*I *984:FCAP3[0] I *D CF_ADC_DSM20
*I *988:analog_ctrl[151] O *D soc_sys
*CAP
1 *984:FCAP3[0] 0.00277655
2 *988:analog_ctrl[151] 0.000129964
3 *728:26 0.0270977
4 *728:24 0.0822596
5 *728:12 0.0712229
6 *728:8 0.0134145
7 *984:FCAP3[0] *984:SUMCAPFB[1] 0.000113141
8 *984:FCAP3[0] *984:IPCAP3[1] 0.00124683
9 *984:FCAP3[0] *984:IPCAP2[2] 0.000203495
10 *984:FCAP3[0] *984:DACCAP[4] 0.000479082
11 *984:FCAP3[0] *984:IPCAP1[6] 0.00087149
12 *984:FCAP3[0] *984:SUMCAPIN_EN 0.00231433
13 *984:FCAP3[0] *747:14 0.000171512
14 *984:FCAP3[0] *758:13 0.000251734
15 *984:FCAP3[0] *771:57 4.73891e-05
16 *728:24 *732:9 0.00229605
17 *728:24 *740:9 0.00241673
18 *728:24 *740:13 0.000198435
19 *728:24 *754:11 0.00179502
20 *728:24 *758:9 0.000432493
21 *728:24 *771:9 0.00212485
22 *728:24 *772:9 0.00207372
23 *728:24 *776:9 0.00189677
24 *728:24 *803:13 0.000208119
25 *728:24 *808:9 0.00151767
26 *728:24 *844:9 4.98422e-05
27 *984:FCAP2[2] *984:FCAP3[0] 0
28 *984:FCAP2[1] *984:FCAP3[0] 0.00264553
29 *984:vpwr_ext *984:FCAP3[0] 0.000577721
30 *18:34 *728:26 0
31 *39:9 *728:24 0.000574409
32 *111:13 *728:8 4.34635e-05
33 *700:6 *728:8 0.000317695
34 *704:9 *728:24 0.00122918
35 *716:25 *984:FCAP3[0] 0.000188992
36 *727:10 *728:12 0.0114903
*RES
1 *988:analog_ctrl[151] *728:8 7.33543 
2 *728:8 *728:12 46.2363 
3 *728:12 *728:24 20.9607 
4 *728:24 *728:26 488.268 
5 *728:26 *984:FCAP3[0] 30.007 
*END

*D_NET *729 0.227965
*CONN
*I *984:FCAP3[1] I *D CF_ADC_DSM20
*I *988:analog_ctrl[152] O *D soc_sys
*CAP
1 *984:FCAP3[1] 0.00186172
2 *988:analog_ctrl[152] 2.01968e-05
3 *729:22 0.00959139
4 *729:20 0.00772967
5 *729:18 0.0182822
6 *729:16 0.0185027
7 *729:10 0.021292
8 *729:8 0.0210916
9 *984:FCAP3[1] *984:SUMCAPIN[3] 0.000115407
10 *984:FCAP3[1] *984:SUMCAP3[1] 1.92903e-05
11 *984:FCAP3[1] *984:SUMCAP1[1] 0.00149347
12 *984:FCAP3[1] *984:IPCAP3[2] 0.000206214
13 *984:FCAP3[1] *984:IPCAP2[1] 5.75125e-05
14 *984:FCAP3[1] *984:FCAP3[3] 1.65923e-05
15 *984:FCAP3[1] *984:DACCAPEN 0.000491293
16 *984:FCAP3[1] *984:DACCAP[4] 0.00157981
17 *984:FCAP3[1] *984:IPCAP1OFFSET 7.63036e-05
18 *984:FCAP3[1] *735:38 0.000101419
19 *984:FCAP3[1] *736:22 0.00027695
20 *984:FCAP3[1] *741:22 0.00286826
21 *984:FCAP3[1] *821:25 0.000223526
22 *729:10 *730:10 0
23 *729:22 *731:22 0.0523552
24 *984:refsel[9] *984:FCAP3[1] 0.000513125
25 *984:refsel[8] *984:FCAP3[1] 9.14867e-05
26 *984:itrim_sum[2] *729:10 0.0143385
27 *111:13 *729:8 6.63171e-06
28 *700:6 *729:8 5.27153e-05
29 *708:22 *984:FCAP3[1] 0.000363415
30 *708:22 *729:22 0.000142591
31 *718:42 *984:FCAP3[1] 0.000274319
32 *719:62 *984:FCAP3[1] 0.000847869
33 *721:22 *984:FCAP3[1] 2.92751e-05
34 *724:22 *729:22 0.0530524
*RES
1 *988:analog_ctrl[152] *729:8 6.90303 
2 *729:8 *729:10 73.555 
3 *729:10 *729:16 7.47957 
4 *729:16 *729:18 374.125 
5 *729:18 *729:20 3.41 
6 *729:20 *729:22 82.7795 
7 *729:22 *984:FCAP3[1] 42.6899 
*END

*D_NET *730 0.228758
*CONN
*I *984:FCAP3[2] I *D CF_ADC_DSM20
*I *988:analog_ctrl[153] O *D soc_sys
*CAP
1 *984:FCAP3[2] 0.00166154
2 *988:analog_ctrl[153] 3.28656e-05
3 *730:22 0.00851986
4 *730:20 0.00685832
5 *730:18 0.0112563
6 *730:16 0.0115395
7 *730:10 0.0216456
8 *730:8 0.0213952
9 *984:FCAP3[2] *984:IPCAP2[2] 0.000412864
10 *984:FCAP3[2] *984:IPCAP1[6] 0.000906385
11 *984:FCAP3[2] *984:IPCAP1[4] 0.00233827
12 *984:FCAP3[2] *771:57 0.000632266
13 *730:10 *731:10 0
14 *730:16 *731:16 4.73891e-05
15 *730:18 *731:18 0.0297274
16 *730:22 *984:IPCAP2[2] 0.000167976
17 *730:22 *738:22 0.04692
18 *730:22 *778:14 0.006127
19 *984:refsel[9] *984:FCAP3[2] 4.21517e-05
20 *984:itrim_sum[2] *730:10 0
21 *984:itrim_sum[5] *730:10 0.00819971
22 *111:13 *730:8 1.33363e-05
23 *700:6 *730:8 9.84683e-05
24 *705:22 *730:22 4.49306e-05
25 *723:22 *730:22 0.050171
26 *729:10 *730:10 0
*RES
1 *988:analog_ctrl[153] *730:8 6.9751 
2 *730:8 *730:10 73.4485 
3 *730:10 *730:16 7.6237 
4 *730:16 *730:18 365.473 
5 *730:18 *730:20 4.5 
6 *730:20 *730:22 476.143 
7 *730:22 *984:FCAP3[2] 30.6819 
*END

*D_NET *731 0.236357
*CONN
*I *984:FCAP3[3] I *D CF_ADC_DSM20
*I *988:analog_ctrl[154] O *D soc_sys
*CAP
1 *984:FCAP3[3] 0.00110415
2 *988:analog_ctrl[154] 2.01968e-05
3 *731:22 0.00908973
4 *731:20 0.00798557
5 *731:18 0.0117331
6 *731:16 0.0117944
7 *731:10 0.0244454
8 *731:8 0.0244043
9 *984:FCAP3[3] *984:SUMCAPFB[2] 2.40838e-05
10 *984:FCAP3[3] *984:SUMCAP3[1] 0.00078934
11 *984:FCAP3[3] *984:IPCAP3[2] 0.00309405
12 *984:FCAP3[3] *984:DACCAP[4] 3.01818e-05
13 *984:FCAP3[3] *984:IPCAP1EN 0.000731216
14 *984:FCAP3[3] *754:29 9.96324e-05
15 *984:FCAP3[3] *771:57 0.00124098
16 *731:22 *984:SUMCAPFB[2] 9.55711e-05
17 *731:22 *741:22 0.0476744
18 *731:22 *779:32 1.08779e-05
19 *984:FCAP3[1] *984:FCAP3[3] 1.65923e-05
20 *984:FCAP2[2] *984:FCAP3[3] 0.00285097
21 *984:itrim_sum[5] *731:10 0.00565315
22 *111:13 *731:8 6.63171e-06
23 *700:6 *731:8 5.27153e-05
24 *708:22 *731:22 0.00127995
25 *729:22 *731:22 0.0523552
26 *730:10 *731:10 0
27 *730:16 *731:16 4.73891e-05
28 *730:18 *731:18 0.0297274
*RES
1 *988:analog_ctrl[154] *731:8 6.90303 
2 *731:8 *731:10 73.555 
3 *731:10 *731:16 6.9751 
4 *731:16 *731:18 374.732 
5 *731:18 *731:20 3.41 
6 *731:20 *731:22 81.9147 
7 *731:22 *984:FCAP3[3] 36.3201 
*END

*D_NET *732 0.214377
*CONN
*I *984:FCAP3EN I *D CF_ADC_DSM20
*I *988:analog_ctrl[155] O *D soc_sys
*CAP
1 *984:FCAP3EN 0.000212178
2 *988:analog_ctrl[155] 0.0135734
3 *732:13 0.0241436
4 *732:11 0.0239314
5 *732:9 0.0128762
6 *732:7 0.0128762
7 *732:5 0.0135734
8 *984:FCAP3EN *984:RESCAP[1] 0.000134091
9 *732:9 *740:9 0.00707639
10 *732:9 *754:11 0.0268906
11 *732:9 *772:9 0.034831
12 *732:9 *776:9 0.000600912
13 *732:9 *808:9 5.58004e-06
14 *732:13 *984:RESCAPEN 0.00412266
15 *732:13 *751:18 0
16 *732:13 *760:18 0.00941895
17 *732:13 *762:18 0
18 *39:9 *732:9 0.0146442
19 *108:29 *732:9 0.00288939
20 *704:9 *732:9 0.00998793
21 *713:14 *984:FCAP3EN 4.73953e-05
22 *715:9 *732:9 0
23 *717:18 *732:13 0
24 *720:19 *732:9 0.000245932
25 *728:24 *732:9 0.00229605
*RES
1 *988:analog_ctrl[155] *732:5 261.134 
2 *732:5 *732:7 3.41 
3 *732:7 *732:9 91.1032 
4 *732:9 *732:11 3.41 
5 *732:11 *732:13 88.5762 
6 *732:13 *984:FCAP3EN 15.1084 
*END

*D_NET *733 0.245193
*CONN
*I *984:IPCAP1[0] I *D CF_ADC_DSM20
*I *988:analog_ctrl[156] O *D soc_sys
*CAP
1 *984:IPCAP1[0] 0.00171735
2 *988:analog_ctrl[156] 2.01968e-05
3 *733:14 0.0145796
4 *733:12 0.0128622
5 *733:10 0.0393363
6 *733:8 0.0393565
7 *984:IPCAP1[0] *984:IPCAP1[5] 0.00189717
8 *984:IPCAP1[0] *984:IPCAP1OFFSET 0.000288541
9 *984:IPCAP1[0] *796:13 0
10 *984:IPCAP1[0] *828:31 0.000238124
11 *984:IPCAP1[0] *866:13 0.000206831
12 *733:10 *734:10 0
13 *733:14 *737:29 0.00026422
14 *733:14 *746:14 0.0516656
15 *984:refsel[2] *733:14 0.00014968
16 *984:FCAP1[3] *984:IPCAP1[0] 0.00249477
17 *984:FCAP1[1] *984:IPCAP1[0] 0.00113828
18 *984:itrim_2_3[3] *733:10 0.0186409
19 *111:13 *733:8 6.63171e-06
20 *697:26 *733:14 0.00126422
21 *700:6 *733:8 5.27153e-05
22 *712:30 *984:IPCAP1[0] 0.000891647
23 *713:14 *733:14 4.51406e-05
24 *714:14 *733:14 0.0580764
25 *716:25 *733:14 0
*RES
1 *988:analog_ctrl[156] *733:8 6.90303 
2 *733:8 *733:10 134.812 
3 *733:10 *733:12 3.41 
4 *733:12 *733:14 94.5985 
5 *733:14 *984:IPCAP1[0] 25.7228 
*END

*D_NET *734 0.215211
*CONN
*I *984:IPCAP1[1] I *D CF_ADC_DSM20
*I *988:analog_ctrl[157] O *D soc_sys
*CAP
1 *984:IPCAP1[1] 1.7254e-05
2 *988:analog_ctrl[157] 3.28656e-05
3 *734:22 0.00897429
4 *734:20 0.00895704
5 *734:18 0.0196109
6 *734:16 0.0199667
7 *734:10 0.0232156
8 *734:8 0.0228926
9 *734:10 *735:10 0.0027795
10 *734:22 *984:SUMCAP2_EN 0.0019457
11 *734:22 *736:22 0.0543956
12 *984:refsel[5] *734:22 0.000144784
13 *984:refsel[4] *734:22 8.38123e-05
14 *984:FCAP2[3] *734:22 0.000119512
15 *984:FCAP2[0] *734:22 0.000475691
16 *984:itrim_2_3[3] *734:10 0
17 *111:13 *734:8 1.33363e-05
18 *700:6 *734:8 9.84683e-05
19 *718:42 *734:22 1.15412e-05
20 *725:22 *734:22 0.0514756
21 *733:10 *734:10 0
*RES
1 *988:analog_ctrl[157] *734:8 6.9751 
2 *734:8 *734:10 73.3419 
3 *734:10 *734:16 7.76783 
4 *734:16 *734:18 386.268 
5 *734:18 *734:20 3.41 
6 *734:20 *734:22 87.3025 
7 *734:22 *984:IPCAP1[1] 8.18679 
*END

*D_NET *735 0.211814
*CONN
*I *984:IPCAP1[2] I *D CF_ADC_DSM20
*I *988:analog_ctrl[158] O *D soc_sys
*CAP
1 *984:IPCAP1[2] 0.000816453
2 *988:analog_ctrl[158] 4.1259e-05
3 *735:38 0.00247895
4 *735:18 0.0171956
5 *735:16 0.0155331
6 *735:14 0.018917
7 *735:12 0.018917
8 *735:10 0.0208836
9 *735:8 0.0209248
10 *984:IPCAP1[2] *984:bw[0] 0.000142754
11 *984:IPCAP1[2] *984:SUMCAPIN[2] 3.13654e-05
12 *984:IPCAP1[2] *984:SUMCAP1[1] 0.00183053
13 *984:IPCAP1[2] *984:IPCAP1OFFSET 0.000533401
14 *735:18 *775:18 0.0299409
15 *735:38 *984:bw[0] 0.000149795
16 *735:38 *984:SUMCAPIN[3] 0.000251189
17 *735:38 *984:IPCAP1[4] 5.19522e-06
18 *735:38 *768:36 0
19 *735:38 *788:50 0.000122565
20 *984:refsel[9] *735:38 3.07351e-06
21 *984:refsel[7] *984:IPCAP1[2] 0
22 *984:FCAP3[1] *735:38 0.000101419
23 *984:FCAP2[1] *735:38 0.000228908
24 *984:FCAP2EN *984:IPCAP1[2] 0.000779917
25 *984:FCAP1OFFSET *984:IPCAP1[2] 0.00212721
26 *111:13 *735:8 1.23875e-05
27 *700:6 *735:8 9.64108e-05
28 *703:18 *735:18 0.00505112
29 *703:46 *735:38 0.000503538
30 *717:14 *735:14 0.050566
31 *719:62 *984:IPCAP1[2] 0.000263054
32 *719:62 *735:38 5.05693e-05
33 *721:22 *984:IPCAP1[2] 0.000241306
34 *721:22 *735:38 0.000294463
35 *734:10 *735:10 0.0027795
*RES
1 *988:analog_ctrl[158] *735:8 6.9751 
2 *735:8 *735:10 51.8222 
3 *735:10 *735:12 3.41 
4 *735:12 *735:14 79.8608 
5 *735:14 *735:16 3.41 
6 *735:16 *735:18 480.83 
7 *735:18 *735:38 46.8214 
8 *735:38 *984:IPCAP1[2] 37.9852 
*END

*D_NET *736 0.214898
*CONN
*I *984:IPCAP1[3] I *D CF_ADC_DSM20
*I *988:analog_ctrl[159] O *D soc_sys
*CAP
1 *984:IPCAP1[3] 1.7254e-05
2 *988:analog_ctrl[159] 3.28656e-05
3 *736:22 0.00929391
4 *736:20 0.00927666
5 *736:18 0.0190294
6 *736:16 0.0191873
7 *736:10 0.0222121
8 *736:8 0.022087
9 *736:10 *738:10 0
10 *736:22 *744:22 0.0498349
11 *984:refsel[5] *736:22 0.000607812
12 *984:FCAP3[1] *736:22 0.00027695
13 *111:13 *736:8 1.33363e-05
14 *684:13 *736:10 0.00839613
15 *700:6 *736:8 9.84683e-05
16 *718:42 *736:22 0.000138696
17 *734:22 *736:22 0.0543956
*RES
1 *988:analog_ctrl[159] *736:8 6.9751 
2 *736:8 *736:10 73.3419 
3 *736:10 *736:16 7.26337 
4 *736:16 *736:18 386.875 
5 *736:18 *736:20 3.41 
6 *736:20 *736:22 86.0868 
7 *736:22 *984:IPCAP1[3] 8.18679 
*END

*D_NET *737 0.356398
*CONN
*I *984:EN_DEM I *D CF_ADC_DSM20
*I *988:analog_ctrl[15] O *D soc_sys
*CAP
1 *984:EN_DEM 0.00130688
2 *988:analog_ctrl[15] 0.0372709
3 *737:29 0.00463236
4 *737:27 0.00341019
5 *737:17 0.00877767
6 *737:15 0.0087885
7 *737:9 0.0230208
8 *737:7 0.0229253
9 *737:5 0.0372709
10 *984:EN_DEM *759:13 0.00161475
11 *737:9 *827:9 0.035748
12 *737:15 *827:15 0.000188761
13 *737:17 *827:17 0.0583195
14 *737:17 *827:21 0.00366475
15 *737:27 *827:33 0.000147755
16 *737:29 *984:DACCAP[5] 3.32713e-05
17 *737:29 *827:35 0.0118111
18 *984:refsel[2] *737:27 0.000146371
19 *984:refsel[2] *737:29 0.00141737
20 *984:FCAP1[4] *737:29 2.75959e-05
21 *984:VREFQ *737:9 0.00239115
22 *984:PBUF_INN *737:15 0.000136896
23 *19:19 *737:9 0
24 *40:23 *984:EN_DEM 0
25 *40:37 *737:17 0
26 *120:17 *737:5 0.0181948
27 *697:20 *737:9 2.72228e-05
28 *697:22 *737:17 0.0579361
29 *697:26 *737:17 0.00366721
30 *713:14 *737:17 0.000111104
31 *714:14 *737:17 0.012122
32 *714:14 *737:27 0.000101419
33 *714:14 *737:29 0.000923306
34 *733:14 *737:29 0.00026422
*RES
1 *988:analog_ctrl[15] *737:5 763.848 
2 *737:5 *737:7 3.41 
3 *737:7 *737:9 87.0315 
4 *737:9 *737:15 11.2225 
5 *737:15 *737:17 617.018 
6 *737:17 *737:27 12.1429 
7 *737:27 *737:29 111.839 
8 *737:29 *984:EN_DEM 29.3065 
*END

*D_NET *738 0.18237
*CONN
*I *984:IPCAP1[4] I *D CF_ADC_DSM20
*I *988:analog_ctrl[160] O *D soc_sys
*CAP
1 *984:IPCAP1[4] 0.00137188
2 *988:analog_ctrl[160] 2.01968e-05
3 *738:22 0.0155515
4 *738:20 0.0141796
5 *738:18 0.0179082
6 *738:16 0.0182242
7 *738:10 0.0200619
8 *738:8 0.0197661
9 *984:IPCAP1[4] *984:IPCAP2[2] 4.65519e-05
10 *984:IPCAP1[4] *984:IPCAP1[6] 0.00137541
11 *984:IPCAP1[4] *771:57 0
12 *984:IPCAP1[4] *784:14 0.000755511
13 *984:IPCAP1[4] *788:50 0.000343087
14 *738:10 *739:10 0
15 *738:22 *984:IPCAP2[2] 0.000160191
16 *738:22 *745:14 0.00133733
17 *738:22 *778:14 0.0061192
18 *984:refsel[9] *984:IPCAP1[4] 6.30931e-05
19 *984:FCAP3[2] *984:IPCAP1[4] 0.00233827
20 *984:FCAP2[1] *984:IPCAP1[4] 5.14314e-05
21 *984:vpwrd_int *984:IPCAP1[4] 0.00275748
22 *984:iin *738:10 0.000677464
23 *111:13 *738:8 6.63171e-06
24 *684:13 *738:10 0.0122536
25 *700:6 *738:8 5.27153e-05
26 *716:25 *984:IPCAP1[4] 2.30802e-05
27 *730:22 *738:22 0.04692
28 *735:38 *984:IPCAP1[4] 5.19522e-06
29 *736:10 *738:10 0
*RES
1 *988:analog_ctrl[160] *738:8 6.90303 
2 *738:8 *738:10 73.3419 
3 *738:10 *738:16 7.6237 
4 *738:16 *738:18 366.384 
5 *738:18 *738:20 4.5 
6 *738:20 *738:22 444.107 
7 *738:22 *984:IPCAP1[4] 32.6242 
*END

*D_NET *739 0.208716
*CONN
*I *984:IPCAP1[5] I *D CF_ADC_DSM20
*I *988:analog_ctrl[161] O *D soc_sys
*CAP
1 *984:IPCAP1[5] 0.00211121
2 *988:analog_ctrl[161] 2.01968e-05
3 *739:18 0.0157028
4 *739:16 0.0135916
5 *739:14 0.0216472
6 *739:12 0.0216472
7 *739:10 0.0234604
8 *739:8 0.0234806
9 *984:IPCAP1[5] *984:IPCAP1OFFSET 0.000231394
10 *984:IPCAP1[5] *984:IPCAP3EN 0.00243391
11 *984:IPCAP1[5] *751:18 8.25017e-05
12 *739:14 *751:14 0.0499381
13 *739:14 *762:14 0
14 *739:18 *984:ODET_TH[0] 4.56733e-05
15 *739:18 *751:18 0.0294605
16 *984:refsel[4] *984:IPCAP1[5] 0.000123922
17 *984:IPCAP1[0] *984:IPCAP1[5] 0.00189717
18 *984:FCAP1[3] *984:IPCAP1[5] 0.00208021
19 *984:FCAP1[2] *984:IPCAP1[5] 0.000601592
20 *984:FCAP1[1] *984:IPCAP1[5] 0.00010026
21 *111:13 *739:8 6.63171e-06
22 *700:6 *739:8 5.27153e-05
23 *738:10 *739:10 0
*RES
1 *988:analog_ctrl[161] *739:8 6.90303 
2 *739:8 *739:10 70.8917 
3 *739:10 *739:12 3.41 
4 *739:12 *739:14 87.9683 
5 *739:14 *739:16 3.41 
6 *739:16 *739:18 62.228 
7 *739:18 *984:IPCAP1[5] 22.9442 
*END

*D_NET *740 0.214426
*CONN
*I *984:IPCAP1[6] I *D CF_ADC_DSM20
*I *988:analog_ctrl[162] O *D soc_sys
*CAP
1 *984:IPCAP1[6] 0.00243593
2 *988:analog_ctrl[162] 0.0136269
3 *740:13 0.0362184
4 *740:11 0.0337824
5 *740:9 0.0108024
6 *740:7 0.0108024
7 *740:5 0.0136269
8 *984:IPCAP1[6] *984:IPCAP2[2] 0.00217204
9 *984:IPCAP1[6] *984:IPCAP1EN 0
10 *984:IPCAP1[6] *754:29 0.000101762
11 *984:IPCAP1[6] *758:13 0.000678914
12 *984:IPCAP1[6] *784:14 0.000556384
13 *984:IPCAP1[6] *788:50 9.80649e-05
14 *984:IPCAP1[6] *789:18 4.73891e-05
15 *740:9 *754:11 0.0268858
16 *740:9 *758:9 0.0391736
17 *740:13 *803:13 0
18 *984:FCAP3[2] *984:IPCAP1[6] 0.000906385
19 *984:FCAP3[0] *984:IPCAP1[6] 0.00087149
20 *984:FCAP2[1] *984:IPCAP1[6] 7.63422e-05
21 *984:IPCAP1[4] *984:IPCAP1[6] 0.00137541
22 *32:13 *740:9 0.00120247
23 *35:13 *740:9 0.00111513
24 *39:9 *740:9 0.00817761
25 *728:24 *740:9 0.00241673
26 *728:24 *740:13 0.000198435
27 *732:9 *740:9 0.00707639
*RES
1 *988:analog_ctrl[162] *740:5 262.348 
2 *740:5 *740:7 3.41 
3 *740:7 *740:9 75.4648 
4 *740:9 *740:11 3.41 
5 *740:11 *740:13 89.9611 
6 *740:13 *984:IPCAP1[6] 29.5417 
*END

*D_NET *741 0.204148
*CONN
*I *984:IPCAP1EN I *D CF_ADC_DSM20
*I *988:analog_ctrl[163] O *D soc_sys
*CAP
1 *984:IPCAP1EN 0.00109261
2 *988:analog_ctrl[163] 3.28656e-05
3 *741:22 0.00859729
4 *741:20 0.00750467
5 *741:18 0.0184679
6 *741:16 0.0186472
7 *741:10 0.0243098
8 *741:8 0.0241633
9 *984:IPCAP1EN *984:SUMCAPIN[3] 5.14415e-05
10 *984:IPCAP1EN *984:SUMCAP3[1] 1.23915e-05
11 *984:IPCAP1EN *984:DACCAP[4] 0.00183235
12 *984:IPCAP1EN *754:29 0.000175217
13 *741:10 *742:10 0
14 *741:22 *984:SUMCAPFB[2] 0.000528804
15 *741:22 *984:SUMCAP3[1] 0.000439057
16 *741:22 *984:IPCAP3[2] 4.94784e-05
17 *741:22 *750:22 0.0432297
18 *741:22 *821:25 0.000233389
19 *984:FCAP3[3] *984:IPCAP1EN 0.000731216
20 *984:FCAP3[1] *741:22 0.00286826
21 *984:IPCAP1[6] *984:IPCAP1EN 0
22 *984:FCAP1[2] *984:IPCAP1EN 0
23 *984:FCAP1[0] *984:IPCAP1EN 0.000221333
24 *984:FCAP2EN *984:IPCAP1EN 4.05618e-05
25 *984:FCAP1OFFSET *984:IPCAP1EN 1.1537e-05
26 *111:13 *741:8 1.33363e-05
27 *700:6 *741:8 9.84683e-05
28 *708:22 *741:22 0.00159711
29 *719:62 *984:IPCAP1EN 0.00023707
30 *719:62 *741:22 0.00128707
31 *731:22 *741:22 0.0476744
*RES
1 *988:analog_ctrl[163] *741:8 6.9751 
2 *741:8 *741:10 73.2354 
3 *741:10 *741:16 7.33543 
4 *741:16 *741:18 377.161 
5 *741:18 *741:20 3.41 
6 *741:20 *741:22 78.5997 
7 *741:22 *984:IPCAP1EN 30.6361 
*END

*D_NET *742 0.208687
*CONN
*I *984:IPCAP1OFFSET I *D CF_ADC_DSM20
*I *988:analog_ctrl[164] O *D soc_sys
*CAP
1 *984:IPCAP1OFFSET 0.00115331
2 *988:analog_ctrl[164] 2.01968e-05
3 *742:22 0.0139448
4 *742:20 0.0127915
5 *742:18 0.0117209
6 *742:16 0.0119778
7 *742:10 0.0244446
8 *742:8 0.0242079
9 *984:IPCAP1OFFSET *984:bw[0] 5.45242e-05
10 *984:IPCAP1OFFSET *984:SUMCAPIN[3] 0
11 *984:IPCAP1OFFSET *984:SUMCAPIN[2] 0.000338783
12 *984:IPCAP1OFFSET *984:SUMCAP1[1] 0.00125681
13 *984:IPCAP1OFFSET *984:DACCAPEN 0.000859297
14 *742:10 *743:10 0
15 *742:16 *743:16 4.98422e-05
16 *742:18 *743:18 0.0308352
17 *742:22 *752:22 0.0412989
18 *742:22 *786:25 0.00795389
19 *742:22 *821:25 0.000400804
20 *742:22 *823:25 1.32552e-05
21 *742:22 *825:25 0
22 *984:refsel[8] *984:IPCAP1OFFSET 5.35475e-05
23 *984:refsel[7] *984:IPCAP1OFFSET 0.000610734
24 *984:refsel[4] *984:IPCAP1OFFSET 9.31834e-05
25 *984:FCAP3[1] *984:IPCAP1OFFSET 7.63036e-05
26 *984:IPCAP1[5] *984:IPCAP1OFFSET 0.000231394
27 *984:IPCAP1[2] *984:IPCAP1OFFSET 0.000533401
28 *984:IPCAP1[0] *984:IPCAP1OFFSET 0.000288541
29 *984:FCAP1[1] *984:IPCAP1OFFSET 0.000202104
30 *984:FCAP2EN *984:IPCAP1OFFSET 3.14954e-05
31 *984:FCAP1OFFSET *984:IPCAP1OFFSET 0.00227427
32 *111:13 *742:8 6.63171e-06
33 *700:6 *742:8 5.27153e-05
34 *706:22 *742:22 0.000458983
35 *708:22 *742:22 0.0176854
36 *719:62 *984:IPCAP1OFFSET 0.000629822
37 *721:22 *984:IPCAP1OFFSET 0.00130668
38 *721:22 *742:22 0.000829289
39 *741:10 *742:10 0
*RES
1 *988:analog_ctrl[164] *742:8 6.90303 
2 *742:8 *742:10 73.3419 
3 *742:10 *742:16 7.6237 
4 *742:16 *742:18 378.83 
5 *742:18 *742:20 4.5 
6 *742:20 *742:22 426.857 
7 *742:22 *984:IPCAP1OFFSET 38.8774 
*END

*D_NET *743 0.18163
*CONN
*I *984:IPCAP2[0] I *D CF_ADC_DSM20
*I *988:analog_ctrl[165] O *D soc_sys
*CAP
1 *984:IPCAP2[0] 1.7254e-05
2 *988:analog_ctrl[165] 2.01968e-05
3 *743:22 0.0175107
4 *743:20 0.0174934
5 *743:18 0.0124702
6 *743:16 0.0125312
7 *743:10 0.0242054
8 *743:8 0.0241646
9 *743:10 *744:10 0
10 *743:22 *984:SUMCAP3[0] 0.00341187
11 *743:22 *984:IPCAP2[1] 0.000318218
12 *743:22 *984:DACCAP[0] 0.000260987
13 *743:22 *744:22 0
14 *743:22 *767:22 0.00323478
15 *743:22 *767:42 0.00166875
16 *743:22 *780:26 0.0304555
17 *984:refsel[10] *743:22 0.00292223
18 *111:13 *743:8 6.63171e-06
19 *700:6 *743:8 5.27153e-05
20 *742:10 *743:10 0
21 *742:16 *743:16 4.98422e-05
22 *742:18 *743:18 0.0308352
*RES
1 *988:analog_ctrl[165] *743:8 6.90303 
2 *743:8 *743:10 73.2354 
3 *743:10 *743:16 6.9751 
4 *743:16 *743:18 392.339 
5 *743:18 *743:20 3.41 
6 *743:20 *743:22 80.4828 
7 *743:22 *984:IPCAP2[0] 8.18679 
*END

*D_NET *744 0.195943
*CONN
*I *984:IPCAP2[1] I *D CF_ADC_DSM20
*I *988:analog_ctrl[166] O *D soc_sys
*CAP
1 *984:IPCAP2[1] 0.000372692
2 *988:analog_ctrl[166] 2.01968e-05
3 *744:22 0.0103629
4 *744:20 0.00999023
5 *744:18 0.0191087
6 *744:16 0.0192451
7 *744:10 0.0242869
8 *744:8 0.0241707
9 *984:IPCAP2[1] *984:SUMCAP2[1] 5.96303e-06
10 *984:IPCAP2[1] *984:SUMCAP1_EN 1.67196e-05
11 *984:IPCAP2[1] *768:36 9.07615e-06
12 *744:10 *745:10 0
13 *744:22 *984:SUMCAPFB[0] 0.0024617
14 *744:22 *984:SUMCAP2[1] 0.000937935
15 *744:22 *767:22 0.000101149
16 *744:22 *768:36 6.77335e-05
17 *744:22 *769:22 0.0344379
18 *984:refsel[11] *744:22 4.6841e-05
19 *984:FCAP3[1] *984:IPCAP2[1] 5.75125e-05
20 *111:13 *744:8 6.63171e-06
21 *700:6 *744:8 5.27153e-05
22 *718:42 *744:22 3.09773e-05
23 *736:22 *744:22 0.0498349
24 *743:10 *744:10 0
25 *743:22 *984:IPCAP2[1] 0.000318218
26 *743:22 *744:22 0
*RES
1 *988:analog_ctrl[166] *744:8 6.90303 
2 *744:8 *744:10 73.2354 
3 *744:10 *744:16 7.1913 
4 *744:16 *744:18 388.089 
5 *744:18 *744:20 3.41 
6 *744:20 *744:22 78.8879 
7 *744:22 *984:IPCAP2[1] 20.4824 
*END

*D_NET *745 0.189208
*CONN
*I *984:IPCAP2[2] I *D CF_ADC_DSM20
*I *988:analog_ctrl[167] O *D soc_sys
*CAP
1 *984:IPCAP2[2] 0.00212561
2 *988:analog_ctrl[167] 3.28656e-05
3 *745:14 0.0145744
4 *745:12 0.0124487
5 *745:10 0.0446979
6 *745:8 0.0447308
7 *984:IPCAP2[2] *984:SUMCAPIN[0] 4.73891e-05
8 *984:IPCAP2[2] *984:SUMCAPFB[1] 7.29814e-05
9 *984:IPCAP2[2] *984:IPCAP3[1] 9.20155e-05
10 *984:IPCAP2[2] *754:29 0.0005829
11 *984:IPCAP2[2] *771:57 4.65519e-05
12 *745:10 *746:10 0
13 *745:14 *749:14 0.0432811
14 *745:14 *754:29 0.0141682
15 *745:14 *774:20 4.98422e-05
16 *745:14 *778:14 0.00516145
17 *984:refsel[9] *984:IPCAP2[2] 0.00197224
18 *984:FCAP3[2] *984:IPCAP2[2] 0.000412864
19 *984:FCAP3[0] *984:IPCAP2[2] 0.000203495
20 *984:IPCAP1[6] *984:IPCAP2[2] 0.00217204
21 *984:IPCAP1[4] *984:IPCAP2[2] 4.65519e-05
22 *111:13 *745:8 1.33363e-05
23 *700:6 *745:8 9.84683e-05
24 *705:22 *984:IPCAP2[2] 0.000330051
25 *718:22 *745:14 0
26 *723:22 *984:IPCAP2[2] 0.000181132
27 *730:22 *984:IPCAP2[2] 0.000167976
28 *738:22 *984:IPCAP2[2] 0.000160191
29 *738:22 *745:14 0.00133733
30 *744:10 *745:10 0
*RES
1 *988:analog_ctrl[167] *745:8 6.9751 
2 *745:8 *745:10 137.901 
3 *745:10 *745:12 3.41 
4 *745:12 *745:14 71.2849 
5 *745:14 *984:IPCAP2[2] 25.3881 
*END

*D_NET *746 0.21561
*CONN
*I *984:IPCAP2EN I *D CF_ADC_DSM20
*I *988:analog_ctrl[168] O *D soc_sys
*CAP
1 *984:IPCAP2EN 0.000944183
2 *988:analog_ctrl[168] 2.01968e-05
3 *746:14 0.0112866
4 *746:12 0.0103424
5 *746:10 0.043689
6 *746:8 0.0437092
7 *984:IPCAP2EN *984:IPCAP3EN 0.00365328
8 *746:10 *747:10 0
9 *746:14 *984:SUMCAPFB_EN 0.000109975
10 *746:14 *984:SUMCAP3_EN 4.14775e-05
11 *746:14 *984:SUMCAP1[0] 0.000387571
12 *746:14 *984:IPCAP3[0] 0.00108688
13 *746:14 *984:DACCAP[3] 0.000213151
14 *746:14 *984:RESCAPEN 5.62399e-05
15 *746:14 *984:RESCAP[2] 0.000124949
16 *746:14 *984:RESCAP[0] 4.98422e-05
17 *746:14 *747:14 0.00127876
18 *746:14 *753:14 0.0442991
19 *984:FCAP1[0] *984:IPCAP2EN 6.30086e-06
20 *984:FCAP1EN *984:IPCAP2EN 0.00234147
21 *984:FCAP1OFFSET *984:IPCAP2EN 0.000244152
22 *111:13 *746:8 6.63171e-06
23 *700:6 *746:8 5.27153e-05
24 *716:25 *746:14 0
25 *733:14 *746:14 0.0516656
26 *745:10 *746:10 0
*RES
1 *988:analog_ctrl[168] *746:8 6.90303 
2 *746:8 *746:10 134.918 
3 *746:10 *746:12 3.41 
4 *746:12 *746:14 82.4913 
5 *746:14 *984:IPCAP2EN 21.9941 
*END

*D_NET *747 0.174194
*CONN
*I *984:IPCAP3[0] I *D CF_ADC_DSM20
*I *988:analog_ctrl[169] O *D soc_sys
*CAP
1 *984:IPCAP3[0] 0.00063015
2 *988:analog_ctrl[169] 3.28656e-05
3 *747:14 0.0178176
4 *747:12 0.0171875
5 *747:10 0.0437944
6 *747:8 0.0438273
7 *984:IPCAP3[0] *984:SUMCAPFB_EN 5.14804e-06
8 *984:IPCAP3[0] *984:SUMCAP3_EN 0.00139443
9 *984:IPCAP3[0] *984:SUMCAP1[0] 0.000159141
10 *984:IPCAP3[0] *984:SUMCAP1[2] 0.000432699
11 *984:IPCAP3[0] *984:SUMCAPIN_EN 5.42621e-05
12 *984:IPCAP3[0] *753:14 3.10543e-05
13 *747:10 *749:10 0
14 *747:14 *984:SUMCAPIN_EN 3.4616e-05
15 *747:14 *753:14 0.0439177
16 *747:14 *771:57 1.46412e-05
17 *747:14 *784:14 0
18 *984:refsel[14] *984:IPCAP3[0] 9.07615e-06
19 *984:FCAP3[0] *747:14 0.000171512
20 *984:FCAP1EN *984:IPCAP3[0] 4.65308e-06
21 *984:vpwr_ext *747:14 0.00213736
22 *111:13 *747:8 1.33363e-05
23 *700:6 *747:8 9.84683e-05
24 *716:25 *984:IPCAP3[0] 6.0174e-05
25 *716:25 *747:14 0
26 *746:10 *747:10 0
27 *746:14 *984:IPCAP3[0] 0.00108688
28 *746:14 *747:14 0.00127876
*RES
1 *988:analog_ctrl[169] *747:8 6.9751 
2 *747:8 *747:10 135.131 
3 *747:10 *747:12 3.41 
4 *747:12 *747:14 73.9874 
5 *747:14 *984:IPCAP3[0] 19.8805 
*END

*D_NET *748 0.293919
*CONN
*I *984:EN_ADWA I *D CF_ADC_DSM20
*I *988:analog_ctrl[16] O *D soc_sys
*CAP
1 *984:EN_ADWA 0.000357219
2 *988:analog_ctrl[16] 0.0107594
3 *748:13 0.0146283
4 *748:11 0.0142711
5 *748:9 0.0815317
6 *748:7 0.0815317
7 *748:5 0.0107594
8 *984:EN_ADWA *984:SCANMODE 0.000112431
9 *984:EN_ADWA *984:SCANEN 0
10 *748:9 *793:9 0
11 *748:9 *823:9 0
12 *748:9 *873:9 0
13 *748:13 *984:SCANMODE 0.000259935
14 *748:13 *794:13 0.030813
15 *748:13 *829:13 0.0488944
*RES
1 *988:analog_ctrl[16] *748:5 211.955 
2 *748:5 *748:7 3.41 
3 *748:7 *748:9 224.787 
4 *748:9 *748:11 3.41 
5 *748:11 *748:13 102.319 
6 *748:13 *984:EN_ADWA 12.7828 
*END

*D_NET *749 0.203913
*CONN
*I *984:IPCAP3[1] I *D CF_ADC_DSM20
*I *988:analog_ctrl[170] O *D soc_sys
*CAP
1 *984:IPCAP3[1] 0.00138479
2 *988:analog_ctrl[170] 2.01968e-05
3 *749:14 0.00992172
4 *749:12 0.00853694
5 *749:10 0.0448251
6 *749:8 0.0448453
7 *984:IPCAP3[1] *984:DACCAP[4] 3.9652e-05
8 *984:IPCAP3[1] *754:29 0.0029668
9 *984:IPCAP3[1] *768:36 0.000380366
10 *984:IPCAP3[1] *788:50 4.84784e-05
11 *749:10 *750:10 0
12 *749:14 *754:29 1.99932e-05
13 *749:14 *756:14 0.0398346
14 *984:refsel[9] *984:IPCAP3[1] 4.51406e-05
15 *984:IPCAP2[2] *984:IPCAP3[1] 9.20155e-05
16 *984:FCAP3[0] *984:IPCAP3[1] 0.00124683
17 *984:FCAP2[1] *984:IPCAP3[1] 0.00223979
18 *13:15 *749:10 0.00412531
19 *111:13 *749:8 6.63171e-06
20 *700:6 *749:8 5.27153e-05
21 *718:22 *749:14 0
22 *745:14 *749:14 0.0432811
23 *747:10 *749:10 0
*RES
1 *988:analog_ctrl[170] *749:8 6.90303 
2 *749:8 *749:10 138.008 
3 *749:10 *749:12 3.41 
4 *749:12 *749:14 69.0869 
5 *749:14 *984:IPCAP3[1] 15.9434 
*END

*D_NET *750 0.187708
*CONN
*I *984:IPCAP3[2] I *D CF_ADC_DSM20
*I *988:analog_ctrl[171] O *D soc_sys
*CAP
1 *984:IPCAP3[2] 0.00110748
2 *988:analog_ctrl[171] 3.28656e-05
3 *750:22 0.00869997
4 *750:20 0.00759249
5 *750:18 0.0191578
6 *750:16 0.0194278
7 *750:10 0.0258425
8 *750:8 0.0256053
9 *984:IPCAP3[2] *984:SUMCAPIN[3] 0.00132352
10 *984:IPCAP3[2] *984:SUMCAPFB[2] 0.000469064
11 *984:IPCAP3[2] *754:29 0.00156621
12 *984:IPCAP3[2] *771:57 0.00198053
13 *750:22 *821:25 0.00343612
14 *984:FCAP3[3] *984:IPCAP3[2] 0.00309405
15 *984:FCAP3[1] *984:IPCAP3[2] 0.000206214
16 *984:FCAP2[2] *984:IPCAP3[2] 1.83122e-05
17 *111:13 *750:8 1.33363e-05
18 *700:6 *750:8 9.84683e-05
19 *708:22 *984:IPCAP3[2] 0.000326339
20 *708:22 *750:22 0.0244309
21 *741:22 *984:IPCAP3[2] 4.94784e-05
22 *741:22 *750:22 0.0432297
23 *749:10 *750:10 0
*RES
1 *988:analog_ctrl[171] *750:8 6.9751 
2 *750:8 *750:10 73.2354 
3 *750:10 *750:16 7.47957 
4 *750:16 *750:18 377.768 
5 *750:18 *750:20 3.41 
6 *750:20 *750:22 67.4654 
7 *750:22 *984:IPCAP3[2] 26.3009 
*END

*D_NET *751 0.243861
*CONN
*I *984:IPCAP3EN I *D CF_ADC_DSM20
*I *988:analog_ctrl[172] O *D soc_sys
*CAP
1 *984:IPCAP3EN 0.00122812
2 *988:analog_ctrl[172] 0.000106675
3 *751:18 0.0154865
4 *751:16 0.0142584
5 *751:14 0.00982455
6 *751:12 0.00982455
7 *751:10 0.0286339
8 *751:8 0.0287406
9 *751:10 *752:10 0.0038404
10 *751:14 *760:14 0.0445058
11 *984:IPCAP1[5] *984:IPCAP3EN 0.00243391
12 *984:IPCAP1[5] *751:18 8.25017e-05
13 *984:FCAP1[1] *984:IPCAP3EN 0.00145713
14 *984:IPCAP2EN *984:IPCAP3EN 0.00365328
15 *984:FCAP1OFFSET *984:IPCAP3EN 2.54474e-05
16 *111:13 *751:8 2.9655e-05
17 *700:6 *751:8 0.000226194
18 *714:14 *984:IPCAP3EN 0.000104314
19 *732:13 *751:18 0
20 *739:14 *751:14 0.0499381
21 *739:18 *751:18 0.0294605
*RES
1 *988:analog_ctrl[172] *751:8 7.1913 
2 *751:8 *751:10 70.9982 
3 *751:10 *751:12 3.41 
4 *751:12 *751:14 78.7438 
5 *751:14 *751:16 3.41 
6 *751:16 *751:18 63.8605 
7 *751:18 *984:IPCAP3EN 19.4881 
*END

*D_NET *752 0.192093
*CONN
*I *984:DACCAP[0] I *D CF_ADC_DSM20
*I *988:analog_ctrl[173] O *D soc_sys
*CAP
1 *984:DACCAP[0] 0.00119141
2 *988:analog_ctrl[173] 3.28656e-05
3 *752:22 0.00659701
4 *752:20 0.0054056
5 *752:18 0.0186686
6 *752:16 0.0187406
7 *752:10 0.0224487
8 *752:8 0.0224095
9 *984:DACCAP[0] *984:bw[1] 0.000162216
10 *984:DACCAP[0] *984:bw[2] 5.43958e-05
11 *984:DACCAP[0] *984:SUMCAPIN[2] 3.14853e-05
12 *984:DACCAP[0] *984:SUMCAPFB[3] 4.6025e-06
13 *984:DACCAP[0] *984:SUMCAPFB[0] 0
14 *984:DACCAP[0] *984:SUMCAP1[1] 0.000149218
15 *984:DACCAP[0] *767:42 0.000767743
16 *984:DACCAP[0] *768:36 0
17 *984:DACCAP[0] *769:56 5.36091e-05
18 *984:DACCAP[0] *775:30 0.00307397
19 *752:10 *753:10 0
20 *752:22 *773:22 0.0317899
21 *752:22 *777:22 8.86413e-05
22 *752:22 *823:25 5.5671e-05
23 *984:refsel[12] *984:DACCAP[0] 7.03487e-05
24 *984:refsel[11] *984:DACCAP[0] 2.69575e-05
25 *984:refsel[10] *984:DACCAP[0] 0.00256035
26 *984:refsel[6] *984:DACCAP[0] 8.22793e-06
27 *984:refsel[5] *984:DACCAP[0] 4.17684e-05
28 *111:13 *752:8 1.33363e-05
29 *700:6 *752:8 9.84683e-05
30 *706:22 *752:22 0.00268153
31 *718:42 *984:DACCAP[0] 0.000733243
32 *721:22 *752:22 0.00873275
33 *742:22 *752:22 0.0412989
34 *743:22 *984:DACCAP[0] 0.000260987
35 *751:10 *752:10 0.0038404
*RES
1 *988:analog_ctrl[173] *752:8 6.9751 
2 *752:8 *752:10 73.2354 
3 *752:10 *752:16 6.9751 
4 *752:16 *752:18 379.741 
5 *752:18 *752:20 4.5 
6 *752:20 *752:22 388.25 
7 *752:22 *984:DACCAP[0] 34.9639 
*END

*D_NET *753 0.198286
*CONN
*I *984:DACCAP[1] I *D CF_ADC_DSM20
*I *988:analog_ctrl[174] O *D soc_sys
*CAP
1 *984:DACCAP[1] 0.000913625
2 *988:analog_ctrl[174] 2.01968e-05
3 *753:14 0.00916674
4 *753:12 0.00825312
5 *753:10 0.043788
6 *753:8 0.0438082
7 *984:DACCAP[1] *984:SUMCAPFB_EN 5.80629e-06
8 *984:DACCAP[1] *984:DACCAP[5] 0.00214088
9 *984:DACCAP[1] *984:RESCAP[1] 0.000108891
10 *753:14 *984:SUMCAP3_EN 0.000321357
11 *984:refsel[15] *984:DACCAP[1] 9.61096e-05
12 *984:IPCAP3[0] *753:14 3.10543e-05
13 *984:FCAP1[4] *984:DACCAP[1] 0
14 *111:13 *753:8 6.63171e-06
15 *700:6 *753:8 5.27153e-05
16 *710:18 *984:DACCAP[1] 0.000112719
17 *713:14 *984:DACCAP[1] 0.00124305
18 *746:14 *753:14 0.0442991
19 *747:14 *753:14 0.0439177
20 *752:10 *753:10 0
*RES
1 *988:analog_ctrl[174] *753:8 6.90303 
2 *753:8 *753:10 135.025 
3 *753:10 *753:12 3.41 
4 *753:12 *753:14 70.7084 
5 *753:14 *984:DACCAP[1] 26.4071 
*END

*D_NET *754 0.216155
*CONN
*I *984:DACCAP[2] I *D CF_ADC_DSM20
*I *988:analog_ctrl[175] O *D soc_sys
*CAP
1 *984:DACCAP[2] 0
2 *988:analog_ctrl[175] 0.0132253
3 *754:29 0.00467993
4 *754:13 0.0258986
5 *754:11 0.0262059
6 *754:5 0.0182125
7 *754:29 *984:DACCAP[4] 0.000302185
8 *754:29 *778:14 0.00743153
9 *984:refsel[9] *754:29 0.00235331
10 *984:IPCAP3[1] *754:29 0.0029668
11 *984:IPCAP3[2] *754:29 0.00156621
12 *984:IPCAP2[2] *754:29 0.0005829
13 *984:FCAP3[3] *754:29 9.96324e-05
14 *984:FCAP2[2] *754:29 0.00204446
15 *984:FCAP2[1] *754:29 2.54474e-05
16 *984:IPCAP1[6] *754:29 0.000101762
17 *984:IPCAP1EN *754:29 0.000175217
18 *648:14 *754:13 0.0405236
19 *728:24 *754:11 0.00179502
20 *732:9 *754:11 0.0268906
21 *740:9 *754:11 0.0268858
22 *745:14 *754:29 0.0141682
23 *749:14 *754:29 1.99932e-05
*RES
1 *988:analog_ctrl[175] *754:5 261.741 
2 *754:5 *754:11 49.3503 
3 *754:11 *754:13 91.7722 
4 *754:13 *754:29 46.2309 
5 *754:29 *984:DACCAP[2] 4.5 
*END

*D_NET *755 0.170518
*CONN
*I *984:DACCAP[3] I *D CF_ADC_DSM20
*I *988:analog_ctrl[176] O *D soc_sys
*CAP
1 *984:DACCAP[3] 0.000220545
2 *988:analog_ctrl[176] 0.00201507
3 *755:26 0.0375121
4 *755:24 0.0372915
5 *755:22 0.0163185
6 *755:20 0.0183336
7 *984:DACCAP[3] *984:SUMCAP1[0] 0.000114731
8 *755:20 *763:8 0.000909994
9 *755:26 *764:18 0.0302026
10 *984:FCAP1EN *984:DACCAP[3] 2.71326e-05
11 *988:adc_dout[2] *755:22 9.5164e-05
12 *988:adc_dout[5] *755:22 4.98422e-05
13 *988:adc_dout[6] *755:22 9.5164e-05
14 *988:adc_dout[7] *755:22 4.98422e-05
15 *988:adc_ov_one *755:22 4.98422e-05
16 *988:adc_scanout *755:22 9.5164e-05
17 *988:adc_test[0] *755:22 4.98422e-05
18 *988:adc_test[1] *755:22 0.000140922
19 *988:adc_test[2] *755:22 0.000271136
20 *988:adc_test[3] *755:22 9.5164e-05
21 *988:adc_test[4] *755:22 4.98422e-05
22 *988:adc_test[5] *755:22 4.98422e-05
23 *988:adc_test[7] *755:22 9.5164e-05
24 *111:13 *755:22 0.00558744
25 *671:10 *755:20 0.00175402
26 *671:10 *755:22 0
27 *700:6 *755:20 0.00508864
28 *700:6 *755:22 0.00964608
29 *700:12 *755:22 0.00409576
30 *746:14 *984:DACCAP[3] 0.000213151
*RES
1 *988:analog_ctrl[176] *755:20 22.6112 
2 *755:20 *755:22 61.2676 
3 *755:22 *755:24 3.41 
4 *755:24 *755:26 135.131 
5 *755:26 *984:DACCAP[3] 12.4256 
*END

*D_NET *756 0.194738
*CONN
*I *984:DACCAP[4] I *D CF_ADC_DSM20
*I *988:analog_ctrl[177] O *D soc_sys
*CAP
1 *984:DACCAP[4] 0.00165418
2 *988:analog_ctrl[177] 3.28656e-05
3 *756:14 0.00987523
4 *756:12 0.00822106
5 *756:10 0.0448905
6 *756:8 0.0449233
7 *984:DACCAP[4] *984:SUMCAPFB[1] 0.00278021
8 *984:DACCAP[4] *984:SUMCAP3[1] 0.00112839
9 *984:DACCAP[4] *758:13 5.2308e-05
10 *984:DACCAP[4] *768:36 0.000736371
11 *984:DACCAP[4] *788:50 0.00090092
12 *756:10 *757:10 0
13 *756:14 *984:SUMCAPFB[1] 1.99932e-05
14 *756:14 *768:14 0.034351
15 *984:refsel[9] *984:DACCAP[4] 0.000116562
16 *984:IPCAP3[1] *984:DACCAP[4] 3.9652e-05
17 *984:FCAP3[3] *984:DACCAP[4] 3.01818e-05
18 *984:FCAP3[0] *984:DACCAP[4] 0.000479082
19 *984:FCAP3[1] *984:DACCAP[4] 0.00157981
20 *984:FCAP2[1] *984:DACCAP[4] 0.000404808
21 *984:IPCAP1EN *984:DACCAP[4] 0.00183235
22 *111:13 *756:8 1.33363e-05
23 *700:6 *756:8 9.84683e-05
24 *718:22 *756:14 0
25 *719:62 *984:DACCAP[4] 0.000440119
26 *749:14 *756:14 0.0398346
27 *754:29 *984:DACCAP[4] 0.000302185
*RES
1 *988:analog_ctrl[177] *756:8 6.9751 
2 *756:8 *756:10 138.114 
3 *756:10 *756:12 3.41 
4 *756:12 *756:14 63.4657 
5 *756:14 *984:DACCAP[4] 25.0836 
*END

*D_NET *757 0.191193
*CONN
*I *984:DACCAP[5] I *D CF_ADC_DSM20
*I *988:analog_ctrl[178] O *D soc_sys
*CAP
1 *984:DACCAP[5] 0.000764517
2 *988:analog_ctrl[178] 2.01968e-05
3 *757:14 0.00770418
4 *757:12 0.00693966
5 *757:10 0.043522
6 *757:8 0.0435422
7 *984:DACCAP[5] *984:RESCAP[1] 0.00225813
8 *757:14 *984:RESCAP[1] 0.000166301
9 *757:14 *761:14 0.040971
10 *984:DACCAP[1] *984:DACCAP[5] 0.00214088
11 *111:13 *757:8 6.63171e-06
12 *700:6 *757:8 5.27153e-05
13 *713:14 *984:DACCAP[5] 3.34733e-05
14 *713:14 *757:14 0.0430379
15 *737:29 *984:DACCAP[5] 3.32713e-05
16 *756:10 *757:10 0
*RES
1 *988:analog_ctrl[178] *757:8 6.90303 
2 *757:8 *757:10 134.492 
3 *757:10 *757:12 3.41 
4 *757:12 *757:14 67.3573 
5 *757:14 *984:DACCAP[5] 16.6319 
*END

*D_NET *758 0.207557
*CONN
*I *984:DACCAPEN I *D CF_ADC_DSM20
*I *988:analog_ctrl[179] O *D soc_sys
*CAP
1 *984:DACCAPEN 0.00108514
2 *988:analog_ctrl[179] 0.0136722
3 *758:13 0.0255195
4 *758:11 0.0244344
5 *758:9 0.00856153
6 *758:7 0.00856153
7 *758:5 0.0136722
8 *758:9 *766:9 0.0382235
9 *758:13 *776:13 0.0223682
10 *984:refsel[12] *984:DACCAPEN 0.000459538
11 *984:refsel[9] *984:DACCAPEN 2.05803e-05
12 *984:refsel[8] *984:DACCAPEN 0.000489944
13 *984:refsel[7] *984:DACCAPEN 6.62727e-05
14 *984:refsel[6] *984:DACCAPEN 0.000258233
15 *984:refsel[4] *984:DACCAPEN 0.000800394
16 *984:FCAP3[0] *758:13 0.000251734
17 *984:FCAP3[1] *984:DACCAPEN 0.000491293
18 *984:FCAP2[3] *984:DACCAPEN 0.000618441
19 *984:DACCAP[4] *758:13 5.2308e-05
20 *984:IPCAP1[6] *758:13 0.000678914
21 *984:IPCAP1OFFSET *984:DACCAPEN 0.000859297
22 *984:FCAP1OFFSET *984:DACCAPEN 4.6025e-06
23 *31:13 *758:9 0.00164288
24 *32:13 *758:9 0.000527755
25 *35:13 *758:9 0.000569089
26 *36:9 *758:9 0.00264905
27 *39:9 *758:9 0.00141204
28 *728:24 *758:9 0.000432493
29 *740:9 *758:9 0.0391736
*RES
1 *988:analog_ctrl[179] *758:5 262.955 
2 *758:5 *758:7 3.41 
3 *758:7 *758:9 66.024 
4 *758:9 *758:11 3.41 
5 *758:11 *758:13 93.3702 
6 *758:13 *984:DACCAPEN 32.0657 
*END

*D_NET *759 0.348052
*CONN
*I *984:EN_DWA I *D CF_ADC_DSM20
*I *988:analog_ctrl[17] O *D soc_sys
*CAP
1 *984:EN_DWA 0.000177977
2 *988:analog_ctrl[17] 0.0062385
3 *759:25 0.00216574
4 *759:23 0.00271596
5 *759:13 0.0291381
6 *759:11 0.0284099
7 *759:9 0.0552019
8 *759:7 0.0552019
9 *759:5 0.0062385
10 *984:EN_DWA *984:SCANINPUT 0.000161913
11 *759:9 *809:9 0
12 *759:9 *810:9 0
13 *759:9 *829:9 0.114271
14 *759:9 *866:9 0
15 *759:13 *799:13 0.0376455
16 *759:25 *984:SCANINPUT 0.00161815
17 *759:25 *984:reset_b 0.00251515
18 *984:EN_DEM *759:13 0.00161475
19 *40:13 *759:13 0.000212388
20 *72:14 *759:5 0.00452432
21 *676:11 *759:9 0
*RES
1 *988:analog_ctrl[17] *759:5 125.741 
2 *759:5 *759:7 3.41 
3 *759:7 *759:9 214.049 
4 *759:9 *759:11 3.41 
5 *759:11 *759:13 116.275 
6 *759:13 *759:23 25.037 
7 *759:23 *759:25 58.8571 
8 *759:25 *984:EN_DWA 13.5982 
*END

*D_NET *760 0.205292
*CONN
*I *984:RESCAP[0] I *D CF_ADC_DSM20
*I *988:analog_ctrl[180] O *D soc_sys
*CAP
1 *984:RESCAP[0] 3.95677e-05
2 *988:analog_ctrl[180] 0.000114426
3 *760:18 0.010727
4 *760:16 0.0106874
5 *760:14 0.00851982
6 *760:12 0.00851982
7 *760:10 0.017366
8 *760:8 0.0174804
9 *984:RESCAP[0] *984:RESCAPEN 2.1479e-05
10 *984:RESCAP[0] *984:RESCAP[1] 6.47839e-06
11 *760:10 *761:10 0.0178457
12 *760:14 *764:14 0.0415696
13 *760:18 *984:RESCAPEN 0.00232809
14 *760:18 *984:RESCAP[2] 0.00105659
15 *760:18 *762:18 0.0145547
16 *111:13 *760:8 6.16146e-05
17 *700:6 *760:8 0.000418739
18 *732:13 *760:18 0.00941895
19 *746:14 *984:RESCAP[0] 4.98422e-05
20 *751:14 *760:14 0.0445058
*RES
1 *988:analog_ctrl[180] *760:8 7.47957 
2 *760:8 *760:10 71.1047 
3 *760:10 *760:12 3.41 
4 *760:12 *760:14 70.2399 
5 *760:14 *760:16 3.41 
6 *760:16 *760:18 63.967 
7 *760:18 *984:RESCAP[0] 11.6798 
*END

*D_NET *761 0.172175
*CONN
*I *984:RESCAP[1] I *D CF_ADC_DSM20
*I *988:analog_ctrl[181] O *D soc_sys
*CAP
1 *984:RESCAP[1] 0.00185237
2 *988:analog_ctrl[181] 3.28656e-05
3 *761:14 0.0159543
4 *761:12 0.0141019
5 *761:10 0.0372885
6 *761:8 0.0373214
7 *761:10 *762:10 0
8 *984:DACCAP[5] *984:RESCAP[1] 0.00225813
9 *984:DACCAP[1] *984:RESCAP[1] 0.000108891
10 *984:FCAP1[4] *984:RESCAP[1] 1.47728e-05
11 *984:RESCAP[0] *984:RESCAP[1] 6.47839e-06
12 *984:FCAP3EN *984:RESCAP[1] 0.000134091
13 *40:25 *984:RESCAP[1] 0.00155204
14 *40:37 *761:14 0.00221201
15 *111:13 *761:8 1.33363e-05
16 *651:8 *984:RESCAP[1] 0
17 *651:8 *761:14 0
18 *700:6 *761:8 9.84683e-05
19 *713:14 *984:RESCAP[1] 0.000242032
20 *757:14 *984:RESCAP[1] 0.000166301
21 *757:14 *761:14 0.040971
22 *760:10 *761:10 0.0178457
*RES
1 *988:analog_ctrl[181] *761:8 6.9751 
2 *761:8 *761:10 134.386 
3 *761:10 *761:12 3.41 
4 *761:12 *761:14 64.1143 
5 *761:14 *984:RESCAP[1] 19.7799 
*END

*D_NET *762 0.151283
*CONN
*I *984:RESCAP[2] I *D CF_ADC_DSM20
*I *988:analog_ctrl[182] O *D soc_sys
*CAP
1 *984:RESCAP[2] 0.00128181
2 *988:analog_ctrl[182] 2.01968e-05
3 *762:18 0.0104207
4 *762:16 0.0091389
5 *762:14 0.0246856
6 *762:12 0.0246856
7 *762:10 0.0237692
8 *762:8 0.0237894
9 *984:RESCAP[2] *984:RESCAPEN 6.9705e-05
10 *111:13 *762:8 6.63171e-06
11 *700:6 *762:8 5.27153e-05
12 *716:25 *984:RESCAP[2] 0
13 *717:18 *984:RESCAP[2] 0.00274857
14 *717:18 *762:18 0.0148778
15 *732:13 *762:18 0
16 *739:14 *762:14 0
17 *746:14 *984:RESCAP[2] 0.000124949
18 *760:18 *984:RESCAP[2] 0.00105659
19 *760:18 *762:18 0.0145547
20 *761:10 *762:10 0
*RES
1 *988:analog_ctrl[182] *762:8 6.90303 
2 *762:8 *762:10 69.8263 
3 *762:10 *762:12 3.41 
4 *762:12 *762:14 68.9427 
5 *762:14 *762:16 3.41 
6 *762:16 *762:18 58.9693 
7 *762:18 *984:RESCAP[2] 18.5967 
*END

*D_NET *763 0.145913
*CONN
*I *984:RESCAPEN I *D CF_ADC_DSM20
*I *988:analog_ctrl[183] O *D soc_sys
*CAP
1 *984:RESCAPEN 0.00151502
2 *988:analog_ctrl[183] 0.000175733
3 *763:14 0.0244804
4 *763:12 0.0229654
5 *763:10 0.0329353
6 *763:8 0.033111
7 *763:10 *764:10 0.00384344
8 *763:10 *765:10 0.018427
9 *763:14 *783:14 0
10 *984:RESCAP[2] *984:RESCAPEN 6.9705e-05
11 *984:RESCAP[0] *984:RESCAPEN 2.1479e-05
12 *700:6 *763:8 0.00090669
13 *716:25 *984:RESCAPEN 4.51246e-05
14 *732:13 *984:RESCAPEN 0.00412266
15 *746:14 *984:RESCAPEN 5.62399e-05
16 *755:20 *763:8 0.000909994
17 *760:18 *984:RESCAPEN 0.00232809
*RES
1 *988:analog_ctrl[183] *763:8 8.2723 
2 *763:8 *763:10 126.182 
3 *763:10 *763:12 3.41 
4 *763:12 *763:14 67.3573 
5 *763:14 *984:RESCAPEN 24.8251 
*END

*D_NET *764 0.199411
*CONN
*I *984:SUMCAP1[0] I *D CF_ADC_DSM20
*I *988:analog_ctrl[184] O *D soc_sys
*CAP
1 *984:SUMCAP1[0] 0.000123153
2 *988:analog_ctrl[184] 2.01968e-05
3 *764:18 0.014281
4 *764:16 0.0141579
5 *764:14 0.00928006
6 *764:12 0.00928006
7 *764:10 0.0218706
8 *764:8 0.0218908
9 *764:14 *775:14 0.0321711
10 *984:IPCAP3[0] *984:SUMCAP1[0] 0.000159141
11 *984:DACCAP[3] *984:SUMCAP1[0] 0.000114731
12 *984:FCAP1EN *984:SUMCAP1[0] 0
13 *111:13 *764:8 6.63171e-06
14 *700:6 *764:8 5.27153e-05
15 *717:18 *764:18 0
16 *746:14 *984:SUMCAP1[0] 0.000387571
17 *755:26 *764:18 0.0302026
18 *760:14 *764:14 0.0415696
19 *763:10 *764:10 0.00384344
*RES
1 *988:analog_ctrl[184] *764:8 6.90303 
2 *764:8 *764:10 71.2113 
3 *764:10 *764:12 3.41 
4 *764:12 *764:14 65.6277 
5 *764:14 *764:16 3.41 
6 *764:16 *764:18 63.8605 
7 *764:18 *984:SUMCAP1[0] 12.2203 
*END

*D_NET *765 0.164654
*CONN
*I *984:SUMCAP1[1] I *D CF_ADC_DSM20
*I *988:analog_ctrl[185] O *D soc_sys
*CAP
1 *984:SUMCAP1[1] 0.00101171
2 *988:analog_ctrl[185] 3.28656e-05
3 *765:26 0.00205691
4 *765:24 0.00106748
5 *765:22 0.00823678
6 *765:20 0.0082145
7 *765:18 0.018809
8 *765:16 0.0189455
9 *765:10 0.0179543
10 *765:8 0.0178507
11 *984:SUMCAP1[1] *984:bw[0] 3.58773e-05
12 *984:SUMCAP1[1] *984:SUMCAPIN[3] 4.82947e-05
13 *984:SUMCAP1[1] *984:SUMCAPIN[2] 1.08109e-05
14 *984:SUMCAP1[1] *768:36 0
15 *765:22 *825:25 0.00206996
16 *765:26 *823:25 7.99226e-05
17 *765:26 *825:25 0.00321647
18 *984:refsel[12] *984:SUMCAP1[1] 9.66354e-05
19 *984:refsel[8] *984:SUMCAP1[1] 0.00117218
20 *984:FCAP3[1] *984:SUMCAP1[1] 0.00149347
21 *984:DACCAP[0] *984:SUMCAP1[1] 0.000149218
22 *984:IPCAP1[2] *984:SUMCAP1[1] 0.00183053
23 *984:IPCAP1OFFSET *984:SUMCAP1[1] 0.00125681
24 *984:FCAP2EN *984:SUMCAP1[1] 0.000991992
25 *111:13 *765:8 1.33363e-05
26 *700:6 *765:8 9.84683e-05
27 *702:22 *765:26 0.00128197
28 *706:22 *765:22 0.0295381
29 *706:22 *765:26 0.00308541
30 *719:62 *984:SUMCAP1[1] 6.19761e-05
31 *721:22 *984:SUMCAP1[1] 0.00010416
32 *727:22 *984:SUMCAP1[1] 2.83129e-05
33 *727:22 *765:22 0.00538312
34 *763:10 *765:10 0.018427
*RES
1 *988:analog_ctrl[185] *765:8 6.9751 
2 *765:8 *765:10 73.2354 
3 *765:10 *765:16 7.1913 
4 *765:16 *765:18 381.259 
5 *765:18 *765:20 4.5 
6 *765:20 *765:22 277.562 
7 *765:22 *765:24 0.428571 
8 *765:24 *765:26 54.9554 
9 *765:26 *984:SUMCAP1[1] 46.9305 
*END

*D_NET *766 0.191039
*CONN
*I *984:SUMCAP1[2] I *D CF_ADC_DSM20
*I *988:analog_ctrl[186] O *D soc_sys
*CAP
1 *984:SUMCAP1[2] 0.000306164
2 *988:analog_ctrl[186] 0.0133388
3 *766:13 0.014513
4 *766:11 0.0142069
5 *766:9 0.0148275
6 *766:7 0.0148275
7 *766:5 0.0133388
8 *984:SUMCAP1[2] *984:SUMCAP3_EN 0.000549792
9 *766:9 *808:17 0.0129841
10 *766:13 *984:SUMCAPFB_EN 1.38917e-05
11 *766:13 *776:13 0
12 *984:IPCAP3[0] *984:SUMCAP1[2] 0.000432699
13 *984:FCAP1EN *984:SUMCAP1[2] 0.000189045
14 *31:13 *766:9 0.000223571
15 *35:13 *766:9 0.000209244
16 *36:9 *766:9 0.000207332
17 *38:21 *766:9 0.00240625
18 *39:9 *766:9 0.000387955
19 *704:17 *766:9 0.00611391
20 *704:27 *766:9 0.000379342
21 *711:18 *766:13 0.0209592
22 *716:25 *984:SUMCAP1[2] 2.53202e-05
23 *720:21 *766:13 0.0223752
24 *758:9 *766:9 0.0382235
*RES
1 *988:analog_ctrl[186] *766:5 263.562 
2 *766:5 *766:7 3.41 
3 *766:7 *766:9 62.0604 
4 *766:9 *766:11 3.41 
5 *766:11 *766:13 88.8958 
6 *766:13 *984:SUMCAP1[2] 13.2214 
*END

*D_NET *767 0.177882
*CONN
*I *984:SUMCAP1_EN I *D CF_ADC_DSM20
*I *988:analog_ctrl[187] O *D soc_sys
*CAP
1 *984:SUMCAP1_EN 1.2579e-05
2 *988:analog_ctrl[187] 4.12497e-05
3 *767:42 0.00127967
4 *767:22 0.0093597
5 *767:20 0.0080926
6 *767:18 0.019376
7 *767:16 0.0197095
8 *767:10 0.0307777
9 *767:8 0.0304854
10 *767:10 *768:10 0
11 *767:18 *768:10 0.0134156
12 *767:22 *769:22 0.00785551
13 *767:22 *780:26 0.0303679
14 *767:42 *984:SUMCAPFB[3] 0.00115896
15 *767:42 *984:SUMCAP3[0] 4.17604e-05
16 *984:refsel[11] *767:42 0
17 *984:refsel[10] *767:42 1.01912e-05
18 *984:IPCAP2[1] *984:SUMCAP1_EN 1.67196e-05
19 *984:DACCAP[0] *767:42 0.000767743
20 *111:13 *767:8 1.23875e-05
21 *700:6 *767:8 9.64162e-05
22 *743:22 *767:22 0.00323478
23 *743:22 *767:42 0.00166875
24 *744:22 *767:22 0.000101149
*RES
1 *988:analog_ctrl[187] *767:8 6.9751 
2 *767:8 *767:10 73.2354 
3 *767:10 *767:16 7.76783 
4 *767:16 *767:18 391.125 
5 *767:18 *767:20 3.41 
6 *767:20 *767:22 55.5383 
7 *767:22 *767:42 46.964 
8 *767:42 *984:SUMCAP1_EN 8.18679 
*END

*D_NET *768 0.196831
*CONN
*I *984:SUMCAP2[0] I *D CF_ADC_DSM20
*I *988:analog_ctrl[188] O *D soc_sys
*CAP
1 *984:SUMCAP2[0] 0
2 *988:analog_ctrl[188] 2.01968e-05
3 *768:36 0.00159151
4 *768:14 0.00842203
5 *768:12 0.00683052
6 *768:10 0.0451349
7 *768:8 0.0451551
8 *768:10 *769:10 0
9 *768:14 *984:SUMCAPFB[1] 0.000116197
10 *768:14 *984:SUMCAP3[1] 0.00114148
11 *768:14 *774:24 0.0295196
12 *768:36 *984:SUMCAPFB[1] 2.69575e-05
13 *768:36 *984:SUMCAPFB[0] 0.00310857
14 *768:36 *984:SUMCAP2[1] 0.00133799
15 *768:36 *769:56 0.000452693
16 *768:36 *775:30 0.00159674
17 *984:refsel[12] *768:36 4.11994e-05
18 *984:refsel[11] *768:36 0.000395951
19 *984:SUMCAP1[1] *768:36 0
20 *984:IPCAP3[1] *768:36 0.000380366
21 *984:IPCAP2[1] *768:36 9.07615e-06
22 *984:DACCAP[4] *768:36 0.000736371
23 *984:DACCAP[0] *768:36 0
24 *111:13 *768:8 6.63171e-06
25 *700:6 *768:8 5.27153e-05
26 *703:46 *768:36 5.78619e-05
27 *718:22 *768:14 0
28 *718:42 *768:36 0.00259145
29 *719:22 *768:14 0.000270326
30 *735:38 *768:36 0
31 *744:22 *768:36 6.77335e-05
32 *756:14 *768:14 0.034351
33 *767:10 *768:10 0
34 *767:18 *768:10 0.0134156
*RES
1 *988:analog_ctrl[188] *768:8 6.90303 
2 *768:8 *768:10 138.221 
3 *768:10 *768:12 3.41 
4 *768:12 *768:14 54.7096 
5 *768:14 *768:36 45.7502 
6 *768:36 *984:SUMCAP2[0] 4.5 
*END

*D_NET *769 0.153115
*CONN
*I *984:SUMCAP2[1] I *D CF_ADC_DSM20
*I *988:analog_ctrl[189] O *D soc_sys
*CAP
1 *984:SUMCAP2[1] 0.000604552
2 *988:analog_ctrl[189] 3.28656e-05
3 *769:56 0.00134419
4 *769:22 0.00913682
5 *769:20 0.00839718
6 *769:18 0.019258
7 *769:16 0.0194159
8 *769:10 0.0244255
9 *769:8 0.0243005
10 *984:SUMCAP2[1] *984:SUMCAPFB[0] 5.60223e-06
11 *769:56 *984:SUMCAPFB[3] 0
12 *769:56 *775:30 0.000449812
13 *984:refsel[11] *984:SUMCAP2[1] 0.000471332
14 *984:refsel[11] *769:56 7.4416e-05
15 *984:refsel[5] *769:56 0
16 *984:IPCAP2[1] *984:SUMCAP2[1] 5.96303e-06
17 *984:DACCAP[0] *769:56 5.36091e-05
18 *111:13 *769:8 1.33363e-05
19 *700:6 *769:8 9.84683e-05
20 *700:30 *769:56 0
21 *718:42 *769:56 4.65158e-06
22 *744:22 *984:SUMCAP2[1] 0.000937935
23 *744:22 *769:22 0.0344379
24 *767:22 *769:22 0.00785551
25 *768:10 *769:10 0
26 *768:36 *984:SUMCAP2[1] 0.00133799
27 *768:36 *769:56 0.000452693
*RES
1 *988:analog_ctrl[189] *769:8 6.9751 
2 *769:8 *769:10 73.2354 
3 *769:10 *769:16 7.26337 
4 *769:16 *769:18 388.696 
5 *769:18 *769:20 3.41 
6 *769:20 *769:22 54.4573 
7 *769:22 *769:56 40.9077 
8 *769:56 *984:SUMCAP2[1] 26.2527 
*END

*D_NET *770 0.237557
*CONN
*I *984:MODINPUT I *D CF_ADC_DSM20
*I *988:analog_ctrl[18] O *D soc_sys
*CAP
1 *984:MODINPUT 0.0124967
2 *988:analog_ctrl[18] 0.00683283
3 *770:13 0.0309074
4 *770:11 0.0184108
5 *770:9 0.0656079
6 *770:7 0.0656079
7 *770:5 0.00683283
8 *984:MODINPUT *984:FCHOP[1] 0.000159502
9 *984:MODINPUT *984:disable_mod 0.00206422
10 *984:MODINPUT *984:MODBIT 0.00168535
11 *984:MODINPUT *984:BUF_FCHOP[2] 0.000464859
12 *984:MODINPUT *984:BUF_FCHOP[1] 0.000511678
13 *984:MODINPUT *984:BUF_FCHOP[0] 0.000159502
14 *984:MODINPUT *984:FCHOP[2] 0.000159502
15 *984:MODINPUT *874:17 0.00034718
16 *984:MODINPUT *875:17 0.00191605
17 *770:9 *809:9 0
18 *770:13 *816:13 0.017951
19 *112:14 *770:5 0.00264257
20 *540:37 *770:13 0
21 *646:18 *984:MODINPUT 0.00167984
22 *659:20 *984:MODINPUT 4.48075e-05
23 *669:12 *984:MODINPUT 0.00107514
24 *684:11 *770:9 0
*RES
1 *988:analog_ctrl[18] *770:5 137.884 
2 *770:5 *770:7 3.41 
3 *770:7 *770:9 179.673 
4 *770:9 *770:11 3.41 
5 *770:11 *770:13 75.3661 
6 *770:13 *984:MODINPUT 10.3749 
*END

*D_NET *771 0.177638
*CONN
*I *984:SUMCAP2[2] I *D CF_ADC_DSM20
*I *988:analog_ctrl[190] O *D soc_sys
*CAP
1 *984:SUMCAP2[2] 1.7254e-05
2 *988:analog_ctrl[190] 0.0134107
3 *771:57 0.00174229
4 *771:21 0.0158659
5 *771:19 0.015352
6 *771:9 0.0130438
7 *771:7 0.0118327
8 *771:5 0.0134107
9 *771:9 *772:9 8.55799e-05
10 *771:9 *776:9 0.017818
11 *771:9 *803:9 0.005965
12 *771:9 *808:9 0.00225063
13 *771:19 *772:19 0.00196745
14 *771:19 *844:9 4.31981e-05
15 *771:21 *772:21 0.0395086
16 *771:21 *785:20 0
17 *771:21 *785:22 0.00363623
18 *771:57 *984:SUMCAPIN[3] 2.2472e-05
19 *771:57 *984:SUMCAPIN[0] 0.000410482
20 *771:57 *984:SUMCAPFB[2] 0.000816732
21 *771:57 *984:SUMCAP3[1] 0.000205649
22 *771:57 *772:35 0.000227327
23 *771:57 *785:50 0.000508089
24 *984:IPCAP3[2] *771:57 0.00198053
25 *984:IPCAP2[2] *771:57 4.65519e-05
26 *984:FCAP3[3] *771:57 0.00124098
27 *984:FCAP3[2] *771:57 0.000632266
28 *984:FCAP3[0] *771:57 4.73891e-05
29 *984:IPCAP1[4] *771:57 0
30 *37:25 *771:9 0.00383229
31 *715:9 *771:9 0
32 *716:9 *771:9 0.00371305
33 *716:19 *771:9 0.000516403
34 *720:9 *771:9 0.00534864
35 *728:24 *771:9 0.00212485
36 *747:14 *771:57 1.46412e-05
*RES
1 *988:analog_ctrl[190] *771:5 258.705 
2 *771:5 *771:7 3.41 
3 *771:7 *771:9 55.7185 
4 *771:9 *771:19 14.9786 
5 *771:19 *771:21 487.054 
6 *771:21 *771:57 48.1749 
7 *771:57 *984:SUMCAP2[2] 8.18679 
*END

*D_NET *772 0.197552
*CONN
*I *984:SUMCAP2_EN I *D CF_ADC_DSM20
*I *988:analog_ctrl[191] O *D soc_sys
*CAP
1 *984:SUMCAP2_EN 0.00037892
2 *988:analog_ctrl[191] 0.0131442
3 *772:35 0.00157801
4 *772:21 0.0137467
5 *772:19 0.0135503
6 *772:9 0.00748538
7 *772:7 0.00648277
8 *772:5 0.0131442
9 *772:9 *776:9 0.0328339
10 *772:9 *808:9 0.000976948
11 *772:19 *844:9 9.61175e-05
12 *772:21 *785:22 5.19996e-05
13 *772:21 *785:50 0.000159745
14 *772:35 *984:SUMCAPIN[0] 8.90671e-05
15 *772:35 *785:50 0.00110713
16 *772:35 *788:50 6.60787e-05
17 *984:refsel[13] *984:SUMCAP2_EN 0.000102424
18 *984:refsel[13] *772:35 0.000210128
19 *984:refsel[6] *772:35 2.8945e-05
20 *984:refsel[5] *772:35 2.81855e-05
21 *984:FCAP2[3] *984:SUMCAP2_EN 7.34179e-05
22 *984:FCAP2[0] *984:SUMCAP2_EN 0.0019229
23 *984:FCAP2[0] *772:35 0.000121914
24 *19:44 *772:21 0
25 *20:23 *772:21 8.10544e-05
26 *20:34 *772:21 0.0088908
27 *703:46 *772:35 4.43299e-05
28 *704:15 *772:5 5.75125e-05
29 *718:42 *772:35 0.000459114
30 *728:24 *772:9 0.00207372
31 *732:9 *772:9 0.034831
32 *734:22 *984:SUMCAP2_EN 0.0019457
33 *771:9 *772:9 8.55799e-05
34 *771:19 *772:19 0.00196745
35 *771:21 *772:21 0.0395086
36 *771:57 *772:35 0.000227327
*RES
1 *988:analog_ctrl[191] *772:5 260.527 
2 *772:5 *772:7 3.41 
3 *772:7 *772:9 55.0699 
4 *772:9 *772:19 14.4804 
5 *772:19 *772:21 492.062 
6 *772:21 *772:35 48.6786 
7 *772:35 *984:SUMCAP2_EN 16.7152 
*END

*D_NET *773 0.171512
*CONN
*I *984:SUMCAP3[0] I *D CF_ADC_DSM20
*I *988:analog_ctrl[192] O *D soc_sys
*CAP
1 *984:SUMCAP3[0] 0.00146851
2 *988:analog_ctrl[192] 1.68882e-05
3 *773:22 0.00523546
4 *773:20 0.00376694
5 *773:18 0.0187467
6 *773:16 0.0188617
7 *773:10 0.0245027
8 *773:8 0.0244046
9 *984:SUMCAP3[0] *775:30 2.84419e-05
10 *773:10 *774:10 0
11 *773:18 *774:20 0
12 *773:22 *777:22 0.0298227
13 *984:refsel[11] *984:SUMCAP3[0] 0.000425898
14 *984:refsel[10] *984:SUMCAP3[0] 0.000842157
15 *671:10 *773:8 1.21346e-05
16 *700:6 *773:8 4.98422e-05
17 *706:22 *773:22 0.000767308
18 *721:22 *773:22 0.0073167
19 *743:22 *984:SUMCAP3[0] 0.00341187
20 *752:22 *773:22 0.0317899
21 *767:42 *984:SUMCAP3[0] 4.17604e-05
*RES
1 *988:analog_ctrl[192] *773:8 6.90303 
2 *773:8 *773:10 73.4485 
3 *773:10 *773:16 7.11923 
4 *773:16 *773:18 380.045 
5 *773:18 *773:20 4.5 
6 *773:20 *773:22 298.714 
7 *773:22 *984:SUMCAP3[0] 34.3813 
*END

*D_NET *774 0.172638
*CONN
*I *984:SUMCAP3[1] I *D CF_ADC_DSM20
*I *988:analog_ctrl[193] O *D soc_sys
*CAP
1 *984:SUMCAP3[1] 0.00174372
2 *988:analog_ctrl[193] 2.80091e-05
3 *774:24 0.00984724
4 *774:20 0.00833465
5 *774:10 0.0469189
6 *774:8 0.0467158
7 *984:SUMCAP3[1] *984:SUMCAPIN[3] 4.14204e-05
8 *984:SUMCAP3[1] *984:SUMCAPIN[0] 0.00014515
9 *984:SUMCAP3[1] *984:SUMCAPFB[1] 0.00212466
10 *984:SUMCAP3[1] *984:SUMCAPFB[2] 0.000771638
11 *984:SUMCAP3[1] *779:32 0.000569684
12 *984:SUMCAP3[1] *785:50 1.94945e-05
13 *984:SUMCAP3[1] *787:22 0.00138866
14 *774:24 *779:32 0.00527639
15 *774:24 *787:22 0.00834889
16 *984:refsel[8] *984:SUMCAP3[1] 0.000241427
17 *984:FCAP3[3] *984:SUMCAP3[1] 0.00078934
18 *984:FCAP3[1] *984:SUMCAP3[1] 1.92903e-05
19 *984:FCAP2[2] *984:SUMCAP3[1] 0.000154539
20 *984:DACCAP[4] *984:SUMCAP3[1] 0.00112839
21 *984:IPCAP1EN *984:SUMCAP3[1] 1.23915e-05
22 *671:10 *774:8 2.26665e-05
23 *700:6 *774:8 9.5164e-05
24 *703:46 *984:SUMCAP3[1] 0.000906625
25 *718:22 *774:24 0
26 *718:42 *984:SUMCAP3[1] 0.000703046
27 *719:22 *984:SUMCAP3[1] 0.000421269
28 *719:22 *774:24 0.00451351
29 *741:22 *984:SUMCAP3[1] 0.000439057
30 *745:14 *774:20 4.98422e-05
31 *768:14 *984:SUMCAP3[1] 0.00114148
32 *768:14 *774:24 0.0295196
33 *771:57 *984:SUMCAP3[1] 0.000205649
34 *773:10 *774:10 0
35 *773:18 *774:20 0
*RES
1 *988:analog_ctrl[193] *774:8 6.9751 
2 *774:8 *774:10 138.008 
3 *774:10 *774:20 13.4737 
4 *774:20 *774:24 47.152 
5 *774:24 *984:SUMCAP3[1] 34.3786 
*END

*D_NET *775 0.199531
*CONN
*I *984:SUMCAP3[2] I *D CF_ADC_DSM20
*I *988:analog_ctrl[194] O *D soc_sys
*CAP
1 *984:SUMCAP3[2] 1.7254e-05
2 *988:analog_ctrl[194] 0.000119235
3 *775:30 0.00162813
4 *775:18 0.00675883
5 *775:16 0.00514795
6 *775:14 0.0120486
7 *775:12 0.0120486
8 *775:10 0.0292767
9 *775:8 0.0293959
10 *775:10 *776:5 0.000288548
11 *775:10 *777:10 0
12 *775:30 *780:26 0.000262217
13 *984:refsel[11] *775:30 0.00125069
14 *984:refsel[10] *775:30 0.000783917
15 *984:SUMCAP3[0] *775:30 2.84419e-05
16 *984:DACCAP[0] *775:30 0.00307397
17 *671:10 *775:8 6.81741e-05
18 *700:6 *775:8 0.000314396
19 *703:18 *775:18 0.0299651
20 *703:46 *775:30 0.000565581
21 *718:42 *775:30 0.00233052
22 *735:18 *775:18 0.0299409
23 *764:14 *775:14 0.0321711
24 *768:36 *775:30 0.00159674
25 *769:56 *775:30 0.000449812
*RES
1 *988:analog_ctrl[194] *775:8 7.33543 
2 *775:8 *775:10 71.5309 
3 *775:10 *775:12 3.41 
4 *775:12 *775:14 50.818 
5 *775:14 *775:16 3.41 
6 *775:16 *775:18 370.027 
7 *775:18 *775:30 49.328 
8 *775:30 *984:SUMCAP3[2] 8.18679 
*END

*D_NET *776 0.165206
*CONN
*I *984:SUMCAP3_EN I *D CF_ADC_DSM20
*I *988:analog_ctrl[195] O *D soc_sys
*CAP
1 *984:SUMCAP3_EN 0.000337326
2 *988:analog_ctrl[195] 0.01312
3 *776:13 0.0220837
4 *776:11 0.0217464
5 *776:9 0.00770211
6 *776:7 0.00770211
7 *776:5 0.01312
8 *984:SUMCAP3_EN *984:SUMCAPFB_EN 0.000113067
9 *776:5 *808:15 0
10 *776:13 *984:SUMCAPFB_EN 0
11 *984:SUMCAP1[2] *984:SUMCAP3_EN 0.000549792
12 *984:IPCAP3[0] *984:SUMCAP3_EN 0.00139443
13 *37:25 *776:9 0.000418522
14 *711:18 *776:13 0
15 *715:9 *776:9 0
16 *716:19 *776:9 0.000509127
17 *716:25 *984:SUMCAP3_EN 0
18 *720:9 *776:9 0.000240725
19 *728:24 *776:9 0.00189677
20 *732:9 *776:9 0.000600912
21 *746:14 *984:SUMCAP3_EN 4.14775e-05
22 *753:14 *984:SUMCAP3_EN 0.000321357
23 *758:13 *776:13 0.0223682
24 *766:13 *776:13 0
25 *771:9 *776:9 0.017818
26 *772:9 *776:9 0.0328339
27 *775:10 *776:5 0.000288548
*RES
1 *988:analog_ctrl[195] *776:5 259.92 
2 *776:5 *776:7 3.41 
3 *776:7 *776:9 53.6286 
4 *776:9 *776:11 3.41 
5 *776:11 *776:13 89.4285 
6 *776:13 *984:SUMCAP3_EN 13.7776 
*END

*D_NET *777 0.166831
*CONN
*I *984:SUMCAPFB[0] I *D CF_ADC_DSM20
*I *988:analog_ctrl[196] O *D soc_sys
*CAP
1 *984:SUMCAPFB[0] 0.000694032
2 *988:analog_ctrl[196] 1.68882e-05
3 *777:22 0.00470493
4 *777:20 0.0040109
5 *777:18 0.0187798
6 *777:16 0.0189163
7 *777:10 0.0245391
8 *777:8 0.0244196
9 *777:10 *778:10 0
10 *777:18 *778:10 0.00755922
11 *777:22 *823:25 0.00966469
12 *984:refsel[12] *984:SUMCAPFB[0] 0.000328513
13 *984:SUMCAP2[1] *984:SUMCAPFB[0] 5.60223e-06
14 *984:DACCAP[0] *984:SUMCAPFB[0] 0
15 *671:10 *777:8 1.21346e-05
16 *700:6 *777:8 4.98422e-05
17 *706:22 *777:22 0.0112767
18 *727:22 *777:22 0.00637064
19 *744:22 *984:SUMCAPFB[0] 0.0024617
20 *752:22 *777:22 8.86413e-05
21 *768:36 *984:SUMCAPFB[0] 0.00310857
22 *773:22 *777:22 0.0298227
23 *775:10 *777:10 0
*RES
1 *988:analog_ctrl[196] *777:8 6.90303 
2 *777:8 *777:10 73.4485 
3 *777:10 *777:16 7.1913 
4 *777:16 *777:18 380.348 
5 *777:18 *777:20 4.5 
6 *777:20 *777:22 281.875 
7 *777:22 *984:SUMCAPFB[0] 28.4616 
*END

*D_NET *778 0.18478
*CONN
*I *984:SUMCAPFB[1] I *D CF_ADC_DSM20
*I *988:analog_ctrl[197] O *D soc_sys
*CAP
1 *984:SUMCAPFB[1] 0.00149839
2 *988:analog_ctrl[197] 1.68882e-05
3 *778:14 0.0143163
4 *778:12 0.0128179
5 *778:10 0.0495011
6 *778:8 0.049518
7 *984:SUMCAPFB[1] *984:SUMCAPIN[0] 0.000730494
8 *984:SUMCAP3[1] *984:SUMCAPFB[1] 0.00212466
9 *984:IPCAP2[2] *984:SUMCAPFB[1] 7.29814e-05
10 *984:FCAP3[0] *984:SUMCAPFB[1] 0.000113141
11 *984:FCAP2[2] *984:SUMCAPFB[1] 2.04706e-05
12 *984:DACCAP[4] *984:SUMCAPFB[1] 0.00278021
13 *671:10 *778:8 1.21346e-05
14 *700:6 *778:8 4.98422e-05
15 *705:22 *778:14 0.0120387
16 *723:22 *778:14 0.00660687
17 *730:22 *778:14 0.006127
18 *738:22 *778:14 0.0061192
19 *745:14 *778:14 0.00516145
20 *754:29 *778:14 0.00743153
21 *756:14 *984:SUMCAPFB[1] 1.99932e-05
22 *768:14 *984:SUMCAPFB[1] 0.000116197
23 *768:36 *984:SUMCAPFB[1] 2.69575e-05
24 *777:10 *778:10 0
25 *777:18 *778:10 0.00755922
*RES
1 *988:analog_ctrl[197] *778:8 6.90303 
2 *778:8 *778:10 137.795 
3 *778:10 *778:12 3.41 
4 *778:12 *778:14 47.5029 
5 *778:14 *984:SUMCAPFB[1] 25.2552 
*END

*D_NET *779 0.167379
*CONN
*I *984:SUMCAPFB[2] I *D CF_ADC_DSM20
*I *988:analog_ctrl[198] O *D soc_sys
*CAP
1 *984:SUMCAPFB[2] 0.000692099
2 *988:analog_ctrl[198] 3.83878e-05
3 *779:32 0.00776398
4 *779:26 0.0187205
5 *779:24 0.0118454
6 *779:18 0.00654853
7 *779:16 0.00654122
8 *779:10 0.0195737
9 *779:8 0.0194225
10 *984:SUMCAPFB[2] *984:SUMCAPIN[3] 0.0013276
11 *779:10 *780:10 0
12 *779:16 *844:9 0.000511574
13 *779:18 *780:10 0.00424041
14 *779:26 *780:18 0.0304387
15 *984:SUMCAP3[1] *984:SUMCAPFB[2] 0.000771638
16 *984:SUMCAP3[1] *779:32 0.000569684
17 *984:IPCAP3[2] *984:SUMCAPFB[2] 0.000469064
18 *984:FCAP3[3] *984:SUMCAPFB[2] 2.40838e-05
19 *984:FCAP2[2] *984:SUMCAPFB[2] 1.06765e-05
20 *984:FCAP2[2] *779:32 0.000100938
21 *671:10 *779:8 3.31983e-05
22 *700:6 *779:8 0.000140917
23 *718:22 *779:32 0.0292055
24 *718:42 *779:32 0.00019056
25 *719:62 *984:SUMCAPFB[2] 0.00128419
26 *724:22 *779:32 0.000185828
27 *731:22 *984:SUMCAPFB[2] 9.55711e-05
28 *731:22 *779:32 1.08779e-05
29 *741:22 *984:SUMCAPFB[2] 0.000528804
30 *771:57 *984:SUMCAPFB[2] 0.000816732
31 *774:24 *779:32 0.00527639
*RES
1 *988:analog_ctrl[198] *779:8 7.04717 
2 *779:8 *779:10 50.1177 
3 *779:10 *779:16 7.6237 
4 *779:16 *779:18 128.991 
5 *779:18 *779:24 12.7679 
6 *779:24 *779:26 374.58 
7 *779:26 *779:32 49.9102 
8 *779:32 *984:SUMCAPFB[2] 13.1343 
*END

*D_NET *780 0.182081
*CONN
*I *984:SUMCAPFB[3] I *D CF_ADC_DSM20
*I *988:analog_ctrl[199] O *D soc_sys
*CAP
1 *984:SUMCAPFB[3] 0.000484826
2 *988:analog_ctrl[199] 2.80091e-05
3 *780:26 0.00422869
4 *780:20 0.00374386
5 *780:18 0.0126832
6 *780:16 0.0127341
7 *780:10 0.0236757
8 *780:8 0.0236528
9 *780:10 *783:10 0
10 *780:10 *875:13 0.00207362
11 *984:refsel[11] *984:SUMCAPFB[3] 0.000593268
12 *984:refsel[11] *780:26 6.31884e-05
13 *984:refsel[10] *984:SUMCAPFB[3] 0.000767633
14 *984:refsel[10] *780:26 0.000306237
15 *984:DACCAP[0] *984:SUMCAPFB[3] 4.6025e-06
16 *671:10 *780:8 2.26665e-05
17 *700:6 *780:8 9.5164e-05
18 *743:22 *780:26 0.0304555
19 *767:22 *780:26 0.0303679
20 *767:42 *984:SUMCAPFB[3] 0.00115896
21 *769:56 *984:SUMCAPFB[3] 0
22 *775:30 *780:26 0.000262217
23 *779:10 *780:10 0
24 *779:18 *780:10 0.00424041
25 *779:26 *780:18 0.0304387
*RES
1 *988:analog_ctrl[199] *780:8 6.9751 
2 *780:8 *780:10 73.4485 
3 *780:10 *780:16 6.90303 
4 *780:16 *780:18 391.732 
5 *780:18 *780:20 3.41 
6 *780:20 *780:26 47.8115 
7 *780:26 *984:SUMCAPFB[3] 29.3386 
*END

*D_NET *781 0.238031
*CONN
*I *984:MODBIT I *D CF_ADC_DSM20
*I *988:analog_ctrl[19] O *D soc_sys
*CAP
1 *984:MODBIT 0.00451332
2 *988:analog_ctrl[19] 0.00775324
3 *781:13 0.0306787
4 *781:11 0.0261654
5 *781:9 0.0589545
6 *781:7 0.0589545
7 *781:5 0.00775324
8 *984:MODBIT *875:17 0.0190185
9 *781:9 *795:9 0
10 *781:9 *801:9 0
11 *781:9 *806:9 0
12 *781:13 *806:13 0
13 *781:13 *825:19 0
14 *984:MODINPUT *984:MODBIT 0.00168535
15 *646:18 *984:MODBIT 0.00237826
16 *659:20 *984:MODBIT 0.00362595
17 *673:11 *781:9 0.0165497
*RES
1 *988:analog_ctrl[19] *781:5 156.705 
2 *781:5 *781:7 3.41 
3 *781:7 *781:9 170.377 
4 *781:9 *781:11 3.41 
5 *781:11 *781:13 72.1701 
6 *781:13 *984:MODBIT 36.8835 
*END

*D_NET *782 0.327507
*CONN
*I *986:enable_hv I *D CF_BUF_HIZ
*I *988:analog_ctrl[1] O *D soc_sys
*CAP
1 *986:enable_hv 0.00871616
2 *988:analog_ctrl[1] 0.00346784
3 *782:9 0.107812
4 *782:7 0.0990963
5 *782:5 0.00346784
6 *986:enable_hv *986:disable_n 4.98422e-05
7 *986:enable_hv *986:disable_p 0.00354792
8 *986:enable_hv *986:gain[1] 0.00456959
9 *782:9 *800:9 0
10 *782:9 *821:9 0
11 *782:9 *874:9 0
12 *782:9 *877:9 0.0967795
*RES
1 *988:analog_ctrl[1] *782:5 70.4911 
2 *782:5 *782:7 3.41 
3 *782:7 *782:9 331.085 
4 *782:9 *986:enable_hv 48.4241 
*END

*D_NET *783 0.141818
*CONN
*I *984:SUMCAPFB_EN I *D CF_ADC_DSM20
*I *988:analog_ctrl[200] O *D soc_sys
*CAP
1 *984:SUMCAPFB_EN 0.002269
2 *988:analog_ctrl[200] 1.68882e-05
3 *783:14 0.0193485
4 *783:12 0.0170795
5 *783:10 0.034515
6 *783:8 0.0345319
7 *783:10 *784:10 0
8 *783:10 *875:13 0.0307011
9 *984:SUMCAP3_EN *984:SUMCAPFB_EN 0.000113067
10 *984:IPCAP3[0] *984:SUMCAPFB_EN 5.14804e-06
11 *984:DACCAP[1] *984:SUMCAPFB_EN 5.80629e-06
12 *671:10 *783:8 1.21346e-05
13 *700:6 *783:8 4.98422e-05
14 *710:18 *984:SUMCAPFB_EN 0.00111254
15 *711:18 *984:SUMCAPFB_EN 0.00193429
16 *746:14 *984:SUMCAPFB_EN 0.000109975
17 *763:14 *783:14 0
18 *766:13 *984:SUMCAPFB_EN 1.38917e-05
19 *776:13 *984:SUMCAPFB_EN 0
20 *780:10 *783:10 0
*RES
1 *988:analog_ctrl[200] *783:8 6.90303 
2 *783:8 *783:10 127.248 
3 *783:10 *783:12 3.41 
4 *783:12 *783:14 50.3495 
5 *783:14 *984:SUMCAPFB_EN 23.2271 
*END

*D_NET *784 0.16622
*CONN
*I *984:SUMCAPIN[0] I *D CF_ADC_DSM20
*I *988:analog_ctrl[201] O *D soc_sys
*CAP
1 *984:SUMCAPIN[0] 0.00126535
2 *988:analog_ctrl[201] 2.80091e-05
3 *784:14 0.00722197
4 *784:12 0.00595662
5 *784:10 0.0366132
6 *784:8 0.0366412
7 *984:SUMCAPIN[0] *785:50 0.00108823
8 *984:SUMCAPIN[0] *788:50 0.000135428
9 *784:10 *785:10 0
10 *784:10 *877:13 0.0225167
11 *784:14 *789:18 0.0260712
12 *984:SUMCAPFB[1] *984:SUMCAPIN[0] 0.000730494
13 *984:SUMCAP3[1] *984:SUMCAPIN[0] 0.00014515
14 *984:IPCAP2[2] *984:SUMCAPIN[0] 4.73891e-05
15 *984:FCAP2[2] *984:SUMCAPIN[0] 6.99048e-05
16 *984:IPCAP1[6] *784:14 0.000556384
17 *984:IPCAP1[4] *784:14 0.000755511
18 *671:10 *784:8 2.26665e-05
19 *700:6 *784:8 9.5164e-05
20 *703:46 *984:SUMCAPIN[0] 1.94135e-05
21 *716:25 *784:14 0.0257409
22 *747:14 *784:14 0
23 *771:57 *984:SUMCAPIN[0] 0.000410482
24 *772:35 *984:SUMCAPIN[0] 8.90671e-05
25 *783:10 *784:10 0
*RES
1 *988:analog_ctrl[201] *784:8 6.9751 
2 *784:8 *784:10 136.09 
3 *784:10 *784:12 3.41 
4 *784:12 *784:14 47.3227 
5 *784:14 *984:SUMCAPIN[0] 31.7205 
*END

*D_NET *785 0.12995
*CONN
*I *984:SUMCAPIN[1] I *D CF_ADC_DSM20
*I *988:analog_ctrl[202] O *D soc_sys
*CAP
1 *984:SUMCAPIN[1] 0
2 *988:analog_ctrl[202] 1.68882e-05
3 *785:50 0.00103873
4 *785:22 0.00397575
5 *785:20 0.0031768
6 *785:14 0.0157983
7 *785:10 0.0441579
8 *785:8 0.0286163
9 *785:10 *812:13 0
10 *785:10 *877:13 0.0154533
11 *984:SUMCAPIN[0] *785:50 0.00108823
12 *984:SUMCAP3[1] *785:50 1.94945e-05
13 *984:FCAP2[2] *785:50 0.00108358
14 *984:vpwr_ext *785:22 0.000142341
15 *20:15 *785:10 0.00979241
16 *671:10 *785:8 1.21346e-05
17 *700:6 *785:8 4.98422e-05
18 *703:46 *785:50 6.28356e-05
19 *718:42 *785:50 2.35042e-06
20 *771:21 *785:20 0
21 *771:21 *785:22 0.00363623
22 *771:57 *785:50 0.000508089
23 *772:21 *785:22 5.19996e-05
24 *772:21 *785:50 0.000159745
25 *772:35 *785:50 0.00110713
26 *784:10 *785:10 0
*RES
1 *988:analog_ctrl[202] *785:8 6.90303 
2 *785:8 *785:10 120.856 
3 *785:10 *785:14 49.3274 
4 *785:14 *785:20 8.37429 
5 *785:20 *785:22 83.875 
6 *785:22 *785:50 46.676 
7 *785:50 *984:SUMCAPIN[1] 4.5 
*END

*D_NET *786 0.139524
*CONN
*I *984:SUMCAPIN[2] I *D CF_ADC_DSM20
*I *988:analog_ctrl[203] O *D soc_sys
*CAP
1 *984:SUMCAPIN[2] 0.000453232
2 *988:analog_ctrl[203] 0.00826805
3 *786:25 0.00176225
4 *786:23 0.00130902
5 *786:21 0.0263642
6 *786:19 0.030792
7 *786:11 0.0116542
8 *786:5 0.0154945
9 *984:SUMCAPIN[2] *984:bw[0] 0.00160652
10 *984:SUMCAPIN[2] *984:bw[1] 0.000294726
11 *786:11 *790:9 0
12 *786:11 *816:9 0.0193603
13 *786:19 *797:13 0.00309843
14 *786:19 *817:13 0.00361888
15 *786:19 *819:13 0.000161257
16 *786:19 *844:9 0.000691902
17 *786:25 *821:25 0.00309433
18 *984:refsel[7] *984:SUMCAPIN[2] 0.000111116
19 *984:SUMCAP1[1] *984:SUMCAPIN[2] 1.08109e-05
20 *984:DACCAP[0] *984:SUMCAPIN[2] 3.14853e-05
21 *984:IPCAP1[2] *984:SUMCAPIN[2] 3.13654e-05
22 *984:IPCAP1OFFSET *984:SUMCAPIN[2] 0.000338783
23 *984:FCAP1OFFSET *984:SUMCAPIN[2] 4.89273e-05
24 *702:22 *984:SUMCAPIN[2] 0.00128707
25 *708:22 *786:25 0.00163037
26 *719:62 *984:SUMCAPIN[2] 6.69171e-06
27 *727:22 *984:SUMCAPIN[2] 4.97144e-05
28 *742:22 *786:25 0.00795389
*RES
1 *988:analog_ctrl[203] *786:5 163.991 
2 *786:5 *786:11 37.3872 
3 *786:11 *786:19 28.946 
4 *786:19 *786:21 512.098 
5 *786:21 *786:23 4.5 
6 *786:23 *786:25 74.875 
7 *786:25 *984:SUMCAPIN[2] 21.4862 
*END

*D_NET *787 0.161182
*CONN
*I *984:SUMCAPIN[3] I *D CF_ADC_DSM20
*I *988:analog_ctrl[204] O *D soc_sys
*CAP
1 *984:SUMCAPIN[3] 0.000702104
2 *988:analog_ctrl[204] 1.68882e-05
3 *787:22 0.00873457
4 *787:20 0.00803246
5 *787:18 0.0248714
6 *787:16 0.0249856
7 *787:10 0.0122694
8 *787:8 0.012172
9 *787:10 *788:10 0
10 *787:10 *812:13 0.0202335
11 *787:16 *844:9 0.000330621
12 *787:18 *788:10 0.00922987
13 *984:SUMCAPFB[2] *984:SUMCAPIN[3] 0.0013276
14 *984:refsel[8] *984:SUMCAPIN[3] 5.13266e-05
15 *984:SUMCAP3[1] *984:SUMCAPIN[3] 4.14204e-05
16 *984:SUMCAP3[1] *787:22 0.00138866
17 *984:SUMCAP1[1] *984:SUMCAPIN[3] 4.82947e-05
18 *984:IPCAP3[2] *984:SUMCAPIN[3] 0.00132352
19 *984:FCAP3[1] *984:SUMCAPIN[3] 0.000115407
20 *984:IPCAP1OFFSET *984:SUMCAPIN[3] 0
21 *984:IPCAP1EN *984:SUMCAPIN[3] 5.14415e-05
22 *984:FCAP2EN *984:SUMCAPIN[3] 0
23 *671:10 *787:8 1.21346e-05
24 *700:6 *787:8 4.98422e-05
25 *719:22 *787:22 0.0262191
26 *719:62 *984:SUMCAPIN[3] 0.000351795
27 *735:38 *984:SUMCAPIN[3] 0.000251189
28 *771:57 *984:SUMCAPIN[3] 2.2472e-05
29 *774:24 *787:22 0.00834889
*RES
1 *988:analog_ctrl[204] *787:8 6.90303 
2 *787:8 *787:10 50.1177 
3 *787:10 *787:16 7.33543 
4 *787:16 *787:18 505.116 
5 *787:18 *787:20 4.5 
6 *787:20 *787:22 246.554 
7 *787:22 *984:SUMCAPIN[3] 39.9027 
*END

*D_NET *788 0.138075
*CONN
*I *984:SUMCAPIN[4] I *D CF_ADC_DSM20
*I *988:analog_ctrl[205] O *D soc_sys
*CAP
1 *984:SUMCAPIN[4] 0
2 *988:analog_ctrl[205] 2.80091e-05
3 *788:50 0.0014535
4 *788:18 0.00459267
5 *788:16 0.0179575
6 *788:10 0.0511747
7 *788:8 0.0363843
8 *788:10 *789:10 0.00652674
9 *788:10 *812:13 0
10 *984:SUMCAPIN[0] *788:50 0.000135428
11 *984:IPCAP3[1] *788:50 4.84784e-05
12 *984:FCAP2[1] *788:50 0.000795879
13 *984:DACCAP[4] *788:50 0.00090092
14 *984:IPCAP1[6] *788:50 9.80649e-05
15 *984:IPCAP1[4] *788:50 0.000343087
16 *668:20 *788:16 0
17 *671:10 *788:8 2.26665e-05
18 *700:6 *788:8 9.5164e-05
19 *703:18 *788:18 0.0077046
20 *703:46 *788:50 0.000394893
21 *735:38 *788:50 0.000122565
22 *772:35 *788:50 6.60787e-05
23 *787:10 *788:10 0
24 *787:18 *788:10 0.00922987
*RES
1 *988:analog_ctrl[205] *788:8 6.9751 
2 *788:8 *788:10 119.684 
3 *788:10 *788:16 49.4224 
4 *788:16 *788:18 95.4464 
5 *788:18 *788:50 47.3638 
6 *788:50 *984:SUMCAPIN[4] 4.5 
*END

*D_NET *789 0.140615
*CONN
*I *984:SUMCAPIN_EN I *D CF_ADC_DSM20
*I *988:analog_ctrl[206] O *D soc_sys
*CAP
1 *984:SUMCAPIN_EN 0.000693802
2 *988:analog_ctrl[206] 2.79998e-05
3 *789:18 0.00955612
4 *789:10 0.0479249
5 *789:8 0.0390905
6 *789:10 *820:13 0.00532719
7 *984:IPCAP3[0] *984:SUMCAPIN_EN 5.42621e-05
8 *984:FCAP3[0] *984:SUMCAPIN_EN 0.00231433
9 *984:IPCAP1[6] *789:18 4.73891e-05
10 *671:10 *789:8 2.26665e-05
11 *700:6 *789:8 9.51694e-05
12 *716:25 *984:SUMCAPIN_EN 0.00282809
13 *747:14 *984:SUMCAPIN_EN 3.4616e-05
14 *784:14 *789:18 0.0260712
15 *788:10 *789:10 0.00652674
*RES
1 *988:analog_ctrl[206] *789:8 6.9751 
2 *789:8 *789:10 136.197 
3 *789:10 *789:18 49.4951 
4 *789:18 *984:SUMCAPIN_EN 16.1119 
*END

*D_NET *790 0.226501
*CONN
*I *984:SIGN I *D CF_ADC_DSM20
*I *988:analog_ctrl[20] O *D soc_sys
*CAP
1 *984:SIGN 2.04374e-05
2 *988:analog_ctrl[20] 0.00860788
3 *790:13 0.0224241
4 *790:11 0.0224036
5 *790:9 0.0724937
6 *790:7 0.0724937
7 *790:5 0.00860788
8 *984:SIGN *875:17 2.39402e-05
9 *790:9 *796:9 0
10 *790:9 *801:9 0
11 *790:9 *816:9 0
12 *790:13 *984:FCHOP[0] 0
13 *790:13 *802:13 0
14 *646:16 *984:SIGN 5.26044e-05
15 *675:11 *790:9 0.019373
16 *786:11 *790:9 0
*RES
1 *988:analog_ctrl[20] *790:5 168.848 
2 *790:5 *790:7 3.41 
3 *790:7 *790:9 215.851 
4 *790:9 *790:11 3.41 
5 *790:11 *790:13 69.9258 
6 *790:13 *984:SIGN 6.90303 
*END

*D_NET *791 0.294377
*CONN
*I *984:CHOP_EN I *D CF_ADC_DSM20
*I *988:analog_ctrl[21] O *D soc_sys
*CAP
1 *984:CHOP_EN 0.000253136
2 *988:analog_ctrl[21] 0.0029076
3 *791:17 0.0240905
4 *791:15 0.0238374
5 *791:13 0.026688
6 *791:11 0.026688
7 *791:9 0.0388526
8 *791:7 0.0388526
9 *791:5 0.0029076
10 *791:9 *800:9 0
11 *791:9 *819:9 0.0857987
12 *791:13 *874:13 0
13 *115:14 *791:5 0.00192842
14 *652:17 *791:17 0
15 *653:17 *791:17 0
16 *660:18 *791:13 0.0215726
17 *693:9 *791:9 0
*RES
1 *988:analog_ctrl[21] *791:5 58.3482 
2 *791:5 *791:7 3.41 
3 *791:7 *791:9 155.819 
4 *791:9 *791:11 3.41 
5 *791:11 *791:13 103.81 
6 *791:13 *791:15 3.41 
7 *791:15 *791:17 68.7986 
8 *791:17 *984:CHOP_EN 4.2419 
*END

*D_NET *792 0.240872
*CONN
*I *984:BUF_CHOP_EN I *D CF_ADC_DSM20
*I *988:analog_ctrl[22] O *D soc_sys
*CAP
1 *984:BUF_CHOP_EN 0.00121026
2 *988:analog_ctrl[22] 0.00928528
3 *792:13 0.0155818
4 *792:11 0.0143715
5 *792:9 0.065073
6 *792:7 0.065073
7 *792:5 0.00928528
8 *984:BUF_CHOP_EN *874:17 4.36274e-05
9 *792:9 *797:9 0
10 *792:9 *876:11 0
11 *74:14 *792:5 0.00338673
12 *647:24 *792:9 0.0121051
13 *650:24 *792:9 0
14 *667:14 *984:BUF_CHOP_EN 0.00231358
15 *667:14 *792:13 0.0158875
16 *674:11 *792:9 0.0272552
*RES
1 *988:analog_ctrl[22] *792:5 187.67 
2 *792:5 *792:7 3.41 
3 *792:7 *792:9 205.617 
4 *792:9 *792:11 3.41 
5 *792:11 *792:13 62.2123 
6 *792:13 *984:BUF_CHOP_EN 12.0025 
*END

*D_NET *793 0.294747
*CONN
*I *984:bypass_p I *D CF_ADC_DSM20
*I *988:analog_ctrl[23] O *D soc_sys
*CAP
1 *984:bypass_p 3.93512e-05
2 *988:analog_ctrl[23] 0.0101743
3 *793:13 0.0150202
4 *793:11 0.0149809
5 *793:9 0.0608305
6 *793:7 0.0608305
7 *793:5 0.0101743
8 *793:9 *794:9 0
9 *793:9 *873:9 0.0990775
10 *793:9 *875:9 0
11 *793:13 *808:29 0.0141364
12 *793:13 *809:13 0.0018688
13 *75:14 *793:5 0.00761465
14 *748:9 *793:9 0
*RES
1 *988:analog_ctrl[23] *793:5 205.884 
2 *793:5 *793:7 3.41 
3 *793:7 *793:9 221.256 
4 *793:9 *793:11 3.41 
5 *793:11 *793:13 65.4804 
6 *793:13 *984:bypass_p 6.90303 
*END

*D_NET *794 0.273368
*CONN
*I *984:bypass_n I *D CF_ADC_DSM20
*I *988:analog_ctrl[24] O *D soc_sys
*CAP
1 *984:bypass_n 3.93512e-05
2 *988:analog_ctrl[24] 0.00987893
3 *794:13 0.0139272
4 *794:11 0.0138879
5 *794:9 0.0679485
6 *794:7 0.0679485
7 *794:5 0.00987893
8 *794:9 *875:9 0.0511677
9 *794:9 *876:11 0
10 *794:13 *809:13 0
11 *794:13 *829:13 0.000510264
12 *104:22 *794:5 0.00736741
13 *650:24 *794:9 0
14 *748:13 *794:13 0.030813
15 *793:9 *794:9 0
*RES
1 *988:analog_ctrl[24] *794:5 199.812 
2 *794:5 *794:7 3.41 
3 *794:7 *794:9 218.589 
4 *794:9 *794:11 3.41 
5 *794:11 *794:13 66.4878 
6 *794:13 *984:bypass_n 6.90303 
*END

*D_NET *795 0.281286
*CONN
*I *984:ODET I *D CF_ADC_DSM20
*I *988:analog_ctrl[25] O *D soc_sys
*CAP
1 *984:ODET 3.93512e-05
2 *988:analog_ctrl[25] 0.00746517
3 *795:13 0.0172347
4 *795:11 0.0171953
5 *795:9 0.054142
6 *795:7 0.054142
7 *795:5 0.00746517
8 *795:9 *806:9 0.100767
9 *795:9 *807:9 0
10 *795:13 *799:13 0.0189283
11 *141:23 *795:5 0.00390732
12 *685:11 *795:9 0
13 *781:9 *795:9 0
*RES
1 *988:analog_ctrl[25] *795:5 150.634 
2 *795:5 *795:7 3.41 
3 *795:7 *795:9 208.139 
4 *795:9 *795:11 3.41 
5 *795:11 *795:13 74.1112 
6 *795:13 *984:ODET 6.90303 
*END

*D_NET *796 0.313146
*CONN
*I *984:TESTMODE I *D CF_ADC_DSM20
*I *988:analog_ctrl[26] O *D soc_sys
*CAP
1 *984:TESTMODE 0.00106463
2 *988:analog_ctrl[26] 0.00866489
3 *796:13 0.0321757
4 *796:11 0.0311111
5 *796:9 0.0543903
6 *796:7 0.0543903
7 *796:5 0.00866489
8 *984:TESTMODE *828:31 0.00390377
9 *984:TESTMODE *866:31 0.00201674
10 *796:9 *855:9 0
11 *796:9 *872:9 0.0895855
12 *796:13 *984:ODET_TH[3] 8.59628e-05
13 *796:13 *828:31 0
14 *796:13 *866:13 0
15 *984:IPCAP1[0] *796:13 0
16 *105:14 *796:5 0.00637846
17 *661:16 *984:TESTMODE 0.000916145
18 *662:16 *984:TESTMODE 0.00117769
19 *663:12 *984:TESTMODE 0.00017902
20 *663:16 *796:13 0.0177713
21 *675:11 *796:9 0
22 *712:30 *796:13 0.000670053
23 *790:9 *796:9 0
*RES
1 *988:analog_ctrl[26] *796:5 174.92 
2 *796:5 *796:7 3.41 
3 *796:7 *796:9 198.411 
4 *796:9 *796:11 3.41 
5 *796:11 *796:13 109.883 
6 *796:13 *984:TESTMODE 22.2417 
*END

*D_NET *797 0.314172
*CONN
*I *984:RESET1 I *D CF_ADC_DSM20
*I *988:analog_ctrl[27] O *D soc_sys
*CAP
1 *984:RESET1 0.00302116
2 *988:analog_ctrl[27] 0.00900535
3 *797:13 0.0175733
4 *797:11 0.0145521
5 *797:9 0.0395436
6 *797:7 0.0395436
7 *797:5 0.00900535
8 *984:RESET1 *984:ODET_TH[4] 0.000523413
9 *984:RESET1 *984:ODET_TH[3] 0.00069479
10 *984:RESET1 *984:ODET_TH[2] 0.0121557
11 *984:RESET1 *984:ODET_TH[1] 0.011326
12 *984:RESET1 *984:disable_mod 0.00239146
13 *984:RESET1 *984:FCHOP[2] 0.000105542
14 *984:RESET1 *820:17 0.00150646
15 *797:9 *855:9 0.107617
16 *797:13 *817:13 0
17 *797:13 *819:13 0.0327983
18 *37:29 *797:13 0.00109374
19 *38:25 *797:13 0.000751445
20 *40:41 *797:13 0.00335647
21 *143:31 *797:5 0.0045087
22 *786:19 *797:13 0.00309843
23 *792:9 *797:9 0
*RES
1 *988:analog_ctrl[27] *797:5 181.598 
2 *797:5 *797:7 3.41 
3 *797:7 *797:9 169.656 
4 *797:9 *797:11 3.41 
5 *797:11 *797:13 69.0806 
6 *797:13 *984:RESET1 31.1174 
*END

*D_NET *798 0.240421
*CONN
*I *984:RESET2 I *D CF_ADC_DSM20
*I *988:analog_ctrl[28] O *D soc_sys
*CAP
1 *984:RESET2 3.93512e-05
2 *988:analog_ctrl[28] 0.0120376
3 *798:13 0.0124409
4 *798:11 0.0124016
5 *798:9 0.0677401
6 *798:7 0.0677401
7 *798:5 0.0120376
8 *798:9 *825:9 0
9 *798:13 *801:13 0.0274879
10 *20:11 *798:9 0
11 *65:17 *798:9 0
12 *109:14 *798:5 0.00579056
13 *679:11 *798:9 0.0227051
*RES
1 *988:analog_ctrl[28] *798:5 242.92 
2 *798:5 *798:7 3.41 
3 *798:7 *798:9 203.455 
4 *798:9 *798:11 3.41 
5 *798:11 *798:13 58.3897 
6 *798:13 *984:RESET2 6.90303 
*END

*D_NET *799 0.302145
*CONN
*I *984:RESET3 I *D CF_ADC_DSM20
*I *988:analog_ctrl[29] O *D soc_sys
*CAP
1 *984:RESET3 3.93512e-05
2 *988:analog_ctrl[29] 0.0011046
3 *799:13 0.016015
4 *799:11 0.0159756
5 *799:9 0.053708
6 *799:7 0.0548126
7 *799:9 *817:9 0
8 *799:9 *820:9 0.0798576
9 *988:adc_chopclk *799:9 0.00201212
10 *988:adc_dout[1] *799:9 0.000859876
11 *66:13 *799:9 0
12 *651:16 *799:9 0.0211863
13 *688:11 *799:9 0
14 *726:11 *799:9 0
15 *759:13 *799:13 0.0376455
16 *795:13 *799:13 0.0189283
*RES
1 *988:analog_ctrl[29] *799:7 24.7225 
2 *799:7 *799:9 204.68 
3 *799:9 *799:11 3.41 
4 *799:11 *799:13 97.3417 
5 *799:13 *984:RESET3 6.90303 
*END

*D_NET *800 0.311048
*CONN
*I *986:disable_p I *D CF_BUF_HIZ
*I *988:analog_ctrl[2] O *D soc_sys
*CAP
1 *986:disable_p 0.00874276
2 *988:analog_ctrl[2] 0.00317595
3 *800:9 0.115609
4 *800:7 0.106866
5 *800:5 0.00317595
6 *986:disable_p *986:disable_n 0.00019197
7 *986:disable_p *986:gain[0] 4.31981e-05
8 *986:disable_p *986:gain[1] 0.0087953
9 *800:9 *819:9 0
10 *800:9 *874:9 0.0589102
11 *986:enable_hv *986:disable_p 0.00354792
12 *127:25 *800:5 0.00198918
13 *667:18 *800:9 0
14 *782:9 *800:9 0
15 *791:9 *800:9 0
*RES
1 *988:analog_ctrl[2] *800:5 64.4196 
2 *800:5 *800:7 3.41 
3 *800:7 *800:9 329.86 
4 *800:9 *986:disable_p 49.6662 
*END

*D_NET *801 0.284785
*CONN
*I *984:RESET_DEC_INPUT I *D CF_ADC_DSM20
*I *988:analog_ctrl[30] O *D soc_sys
*CAP
1 *984:RESET_DEC_INPUT 3.45006e-05
2 *988:analog_ctrl[30] 0.00807593
3 *801:13 0.0167883
4 *801:11 0.0167538
5 *801:9 0.0532434
6 *801:7 0.0532434
7 *801:5 0.00807593
8 *984:RESET_DEC_INPUT *874:17 1.13851e-05
9 *801:9 *816:9 0.101071
10 *673:11 *801:9 0
11 *781:9 *801:9 0
12 *790:9 *801:9 0
13 *798:13 *801:13 0.0274879
*RES
1 *988:analog_ctrl[30] *801:5 162.777 
2 *801:5 *801:7 3.41 
3 *801:7 *801:9 201.726 
4 *801:9 *801:11 3.41 
5 *801:11 *801:13 71.711 
6 *801:13 *984:RESET_DEC_INPUT 6.90303 
*END

*D_NET *802 0.231557
*CONN
*I *984:FCHOP[0] I *D CF_ADC_DSM20
*I *988:analog_ctrl[31] O *D soc_sys
*CAP
1 *984:FCHOP[0] 0.00203683
2 *988:analog_ctrl[31] 0.0114516
3 *802:13 0.0195856
4 *802:11 0.0175488
5 *802:9 0.0700191
6 *802:7 0.0700191
7 *802:5 0.0114516
8 *984:FCHOP[0] *874:17 2.1494e-05
9 *802:9 *824:9 0
10 *984:itrim_1[2] *802:9 0
11 *20:11 *802:9 0
12 *81:48 *802:5 0.0075871
13 *683:11 *802:9 0.0218359
14 *790:13 *984:FCHOP[0] 0
15 *790:13 *802:13 0
*RES
1 *988:analog_ctrl[31] *802:5 230.777 
2 *802:5 *802:7 3.41 
3 *802:7 *802:9 205.833 
4 *802:9 *802:11 3.41 
5 *802:11 *802:13 54.6485 
6 *802:13 *984:FCHOP[0] 12.7122 
*END

*D_NET *803 0.284295
*CONN
*I *984:FCHOP[1] I *D CF_ADC_DSM20
*I *988:analog_ctrl[32] O *D soc_sys
*CAP
1 *984:FCHOP[1] 0.00151357
2 *988:analog_ctrl[32] 0.0127021
3 *803:13 0.019714
4 *803:11 0.0182004
5 *803:9 0.0388694
6 *803:7 0.0388694
7 *803:5 0.0127021
8 *984:FCHOP[1] *984:ODET_TH[4] 0.00884272
9 *984:FCHOP[1] *984:BUF_FCHOP[1] 1.37906e-05
10 *984:FCHOP[1] *984:BUF_FCHOP[0] 3.23985e-05
11 *984:FCHOP[1] *984:FCHOP[2] 0.00872413
12 *803:9 *808:9 0
13 *984:MODINPUT *984:FCHOP[1] 0.000159502
14 *114:14 *803:5 0.00537061
15 *704:9 *803:9 0
16 *715:9 *803:9 0.112408
17 *728:24 *803:13 0.000208119
18 *740:13 *803:13 0
19 *771:9 *803:9 0.005965
*RES
1 *988:analog_ctrl[32] *803:5 255.67 
2 *803:5 *803:7 3.41 
3 *803:7 *803:9 177.367 
4 *803:9 *803:11 3.41 
5 *803:11 *803:13 55.6574 
6 *803:13 *984:FCHOP[1] 20.9404 
*END

*D_NET *804 0.24026
*CONN
*I *984:FCHOP[2] I *D CF_ADC_DSM20
*I *988:analog_ctrl[33] O *D soc_sys
*CAP
1 *984:FCHOP[2] 0.00395112
2 *988:analog_ctrl[33] 0.00174925
3 *804:13 0.0279372
4 *804:11 0.0239861
5 *804:9 0.0592608
6 *804:7 0.06101
7 *984:FCHOP[2] *984:ODET_TH[4] 0.00382607
8 *984:FCHOP[2] *984:BUF_FCHOP[1] 7.21996e-05
9 *984:FCHOP[2] *984:BUF_FCHOP[0] 0.017384
10 *984:FCHOP[2] *820:17 0
11 *804:9 *812:9 0
12 *804:9 *817:9 0
13 *804:13 *805:13 0
14 *804:13 *821:19 0.00918317
15 *804:13 *823:19 0
16 *804:13 *823:21 0.00492126
17 *984:FCHOP[1] *984:FCHOP[2] 0.00872413
18 *984:RESET1 *984:FCHOP[2] 0.000105542
19 *984:MODINPUT *984:FCHOP[2] 0.000159502
20 *40:53 *804:13 0
21 *67:17 *804:13 0.0179893
22 *650:18 *804:13 0
23 *659:28 *804:9 0
*RES
1 *988:analog_ctrl[33] *804:7 36.8654 
2 *804:7 *804:9 162.882 
3 *804:9 *804:11 3.41 
4 *804:11 *804:13 94.5421 
5 *804:13 *984:FCHOP[2] 41.7726 
*END

*D_NET *805 0.224914
*CONN
*I *984:BUF_FCHOP[0] I *D CF_ADC_DSM20
*I *988:analog_ctrl[34] O *D soc_sys
*CAP
1 *984:BUF_FCHOP[0] 0.00333944
2 *988:analog_ctrl[34] 0.00229879
3 *805:13 0.0327806
4 *805:11 0.0294412
5 *805:9 0.0584927
6 *805:7 0.0607915
7 *984:BUF_FCHOP[0] *984:BUF_FCHOP[1] 0.0183757
8 *984:BUF_FCHOP[0] *820:17 0
9 *805:9 *812:9 0
10 *805:9 *818:9 0
11 *805:13 *806:13 0
12 *805:13 *823:19 0
13 *805:13 *824:19 0.00181817
14 *984:FCHOP[1] *984:BUF_FCHOP[0] 3.23985e-05
15 *984:MODINPUT *984:BUF_FCHOP[0] 0.000159502
16 *984:FCHOP[2] *984:BUF_FCHOP[0] 0.017384
17 *65:21 *805:13 0
18 *659:28 *805:9 0
19 *681:11 *805:9 0
20 *804:13 *805:13 0
*RES
1 *988:analog_ctrl[34] *805:7 49.0082 
2 *805:7 *805:9 160.648 
3 *805:9 *805:11 3.41 
4 *805:11 *805:13 92.3049 
5 *805:13 *984:BUF_FCHOP[0] 35.877 
*END

*D_NET *806 0.289678
*CONN
*I *984:BUF_FCHOP[1] I *D CF_ADC_DSM20
*I *988:analog_ctrl[35] O *D soc_sys
*CAP
1 *984:BUF_FCHOP[1] 0.00400824
2 *988:analog_ctrl[35] 0.00752913
3 *806:13 0.0277674
4 *806:11 0.0237592
5 *806:9 0.0369985
6 *806:7 0.0369985
7 *806:5 0.00752913
8 *984:BUF_FCHOP[1] *984:ODET_TH[3] 2.507e-06
9 *984:BUF_FCHOP[1] *984:BUF_FCHOP[2] 0.00940738
10 *984:BUF_FCHOP[1] *820:17 0
11 *984:BUF_FCHOP[1] *874:17 0.00324084
12 *806:13 *824:19 0.000574244
13 *806:13 *825:19 0.00102247
14 *806:13 *825:21 0.00590802
15 *984:FCHOP[1] *984:BUF_FCHOP[1] 1.37906e-05
16 *984:MODINPUT *984:BUF_FCHOP[1] 0.000511678
17 *984:BUF_FCHOP[0] *984:BUF_FCHOP[1] 0.0183757
18 *984:FCHOP[2] *984:BUF_FCHOP[1] 7.21996e-05
19 *78:31 *806:5 0.00519171
20 *781:9 *806:9 0
21 *781:13 *806:13 0
22 *795:9 *806:9 0.100767
23 *805:13 *806:13 0
*RES
1 *988:analog_ctrl[35] *806:5 151.241 
2 *806:5 *806:7 3.41 
3 *806:7 *806:9 158.846 
4 *806:9 *806:11 3.41 
5 *806:11 *806:13 73.6615 
6 *806:13 *984:BUF_FCHOP[1] 37.511 
*END

*D_NET *807 0.232734
*CONN
*I *984:BUF_FCHOP[2] I *D CF_ADC_DSM20
*I *988:analog_ctrl[36] O *D soc_sys
*CAP
1 *984:BUF_FCHOP[2] 0.0026111
2 *988:analog_ctrl[36] 0.00719421
3 *807:13 0.0193018
4 *807:11 0.0166907
5 *807:9 0.0598861
6 *807:7 0.0598861
7 *807:5 0.00719421
8 *984:BUF_FCHOP[2] *984:ODET_TH[3] 2.02722e-06
9 *984:BUF_FCHOP[2] *984:ODET_TH[2] 0
10 *984:BUF_FCHOP[2] *874:17 0.00812111
11 *984:MODINPUT *984:BUF_FCHOP[2] 0.000464859
12 *984:BUF_FCHOP[1] *984:BUF_FCHOP[2] 0.00940738
13 *651:10 *807:13 0.0354253
14 *685:11 *807:9 0.00654863
15 *795:9 *807:9 0
*RES
1 *988:analog_ctrl[36] *807:5 144.562 
2 *807:5 *807:7 3.41 
3 *807:7 *807:9 172.178 
4 *807:9 *807:11 3.41 
5 *807:11 *807:13 74.7269 
6 *807:13 *984:BUF_FCHOP[2] 25.725 
*END

*D_NET *808 0.330178
*CONN
*I *984:qlev[0] I *D CF_ADC_DSM20
*I *988:analog_ctrl[37] O *D soc_sys
*CAP
1 *984:qlev[0] 3.93512e-05
2 *988:analog_ctrl[37] 0.0133085
3 *808:29 0.00668108
4 *808:27 0.00675094
5 *808:17 0.0151536
6 *808:15 0.0153394
7 *808:9 0.0289204
8 *808:7 0.0286254
9 *808:5 0.0133085
10 *808:29 *809:13 0.0262999
11 *36:9 *808:17 1.98839e-05
12 *38:21 *808:17 0.0291186
13 *39:9 *808:27 2.52096e-05
14 *698:11 *808:9 0.000589369
15 *704:9 *808:9 0.0774757
16 *704:17 *808:17 0.0255095
17 *715:19 *808:17 0.000104937
18 *716:9 *808:9 0.011036
19 *728:24 *808:9 0.00151767
20 *732:9 *808:9 5.58004e-06
21 *766:9 *808:17 0.0129841
22 *771:9 *808:9 0.00225063
23 *772:9 *808:9 0.000976948
24 *776:5 *808:15 0
25 *793:13 *808:29 0.0141364
26 *803:9 *808:9 0
*RES
1 *988:analog_ctrl[37] *808:5 259.312 
2 *808:5 *808:7 3.41 
3 *808:7 *808:9 124.866 
4 *808:9 *808:15 12.7404 
5 *808:15 *808:17 483.946 
6 *808:17 *808:27 11.7519 
7 *808:27 *808:29 55.1326 
8 *808:29 *984:qlev[0] 6.90303 
*END

*D_NET *809 0.243683
*CONN
*I *984:qlev[1] I *D CF_ADC_DSM20
*I *988:analog_ctrl[38] O *D soc_sys
*CAP
1 *984:qlev[1] 3.93512e-05
2 *988:analog_ctrl[38] 0.00657
3 *809:13 0.0183364
4 *809:11 0.018297
5 *809:9 0.0706303
6 *809:7 0.0706303
7 *809:5 0.00657
8 *809:9 *829:9 0
9 *684:11 *809:9 0.0244411
10 *759:9 *809:9 0
11 *770:9 *809:9 0
12 *793:13 *809:13 0.0018688
13 *794:13 *809:13 0
14 *808:29 *809:13 0.0262999
*RES
1 *988:analog_ctrl[38] *809:5 131.812 
2 *809:5 *809:7 3.41 
3 *809:7 *809:9 208.932 
4 *809:9 *809:11 3.41 
5 *809:11 *809:13 78.2895 
6 *809:13 *984:qlev[1] 6.90303 
*END

*D_NET *810 0.332688
*CONN
*I *984:NONOV[0] I *D CF_ADC_DSM20
*I *988:analog_ctrl[39] O *D soc_sys
*CAP
1 *984:NONOV[0] 6.20719e-05
2 *988:analog_ctrl[39] 0.00600521
3 *810:17 0.0136921
4 *810:15 0.01363
5 *810:13 0.0201764
6 *810:11 0.0201764
7 *810:9 0.032322
8 *810:7 0.032322
9 *810:5 0.00600521
10 *810:9 *866:9 0.096736
11 *810:17 *812:17 0.036701
12 *142:34 *810:5 0.00298364
13 *647:18 *810:13 0.0350496
14 *654:13 *984:NONOV[0] 3.87724e-05
15 *676:11 *810:9 0.0167876
16 *759:9 *810:9 0
*RES
1 *988:analog_ctrl[39] *810:5 120.277 
2 *810:5 *810:7 3.41 
3 *810:7 *810:9 152.504 
4 *810:9 *810:11 3.41 
5 *810:11 *810:13 85.8063 
6 *810:13 *810:15 3.41 
7 *810:15 *810:17 58.457 
8 *810:17 *984:NONOV[0] 4.79393 
*END

*D_NET *811 0.392797
*CONN
*I *986:disable_n I *D CF_BUF_HIZ
*I *988:analog_ctrl[3] O *D soc_sys
*CAP
1 *986:disable_n 0.000694236
2 *988:analog_ctrl[3] 0.0137832
3 *811:9 0.0715374
4 *811:7 0.0708431
5 *811:5 0.0137832
6 *986:disable_n *986:gain[0] 0.000586531
7 *986:disable_n *986:gain[1] 6.77829e-05
8 *811:9 *986:gain[0] 0.000149726
9 *811:9 *844:9 0.205888
10 *811:9 *867:11 0.00501802
11 *986:disable_p *986:disable_n 0.00019197
12 *986:enable_hv *986:disable_n 4.98422e-05
13 *23:23 *986:disable_n 0.00054545
14 *23:23 *811:9 0
15 *94:14 *811:5 0.00965877
16 *112:18 *811:9 0
*RES
1 *988:analog_ctrl[3] *811:5 282.384 
2 *811:5 *811:7 3.41 
3 *811:7 *811:9 325.896 
4 *811:9 *986:disable_n 7.61023 
*END

*D_NET *812 0.262573
*CONN
*I *984:NONOV[1] I *D CF_ADC_DSM20
*I *988:analog_ctrl[40] O *D soc_sys
*CAP
1 *984:NONOV[1] 2.62252e-05
2 *988:analog_ctrl[40] 0.00200431
3 *812:17 0.018659
4 *812:15 0.0186328
5 *812:13 0.0280327
6 *812:11 0.0280327
7 *812:9 0.0449979
8 *812:7 0.0470022
9 *20:15 *812:13 0
10 *649:14 *812:17 0.00677294
11 *654:13 *984:NONOV[1] 1.19384e-05
12 *681:11 *812:9 0.0114662
13 *785:10 *812:13 0
14 *787:10 *812:13 0.0202335
15 *788:10 *812:13 0
16 *804:9 *812:9 0
17 *805:9 *812:9 0
18 *810:17 *812:17 0.036701
*RES
1 *988:analog_ctrl[40] *812:7 42.9368 
2 *812:7 *812:9 129.947 
3 *812:9 *812:11 3.41 
4 *812:11 *812:13 100.082 
5 *812:13 *812:15 3.41 
6 *812:15 *812:17 80.3653 
7 *812:17 *984:NONOV[1] 3.93679 
*END

*D_NET *813 0.241565
*CONN
*I *984:ODET_TH[0] I *D CF_ADC_DSM20
*I *988:analog_ctrl[41] O *D soc_sys
*CAP
1 *984:ODET_TH[0] 0.00285139
2 *988:analog_ctrl[41] 0.00489195
3 *813:13 0.0216955
4 *813:11 0.0188441
5 *813:9 0.0592694
6 *813:7 0.0592694
7 *813:5 0.00489195
8 *984:ODET_TH[0] *984:ODET_TH[1] 0.0136322
9 *984:ODET_TH[0] *984:disable_mod 0.0016121
10 *984:ODET_TH[0] *984:dig_test_sel[2] 0.000239867
11 *984:ODET_TH[0] *984:dig_test_sel[1] 0.000275079
12 *984:ODET_TH[0] *820:17 0.0148329
13 *984:ODET_TH[0] *874:17 0
14 *813:9 *815:9 0
15 *651:10 *813:13 0
16 *659:22 *813:13 0.0392137
17 *672:11 *813:9 0
18 *739:18 *984:ODET_TH[0] 4.56733e-05
*RES
1 *988:analog_ctrl[41] *813:5 94.7768 
2 *813:5 *813:7 3.41 
3 *813:7 *813:9 167.206 
4 *813:9 *813:11 3.41 
5 *813:11 *813:13 84.5279 
6 *813:13 *984:ODET_TH[0] 45.312 
*END

*D_NET *814 0.25501
*CONN
*I *984:ODET_TH[1] I *D CF_ADC_DSM20
*I *988:analog_ctrl[42] O *D soc_sys
*CAP
1 *984:ODET_TH[1] 0.00311131
2 *988:analog_ctrl[42] 0.00568656
3 *814:13 0.0211891
4 *814:11 0.0180778
5 *814:9 0.0564647
6 *814:7 0.0564647
7 *814:5 0.00568656
8 *984:ODET_TH[1] *984:ODET_TH[2] 0.00424255
9 *984:ODET_TH[1] *984:disable_mod 0.00174916
10 *984:ODET_TH[1] *820:17 0.000915903
11 *814:5 *853:31 0.00212167
12 *814:9 *833:9 0
13 *814:9 *866:9 0
14 *984:ODET_TH[0] *984:ODET_TH[1] 0.0136322
15 *984:RESET1 *984:ODET_TH[1] 0.011326
16 *669:14 *814:13 0.037557
17 *680:11 *814:9 0.0167842
18 *704:29 *814:13 0
*RES
1 *988:analog_ctrl[42] *814:5 113.598 
2 *814:5 *814:7 3.41 
3 *814:7 *814:9 164.251 
4 *814:9 *814:11 3.41 
5 *814:11 *814:13 81.1189 
6 *814:13 *984:ODET_TH[1] 33.4377 
*END

*D_NET *815 0.233908
*CONN
*I *984:ODET_TH[2] I *D CF_ADC_DSM20
*I *988:analog_ctrl[43] O *D soc_sys
*CAP
1 *984:ODET_TH[2] 0.00345163
2 *988:analog_ctrl[43] 0.00446008
3 *815:13 0.0314953
4 *815:11 0.0280437
5 *815:9 0.054666
6 *815:7 0.054666
7 *815:5 0.00446008
8 *984:ODET_TH[2] *984:ODET_TH[3] 0.0142893
9 *984:ODET_TH[2] *984:disable_mod 0.00166955
10 *984:ODET_TH[2] *874:17 0
11 *815:9 *822:9 0
12 *984:ODET_TH[1] *984:ODET_TH[2] 0.00424255
13 *984:RESET1 *984:ODET_TH[2] 0.0121557
14 *984:BUF_FCHOP[2] *984:ODET_TH[2] 0
15 *70:14 *815:5 0.00274408
16 *669:14 *815:13 0
17 *672:11 *815:9 0.0145886
18 *704:29 *815:13 0.00297594
19 *813:9 *815:9 0
*RES
1 *988:analog_ctrl[43] *815:5 88.7054 
2 *815:5 *815:7 3.41 
3 *815:7 *815:9 162.161 
4 *815:9 *815:11 3.41 
5 *815:11 *815:13 85.2737 
6 *815:13 *984:ODET_TH[2] 34.2194 
*END

*D_NET *816 0.294949
*CONN
*I *984:ODET_TH[3] I *D CF_ADC_DSM20
*I *988:analog_ctrl[44] O *D soc_sys
*CAP
1 *984:ODET_TH[3] 0.00310504
2 *988:analog_ctrl[44] 0.00843706
3 *816:13 0.0150365
4 *816:11 0.0119315
5 *816:9 0.0334271
6 *816:7 0.0334271
7 *816:5 0.00843706
8 *984:ODET_TH[3] *984:ODET_TH[4] 0.0143252
9 *984:ODET_TH[3] *984:disable_mod 0.000865035
10 *984:ODET_TH[3] *866:13 1.48292e-05
11 *984:ODET_TH[2] *984:ODET_TH[3] 0.0142893
12 *984:RESET1 *984:ODET_TH[3] 0.00069479
13 *984:BUF_FCHOP[2] *984:ODET_TH[3] 2.02722e-06
14 *984:BUF_FCHOP[1] *984:ODET_TH[3] 2.507e-06
15 *540:37 *816:13 0.0124859
16 *770:13 *816:13 0.017951
17 *786:11 *816:9 0.0193603
18 *790:9 *816:9 0
19 *796:13 *984:ODET_TH[3] 8.59628e-05
20 *801:9 *816:9 0.101071
*RES
1 *988:analog_ctrl[44] *816:5 163.384 
2 *816:5 *816:7 3.41 
3 *816:7 *816:9 159.35 
4 *816:9 *816:11 3.41 
5 *816:11 *816:13 72.0635 
6 *816:13 *984:ODET_TH[3] 39.031 
*END

*D_NET *817 0.213176
*CONN
*I *984:ODET_TH[4] I *D CF_ADC_DSM20
*I *988:analog_ctrl[45] O *D soc_sys
*CAP
1 *984:ODET_TH[4] 0.0030474
2 *988:analog_ctrl[45] 0.0014098
3 *817:13 0.033045
4 *817:11 0.0299976
5 *817:9 0.05618
6 *817:7 0.0575898
7 *984:ODET_TH[4] *984:disable_mod 0.000770337
8 *817:9 *820:9 0
9 *817:13 *819:13 0
10 *984:FCHOP[1] *984:ODET_TH[4] 0.00884272
11 *984:ODET_TH[3] *984:ODET_TH[4] 0.0143252
12 *984:RESET1 *984:ODET_TH[4] 0.000523413
13 *984:FCHOP[2] *984:ODET_TH[4] 0.00382607
14 *988:adc_dout[1] *817:9 0
15 *40:53 *817:13 0
16 *651:16 *817:9 0
17 *677:9 *817:9 0
18 *786:19 *817:13 0.00361888
19 *797:13 *817:13 0
20 *799:9 *817:9 0
21 *804:9 *817:9 0
*RES
1 *988:analog_ctrl[45] *817:7 30.7939 
2 *817:7 *817:9 156.251 
3 *817:9 *817:11 3.41 
4 *817:11 *817:13 95.8205 
5 *817:13 *984:ODET_TH[4] 31.8036 
*END

*D_NET *818 0.27472
*CONN
*I *984:dig_test_sel[0] I *D CF_ADC_DSM20
*I *988:analog_ctrl[46] O *D soc_sys
*CAP
1 *984:dig_test_sel[0] 3.93512e-05
2 *988:analog_ctrl[46] 0.00261507
3 *818:13 0.0309258
4 *818:11 0.0308865
5 *818:9 0.0540751
6 *818:7 0.0540751
7 *818:5 0.00261507
8 *103:23 *818:5 0.000211187
9 *669:20 *818:9 0.0156151
10 *693:9 *818:9 0.0836613
11 *805:9 *818:9 0
*RES
1 *988:analog_ctrl[46] *818:5 51.6696 
2 *818:5 *818:7 3.41 
3 *818:7 *818:9 205.329 
4 *818:9 *818:11 3.41 
5 *818:11 *818:13 92.2814 
6 *818:13 *984:dig_test_sel[0] 6.90303 
*END

*D_NET *819 0.299804
*CONN
*I *984:dig_test_sel[1] I *D CF_ADC_DSM20
*I *988:analog_ctrl[47] O *D soc_sys
*CAP
1 *984:dig_test_sel[1] 0.00775371
2 *988:analog_ctrl[47] 0.00299596
3 *819:13 0.0297868
4 *819:11 0.0220331
5 *819:9 0.0364292
6 *819:7 0.0364292
7 *819:5 0.00299596
8 *984:dig_test_sel[1] *984:disable_mod 0.00264099
9 *984:dig_test_sel[1] *984:dig_test_sel[2] 0.000373302
10 *984:dig_test_sel[1] *820:17 0.0171297
11 *984:ODET_TH[0] *984:dig_test_sel[1] 0.000275079
12 *14:37 *984:dig_test_sel[1] 0
13 *36:13 *819:13 0.00311147
14 *37:29 *819:13 0.000288548
15 *38:25 *819:13 0.00169103
16 *39:13 *819:13 0.00278472
17 *40:53 *819:13 0.00681631
18 *650:18 *819:13 0
19 *667:18 *819:9 0.00751069
20 *786:19 *819:13 0.000161257
21 *791:9 *819:9 0.0857987
22 *797:13 *819:13 0.0327983
23 *800:9 *819:9 0
24 *817:13 *819:13 0
*RES
1 *988:analog_ctrl[47] *819:5 58.9554 
2 *819:5 *819:7 3.41 
3 *819:7 *819:9 153.657 
4 *819:9 *819:11 3.41 
5 *819:11 *819:13 91.0265 
6 *819:13 *984:dig_test_sel[1] 40.4673 
*END

*D_NET *820 0.280817
*CONN
*I *984:dig_test_sel[2] I *D CF_ADC_DSM20
*I *988:analog_ctrl[48] O *D soc_sys
*CAP
1 *984:dig_test_sel[2] 0.000189355
2 *988:analog_ctrl[48] 0.00117056
3 *820:17 0.0136169
4 *820:15 0.0134276
5 *820:13 0.0301775
6 *820:11 0.0301775
7 *820:9 0.0263585
8 *820:7 0.0275291
9 *820:17 *984:disable_mod 0.00385026
10 *984:ODET_TH[1] *820:17 0.000915903
11 *984:ODET_TH[0] *984:dig_test_sel[2] 0.000239867
12 *984:ODET_TH[0] *820:17 0.0148329
13 *984:RESET1 *820:17 0.00150646
14 *984:dig_test_sel[1] *984:dig_test_sel[2] 0.000373302
15 *984:dig_test_sel[1] *820:17 0.0171297
16 *984:BUF_FCHOP[1] *820:17 0
17 *984:BUF_FCHOP[0] *820:17 0
18 *984:FCHOP[2] *820:17 0
19 *677:9 *820:9 0.0141366
20 *789:10 *820:13 0.00532719
21 *799:9 *820:9 0.0798576
22 *817:9 *820:9 0
*RES
1 *988:analog_ctrl[48] *820:7 25.3296 
2 *820:7 *820:9 125.767 
3 *820:9 *820:11 3.41 
4 *820:11 *820:13 97.4185 
5 *820:13 *820:15 3.41 
6 *820:15 *820:17 59.0696 
7 *820:17 *984:dig_test_sel[2] 4.6931 
*END

*D_NET *821 0.211704
*CONN
*I *984:bw[0] I *D CF_ADC_DSM20
*I *988:analog_ctrl[49] O *D soc_sys
*CAP
1 *984:bw[0] 0.000426358
2 *988:analog_ctrl[49] 0.00389036
3 *821:25 0.00373178
4 *821:23 0.00330542
5 *821:21 0.0254604
6 *821:19 0.0334459
7 *821:9 0.0612332
8 *821:7 0.0532476
9 *821:5 0.00389036
10 *821:9 *822:9 0
11 *821:9 *877:9 0
12 *821:19 *823:19 6.58294e-06
13 *821:19 *844:9 0.000390517
14 *984:SUMCAPIN[2] *984:bw[0] 0.00160652
15 *984:SUMCAP1[1] *984:bw[0] 3.58773e-05
16 *984:FCAP3[1] *821:25 0.000223526
17 *984:IPCAP1[2] *984:bw[0] 0.000142754
18 *984:IPCAP1OFFSET *984:bw[0] 5.45242e-05
19 *40:53 *821:19 0
20 *650:18 *821:19 0.00274876
21 *727:22 *984:bw[0] 0.00136629
22 *735:38 *984:bw[0] 0.000149795
23 *741:22 *821:25 0.000233389
24 *742:22 *821:25 0.000400804
25 *750:22 *821:25 0.00343612
26 *782:9 *821:9 0
27 *786:25 *821:25 0.00309433
28 *804:13 *821:19 0.00918317
*RES
1 *988:analog_ctrl[49] *821:5 76.5625 
2 *821:5 *821:7 3.41 
3 *821:7 *821:9 150.486 
4 *821:9 *821:19 47.8034 
5 *821:19 *821:21 510.58 
6 *821:21 *821:23 4.5 
7 *821:23 *821:25 87.6071 
8 *821:25 *984:bw[0] 21.9022 
*END

*D_NET *822 0.315695
*CONN
*I *986:bypass_p I *D CF_BUF_HIZ
*I *988:analog_ctrl[4] O *D soc_sys
*CAP
1 *986:bypass_p 3.55353e-05
2 *988:analog_ctrl[4] 0.0040791
3 *822:13 0.0223632
4 *822:11 0.0223276
5 *822:9 0.131401
6 *822:7 0.131401
7 *822:5 0.0040791
8 *23:13 *986:bypass_p 8.0277e-06
9 *815:9 *822:9 0
10 *821:9 *822:9 0
*RES
1 *988:analog_ctrl[4] *822:5 82.6339 
2 *822:5 *822:7 3.41 
3 *822:7 *822:9 382.325 
4 *822:9 *822:11 3.41 
5 *822:11 *822:13 70.9105 
6 *822:13 *986:bypass_p 6.90303 
*END

*D_NET *823 0.250277
*CONN
*I *984:bw[1] I *D CF_ADC_DSM20
*I *988:analog_ctrl[50] O *D soc_sys
*CAP
1 *984:bw[1] 0.000409608
2 *988:analog_ctrl[50] 0.010952
3 *823:25 0.00165544
4 *823:23 0.00124583
5 *823:21 0.0256575
6 *823:19 0.0292527
7 *823:9 0.0492445
8 *823:7 0.0456493
9 *823:5 0.010952
10 *984:bw[1] *984:bw[2] 6.12661e-05
11 *984:bw[1] *984:bw[3] 0.00129203
12 *823:5 *854:18 0.00613081
13 *823:19 *844:9 0.000648642
14 *823:25 *825:25 6.13757e-06
15 *984:SUMCAPIN[2] *984:bw[1] 0.000294726
16 *984:refsel[12] *984:bw[1] 1.39702e-05
17 *984:refsel[7] *984:bw[1] 6.54597e-06
18 *984:DACCAP[0] *984:bw[1] 0.000162216
19 *984:FCAP1OFFSET *984:bw[1] 0.000333402
20 *65:21 *823:19 0.000999207
21 *67:17 *823:19 6.7962e-06
22 *682:9 *823:9 0.0374905
23 *702:22 *984:bw[1] 0.00133397
24 *706:22 *823:25 0.00954107
25 *727:22 *823:25 0.00219503
26 *742:22 *823:25 1.32552e-05
27 *748:9 *823:9 0
28 *752:22 *823:25 5.5671e-05
29 *765:26 *823:25 7.99226e-05
30 *777:22 *823:25 0.00966469
31 *804:13 *823:19 0
32 *804:13 *823:21 0.00492126
33 *805:13 *823:19 0
34 *821:19 *823:19 6.58294e-06
*RES
1 *988:analog_ctrl[50] *823:5 218.027 
2 *823:5 *823:7 3.41 
3 *823:7 *823:9 148.684 
4 *823:9 *823:19 22.8025 
5 *823:19 *823:21 513.616 
6 *823:21 *823:23 4.5 
7 *823:23 *823:25 92.9464 
8 *823:25 *984:bw[1] 20.9179 
*END

*D_NET *824 0.219405
*CONN
*I *984:bw[2] I *D CF_ADC_DSM20
*I *988:analog_ctrl[51] O *D soc_sys
*CAP
1 *984:bw[2] 0.000391424
2 *988:analog_ctrl[51] 0.0112925
3 *824:25 0.00367255
4 *824:23 0.00328112
5 *824:21 0.0257276
6 *824:19 0.0284228
7 *824:9 0.0557439
8 *824:7 0.0530488
9 *824:5 0.0112925
10 *984:bw[2] *984:bw[3] 0.0013181
11 *824:5 *862:22 0.00130393
12 *824:19 *825:19 6.58294e-06
13 *824:19 *844:9 0.000390517
14 *824:25 *825:25 0.0105719
15 *984:bw[1] *984:bw[2] 6.12661e-05
16 *984:refsel[12] *984:bw[2] 0.00170478
17 *984:DACCAP[0] *984:bw[2] 5.43958e-05
18 *984:FCAP1OFFSET *984:bw[2] 0.000368668
19 *984:itrim_1[2] *824:9 0.00601212
20 *682:9 *824:9 0
21 *701:22 *824:25 0
22 *702:22 *824:25 0.00234747
23 *802:9 *824:9 0
24 *805:13 *824:19 0.00181817
25 *806:13 *824:19 0.000574244
*RES
1 *988:analog_ctrl[51] *824:5 224.705 
2 *824:5 *824:7 3.41 
3 *824:7 *824:9 146.739 
4 *824:9 *824:19 21.8092 
5 *824:19 *824:21 514.83 
6 *824:21 *824:23 4.5 
7 *824:23 *824:25 99.5179 
8 *824:25 *984:bw[2] 20.3013 
*END

*D_NET *825 0.224425
*CONN
*I *984:bw[3] I *D CF_ADC_DSM20
*I *988:analog_ctrl[52] O *D soc_sys
*CAP
1 *984:bw[3] 0.000408639
2 *988:analog_ctrl[52] 0.0128719
3 *825:25 0.00233677
4 *825:23 0.00192813
5 *825:21 0.025735
6 *825:19 0.0276501
7 *825:9 0.0511818
8 *825:7 0.0492667
9 *825:5 0.0128719
10 *825:19 *844:9 0.000648642
11 *984:bw[1] *984:bw[3] 0.00129203
12 *984:bw[2] *984:bw[3] 0.0013181
13 *984:refsel[13] *984:bw[3] 0
14 *984:refsel[7] *984:bw[3] 4.06299e-05
15 *678:11 *825:9 0.0117648
16 *679:11 *825:9 0
17 *701:22 *825:25 0
18 *702:22 *825:25 0.00230889
19 *715:9 *825:9 0
20 *742:22 *825:25 0
21 *765:22 *825:25 0.00206996
22 *765:26 *825:25 0.00321647
23 *781:13 *825:19 0
24 *798:9 *825:9 0
25 *806:13 *825:19 0.00102247
26 *806:13 *825:21 0.00590802
27 *823:25 *825:25 6.13757e-06
28 *824:19 *825:19 6.58294e-06
29 *824:25 *825:25 0.0105719
*RES
1 *988:analog_ctrl[52] *825:5 248.991 
2 *825:5 *825:7 3.41 
3 *825:7 *825:9 144.937 
4 *825:9 *825:19 17.3693 
5 *825:19 *825:21 515.134 
6 *825:21 *825:23 4.5 
7 *825:23 *825:25 106.089 
8 *825:25 *984:bw[3] 21.911 
*END

*D_NET *826 0.250522
*CONN
*I *984:SCANINPUT I *D CF_ADC_DSM20
*I *988:analog_ctrl[53] O *D soc_sys
*CAP
1 *984:SCANINPUT 0.000733861
2 *988:analog_ctrl[53] 0.0119114
3 *826:21 0.0206011
4 *826:19 0.0212643
5 *826:9 0.0592517
6 *826:7 0.0578546
7 *826:5 0.0119114
8 *984:SCANINPUT *984:SCANCLK 0.000135531
9 *984:SCANINPUT *984:reset_b 0.00161799
10 *826:19 *873:13 0.000647954
11 *826:21 *873:13 0.0255215
12 *984:EN_DWA *984:SCANINPUT 0.000161913
13 *20:11 *826:9 0.0269961
14 *715:19 *826:19 0.000911926
15 *715:21 *826:21 0.00938244
16 *759:25 *984:SCANINPUT 0.00161815
*RES
1 *988:analog_ctrl[53] *826:5 237 
2 *826:5 *826:7 4.5 
3 *826:7 *826:9 1098.79 
4 *826:9 *826:19 38.9859 
5 *826:19 *826:21 93.0506 
6 *826:21 *984:SCANINPUT 46.3316 
*END

*D_NET *827 0.293898
*CONN
*I *984:SCANMODE I *D CF_ADC_DSM20
*I *988:analog_ctrl[54] O *D soc_sys
*CAP
1 *984:SCANMODE 0.00160708
2 *988:analog_ctrl[54] 0.0376171
3 *827:35 0.00837603
4 *827:33 0.00694844
5 *827:21 0.00252847
6 *827:19 0.00237277
7 *827:17 0.0178243
8 *827:15 0.0178909
9 *827:9 0.0123888
10 *827:7 0.0122984
11 *827:5 0.0376171
12 *984:refsel[2] *827:33 2.32249e-05
13 *984:vgndd_vnb *984:SCANMODE 0
14 *984:EN_ADWA *984:SCANMODE 0.000112431
15 *40:25 *827:35 0
16 *40:35 *827:33 0
17 *40:37 *827:17 0
18 *40:37 *827:21 0
19 *697:20 *827:9 0.000705826
20 *713:14 *827:17 0.0230586
21 *713:14 *827:21 0.00126135
22 *713:14 *827:33 0.000101419
23 *713:14 *827:35 0.00102611
24 *737:9 *827:9 0.035748
25 *737:15 *827:15 0.000188761
26 *737:17 *827:17 0.0583195
27 *737:17 *827:21 0.00366475
28 *737:27 *827:33 0.000147755
29 *737:29 *827:35 0.0118111
30 *748:13 *984:SCANMODE 0.000259935
*RES
1 *988:analog_ctrl[54] *827:5 764.455 
2 *827:5 *827:7 3.41 
3 *827:7 *827:9 56.0428 
4 *827:9 *827:15 10.3118 
5 *827:15 *827:17 552.741 
6 *827:17 *827:19 0.428571 
7 *827:19 *827:21 63.9911 
8 *827:21 *827:33 13.3929 
9 *827:33 *827:35 173.446 
10 *827:35 *984:SCANMODE 28.2978 
*END

*D_NET *828 0.26463
*CONN
*I *984:SCANCLK I *D CF_ADC_DSM20
*I *988:analog_ctrl[55] O *D soc_sys
*CAP
1 *984:SCANCLK 0.000851831
2 *988:analog_ctrl[55] 0.00526389
3 *828:31 0.00627363
4 *828:13 0.0318782
5 *828:11 0.0264564
6 *828:9 0.0613619
7 *828:7 0.0613619
8 *828:5 0.00526389
9 *984:SCANCLK *984:SCANEN 9.60009e-06
10 *984:SCANCLK *984:reset_b 0.00248475
11 *828:9 *833:9 0
12 *828:13 *866:13 0.0557233
13 *828:31 *984:reset_b 0.00154334
14 *828:31 *866:31 0.000234687
15 *828:31 *866:41 0.00067038
16 *984:IPCAP1[0] *828:31 0.000238124
17 *984:FCAP1[3] *828:13 1.65282e-05
18 *984:FCAP1[3] *828:31 0.0007294
19 *984:FCAP1[1] *828:13 0
20 *984:FCAP1[1] *828:31 0
21 *984:TESTMODE *828:31 0.00390377
22 *984:SCANINPUT *984:SCANCLK 0.000135531
23 *661:16 *828:31 0.000228766
24 *796:13 *828:31 0
*RES
1 *988:analog_ctrl[55] *828:5 101.455 
2 *828:5 *828:7 3.41 
3 *828:7 *828:9 174.268 
4 *828:9 *828:11 3.41 
5 *828:11 *828:13 120.643 
6 *828:13 *828:31 29.8532 
7 *828:31 *984:SCANCLK 35.4286 
*END

*D_NET *829 0.331546
*CONN
*I *984:SCANEN I *D CF_ADC_DSM20
*I *988:analog_ctrl[56] O *D soc_sys
*CAP
1 *984:SCANEN 0.000638072
2 *988:analog_ctrl[56] 0.00637928
3 *829:13 0.0271048
4 *829:11 0.0264667
5 *829:9 0.0488642
6 *829:7 0.0488642
7 *829:5 0.00637928
8 *984:SCANCLK *984:SCANEN 9.60009e-06
9 *984:EN_ADWA *984:SCANEN 0
10 *54:15 *829:5 0.00316425
11 *658:12 *829:13 0
12 *660:12 *829:13 0
13 *748:13 *829:13 0.0488944
14 *759:9 *829:9 0.114271
15 *794:13 *829:13 0.000510264
16 *809:9 *829:9 0
*RES
1 *988:analog_ctrl[56] *829:5 126.348 
2 *829:5 *829:7 3.41 
3 *829:7 *829:9 192.933 
4 *829:9 *829:11 3.41 
5 *829:11 *829:13 118.406 
6 *829:13 *984:SCANEN 12.7718 
*END

*D_NET *830 0.14482
*CONN
*I *985:trimTC[0] I *D CF_BGR
*I *988:analog_ctrl[57] O *D soc_sys
*CAP
1 *985:trimTC[0] 0.00896013
2 *988:analog_ctrl[57] 1.42786e-05
3 *830:10 0.0707318
4 *830:8 0.061786
5 *985:trimTC[0] *985:trimCurr[5] 0.000583746
6 *985:trimTC[0] *985:trimCurr[4] 0
7 *985:trimTC[0] *985:trimCurr[3] 0.00266607
8 *985:trimTC[0] *985:trimTC[5] 0
9 *830:8 *856:8 4.98422e-05
10 *830:8 *862:20 2.81967e-05
11 *830:10 *843:10 0
12 *54:15 *830:10 0
*RES
1 *988:analog_ctrl[57] *830:8 6.90303 
2 *830:8 *830:10 192.446 
3 *830:10 *985:trimTC[0] 43.4615 
*END

*D_NET *831 0.188952
*CONN
*I *985:trimTC[1] I *D CF_BGR
*I *988:analog_ctrl[58] O *D soc_sys
*CAP
1 *985:trimTC[1] 0.00539949
2 *988:analog_ctrl[58] 0.0348114
3 *831:11 0.0151746
4 *831:5 0.0445866
5 *985:trimTC[1] *985:finetune 0.00037724
6 *985:trimTC[1] *985:trimTC[2] 0
7 *831:5 *843:10 0.0268545
8 *831:11 *832:11 0
9 *81:52 *985:trimTC[1] 4.35802e-05
10 *726:13 *831:5 0.0617043
*RES
1 *988:analog_ctrl[58] *831:5 988.491 
2 *831:5 *831:11 35.009 
3 *831:11 *985:trimTC[1] 25.5612 
*END

*D_NET *832 0.128103
*CONN
*I *985:trimTC[2] I *D CF_BGR
*I *988:analog_ctrl[59] O *D soc_sys
*CAP
1 *985:trimTC[2] 0.00417245
2 *988:analog_ctrl[59] 0.0482423
3 *832:11 0.0134018
4 *832:5 0.0574716
5 *985:trimTC[2] *985:trimTC[3] 7.05937e-05
6 *985:trimTC[2] *834:13 0.00473601
7 *985:trimTC[1] *985:trimTC[2] 0
8 *81:52 *985:trimTC[2] 8.28335e-06
9 *726:13 *832:5 0
10 *831:11 *832:11 0
*RES
1 *988:analog_ctrl[59] *832:5 982.42 
2 *832:5 *832:11 33.3515 
3 *832:11 *985:trimTC[2] 26.4299 
*END

*D_NET *833 0.262429
*CONN
*I *986:bypass_n I *D CF_BUF_HIZ
*I *988:analog_ctrl[5] O *D soc_sys
*CAP
1 *986:bypass_n 3.93512e-05
2 *988:analog_ctrl[5] 0.00546515
3 *833:13 0.020242
4 *833:11 0.0202026
5 *833:9 0.105507
6 *833:7 0.105507
7 *833:5 0.00546515
8 *814:9 *833:9 0
9 *828:9 *833:9 0
*RES
1 *988:analog_ctrl[5] *833:5 107.527 
2 *833:5 *833:7 3.41 
3 *833:7 *833:9 291.593 
4 *833:9 *833:11 3.41 
5 *833:11 *833:13 63.3513 
6 *833:13 *986:bypass_n 6.90303 
*END

*D_NET *834 0.160051
*CONN
*I *985:trimTC[3] I *D CF_BGR
*I *988:analog_ctrl[60] O *D soc_sys
*CAP
1 *985:trimTC[3] 0.000107095
2 *988:analog_ctrl[60] 0.0143954
3 *834:13 0.0424031
4 *834:11 0.0500179
5 *834:5 0.0221173
6 *985:trimTC[3] *985:trimTC[4] 0
7 *834:11 *844:9 0.00302651
8 *834:13 *985:trimTC[4] 0.0013074
9 *834:13 *869:5 0.0218373
10 *985:trimTC[2] *985:trimTC[3] 7.05937e-05
11 *985:trimTC[2] *834:13 0.00473601
12 *81:52 *985:trimTC[3] 3.19061e-05
*RES
1 *988:analog_ctrl[60] *834:5 286.027 
2 *834:5 *834:11 32.2705 
3 *834:11 *834:13 140.458 
4 *834:13 *985:trimTC[3] 8.30045 
*END

*D_NET *835 0.125269
*CONN
*I *985:trimTC[4] I *D CF_BGR
*I *988:analog_ctrl[61] O *D soc_sys
*CAP
1 *985:trimTC[4] 0.0100636
2 *988:analog_ctrl[61] 0.0518712
3 *835:5 0.0619348
4 *985:trimTC[4] *985:trimTC[5] 7.68229e-05
5 *985:trimTC[4] *985:inl_ctrl[1] 0
6 *985:trimTC[3] *985:trimTC[4] 0
7 *81:52 *985:trimTC[4] 1.47728e-05
8 *834:13 *985:trimTC[4] 0.0013074
*RES
1 *988:analog_ctrl[61] *835:5 1055.88 
2 *835:5 *985:trimTC[4] 45.7793 
*END

*D_NET *836 0.142194
*CONN
*I *985:trimTC[5] I *D CF_BGR
*I *988:analog_ctrl[62] O *D soc_sys
*CAP
1 *985:trimTC[5] 0.00798737
2 *988:analog_ctrl[62] 1.22931e-05
3 *836:10 0.0694795
4 *836:8 0.0615044
5 *985:trimTC[5] *985:trimCurr[4] 0.00300308
6 *985:trimTC[5] *985:pd 0
7 *985:trimTC[5] *985:trimTC[6] 0
8 *836:8 *843:8 5.27153e-05
9 *836:8 *856:8 4.98422e-05
10 *985:trimTC[4] *985:trimTC[5] 7.68229e-05
11 *985:trimTC[0] *985:trimTC[5] 0
12 *81:52 *985:trimTC[5] 2.7955e-05
*RES
1 *988:analog_ctrl[62] *836:8 6.90303 
2 *836:8 *836:10 191.7 
3 *836:10 *985:trimTC[5] 32.3966 
*END

*D_NET *837 0.132381
*CONN
*I *985:trimTC[6] I *D CF_BGR
*I *988:analog_ctrl[63] O *D soc_sys
*CAP
1 *985:trimTC[6] 0.00553474
2 *988:analog_ctrl[63] 0.0530127
3 *837:5 0.0585475
4 *985:trimTC[6] *985:CurrAbsTrim[5] 0.00611763
5 *985:trimTC[5] *985:trimTC[6] 0
6 *70:20 *985:trimTC[6] 0.00479525
7 *81:52 *985:trimTC[6] 0.00028552
8 *105:18 *985:trimTC[6] 0.00398106
9 *109:24 *837:5 0.000106515
*RES
1 *988:analog_ctrl[63] *837:5 1079.56 
2 *837:5 *985:trimTC[6] 38.2484 
*END

*D_NET *838 0.150068
*CONN
*I *985:trimCurr[0] I *D CF_BGR
*I *988:analog_ctrl[64] O *D soc_sys
*CAP
1 *985:trimCurr[0] 0.00185447
2 *988:analog_ctrl[64] 1.22931e-05
3 *838:10 0.0489066
4 *838:8 0.0470644
5 *985:trimCurr[0] *985:trimCurr[5] 2.10638e-05
6 *985:trimCurr[0] *985:trimCurr[4] 0.00954617
7 *985:trimCurr[0] *985:trimCurr[3] 9.20155e-05
8 *985:trimCurr[0] *985:trimCurr[2] 4.89453e-05
9 *985:trimCurr[0] *985:trimCurr[1] 0.00866978
10 *838:8 *843:8 5.27153e-05
11 *838:8 *856:8 4.98422e-05
12 *838:10 *839:10 0.0337496
*RES
1 *988:analog_ctrl[64] *838:8 6.90303 
2 *838:8 *838:10 191.914 
3 *838:10 *985:trimCurr[0] 23.6147 
*END

*D_NET *839 0.172499
*CONN
*I *985:trimCurr[1] I *D CF_BGR
*I *988:analog_ctrl[65] O *D soc_sys
*CAP
1 *985:trimCurr[1] 0.00194068
2 *988:analog_ctrl[65] 5.42119e-05
3 *839:10 0.0598712
4 *839:8 0.0579848
5 *985:trimCurr[1] *985:trimCurr[4] 0.000141107
6 *985:trimCurr[1] *985:trimCurr[2] 0.00962165
7 *985:trimCurr[1] *985:CurrAbsTrim[2] 5.75583e-06
8 *985:trimCurr[1] *985:CurrAbsTrim[3] 1.31781e-06
9 *839:8 *843:8 0.000231176
10 *839:8 *856:8 0.000227877
11 *985:trimCurr[0] *985:trimCurr[1] 0.00866978
12 *838:10 *839:10 0.0337496
*RES
1 *988:analog_ctrl[65] *839:8 7.1913 
2 *839:8 *839:10 192.02 
3 *839:10 *985:trimCurr[1] 29.544 
*END

*D_NET *840 0.160606
*CONN
*I *985:trimCurr[2] I *D CF_BGR
*I *988:analog_ctrl[66] O *D soc_sys
*CAP
1 *985:trimCurr[2] 0.00238929
2 *988:analog_ctrl[66] 1.94165e-05
3 *840:10 0.0702451
4 *840:8 0.0678752
5 *985:trimCurr[2] *985:trimCurr[4] 0.000189596
6 *985:trimCurr[2] *985:trimCurr[3] 0.0099348
7 *985:trimCurr[2] *985:CurrAbsTrim[0] 0
8 *985:trimCurr[2] *985:CurrAbsTrim[1] 1.4477e-06
9 *985:trimCurr[2] *985:inl_ctrl[0] 8.73619e-05
10 *840:8 *843:8 9.84683e-05
11 *840:8 *856:8 9.51694e-05
12 *840:10 *841:10 0
13 *985:trimCurr[0] *985:trimCurr[2] 4.89453e-05
14 *985:trimCurr[1] *985:trimCurr[2] 0.00962165
*RES
1 *988:analog_ctrl[66] *840:8 6.9751 
2 *840:8 *840:10 192.127 
3 *840:10 *985:trimCurr[2] 32.6319 
*END

*D_NET *841 0.14706
*CONN
*I *985:trimCurr[3] I *D CF_BGR
*I *988:analog_ctrl[67] O *D soc_sys
*CAP
1 *985:trimCurr[3] 0.00219724
2 *988:analog_ctrl[67] 1.94258e-05
3 *841:10 0.0639296
4 *841:8 0.0617518
5 *985:trimCurr[3] *985:trimCurr[5] 0.00613176
6 *985:trimCurr[3] *985:trimCurr[4] 0.00014372
7 *985:trimCurr[3] *985:CurrAbsTrim[0] 0
8 *985:trimCurr[3] *985:inl_ctrl[0] 0
9 *841:8 *843:8 9.84683e-05
10 *841:8 *856:8 9.5164e-05
11 *841:10 *842:10 0
12 *985:trimCurr[2] *985:trimCurr[3] 0.0099348
13 *985:trimCurr[0] *985:trimCurr[3] 9.20155e-05
14 *985:trimTC[0] *985:trimCurr[3] 0.00266607
15 *840:10 *841:10 0
*RES
1 *988:analog_ctrl[67] *841:8 6.9751 
2 *841:8 *841:10 192.233 
3 *841:10 *985:trimCurr[3] 31.9958 
*END

*D_NET *842 0.150684
*CONN
*I *985:trimCurr[4] I *D CF_BGR
*I *988:analog_ctrl[68] O *D soc_sys
*CAP
1 *985:trimCurr[4] 0.003526
2 *988:analog_ctrl[68] 1.22931e-05
3 *842:10 0.0675168
4 *842:8 0.0640031
5 *985:trimCurr[4] *985:dft_sel 0
6 *985:trimCurr[4] *985:inl_ctrl[1] 0.000209524
7 *985:trimCurr[4] *985:inl_ctrl[3] 0.0022904
8 *842:8 *843:8 5.27153e-05
9 *842:8 *856:8 4.98422e-05
10 *985:trimCurr[3] *985:trimCurr[4] 0.00014372
11 *985:trimCurr[2] *985:trimCurr[4] 0.000189596
12 *985:trimCurr[0] *985:trimCurr[4] 0.00954617
13 *985:trimCurr[1] *985:trimCurr[4] 0.000141107
14 *985:trimTC[5] *985:trimCurr[4] 0.00300308
15 *985:trimTC[0] *985:trimCurr[4] 0
16 *841:10 *842:10 0
*RES
1 *988:analog_ctrl[68] *842:8 6.90303 
2 *842:8 *842:10 191.807 
3 *842:10 *985:trimCurr[4] 26.9117 
*END

*D_NET *843 0.194623
*CONN
*I *985:trimCurr[5] I *D CF_BGR
*I *988:analog_ctrl[69] O *D soc_sys
*CAP
1 *985:trimCurr[5] 0.00224764
2 *988:analog_ctrl[69] 0.00110039
3 *843:10 0.0696585
4 *843:8 0.0685113
5 *985:trimCurr[5] *985:CurrAbsTrim[0] 0.00134849
6 *843:8 *856:8 0.00261063
7 *843:8 *862:20 0.0055086
8 *985:trimCurr[3] *985:trimCurr[5] 0.00613176
9 *985:trimCurr[0] *985:trimCurr[5] 2.10638e-05
10 *985:trimTC[0] *985:trimCurr[5] 0.000583746
11 *726:13 *843:10 0.00945986
12 *830:10 *843:10 0
13 *831:5 *843:10 0.0268545
14 *836:8 *843:8 5.27153e-05
15 *838:8 *843:8 5.27153e-05
16 *839:8 *843:8 0.000231176
17 *840:8 *843:8 9.84683e-05
18 *841:8 *843:8 9.84683e-05
19 *842:8 *843:8 5.27153e-05
*RES
1 *988:analog_ctrl[69] *843:8 15.551 
2 *843:8 *843:10 192.446 
3 *843:10 *985:trimCurr[5] 25.3312 
*END

*D_NET *844 0.394346
*CONN
*I *986:gain[0] I *D CF_BUF_HIZ
*I *988:analog_ctrl[6] O *D soc_sys
*CAP
1 *986:gain[0] 0.00100608
2 *988:analog_ctrl[6] 0.0138381
3 *844:9 0.0701073
4 *844:7 0.0691012
5 *844:5 0.0138381
6 *986:gain[0] *986:gain[1] 0.000584868
7 *986:disable_n *986:gain[0] 0.000586531
8 *986:disable_p *986:gain[0] 4.31981e-05
9 *23:23 *986:gain[0] 0
10 *23:23 *844:9 0.00103309
11 *40:51 *844:9 0.000597467
12 *87:25 *844:5 0.00918781
13 *112:18 *986:gain[0] 0.000904535
14 *700:20 *844:9 0.000651651
15 *728:24 *844:9 4.98422e-05
16 *771:19 *844:9 4.31981e-05
17 *772:19 *844:9 9.61175e-05
18 *779:16 *844:9 0.000511574
19 *786:19 *844:9 0.000691902
20 *787:16 *844:9 0.000330621
21 *811:9 *986:gain[0] 0.000149726
22 *811:9 *844:9 0.205888
23 *821:19 *844:9 0.000390517
24 *823:19 *844:9 0.000648642
25 *824:19 *844:9 0.000390517
26 *825:19 *844:9 0.000648642
27 *834:11 *844:9 0.00302651
*RES
1 *988:analog_ctrl[6] *844:5 282.991 
2 *844:5 *844:7 3.41 
3 *844:7 *844:9 322.942 
4 *844:9 *986:gain[0] 16.1003 
*END

*D_NET *845 0.195829
*CONN
*I *985:CurrAbsTrim[0] I *D CF_BGR
*I *988:analog_ctrl[70] O *D soc_sys
*CAP
1 *985:CurrAbsTrim[0] 0.00126232
2 *988:analog_ctrl[70] 0.00375532
3 *845:18 0.0424928
4 *845:16 0.0449858
5 *985:CurrAbsTrim[0] *985:inl_ctrl[0] 0
6 *845:16 *853:29 0.00981825
7 *845:16 *856:8 0.000195707
8 *845:16 *862:20 0.000369687
9 *845:18 *854:18 0.0915894
10 *845:18 *862:22 0
11 *985:trimCurr[5] *985:CurrAbsTrim[0] 0.00134849
12 *985:trimCurr[3] *985:CurrAbsTrim[0] 0
13 *985:trimCurr[2] *985:CurrAbsTrim[0] 0
14 *47:31 *845:18 1.14564e-05
*RES
1 *988:analog_ctrl[70] *845:16 30.2388 
2 *845:16 *845:18 193.298 
3 *845:18 *985:CurrAbsTrim[0] 12.6238 
*END

*D_NET *846 0.152699
*CONN
*I *985:CurrAbsTrim[1] I *D CF_BGR
*I *988:analog_ctrl[71] O *D soc_sys
*CAP
1 *985:CurrAbsTrim[1] 0.00219
2 *988:analog_ctrl[71] 1.42786e-05
3 *846:10 0.0644452
4 *846:8 0.0622695
5 *985:CurrAbsTrim[1] *985:CurrAbsTrim[2] 0.0123795
6 *985:CurrAbsTrim[1] *985:mux1sel[1] 0.008738
7 *985:CurrAbsTrim[1] *985:inl_ctrl[0] 0.0023549
8 *846:8 *856:8 4.98422e-05
9 *846:8 *862:20 2.81967e-05
10 *846:10 *985:CurrAbsTrim[2] 0.000228542
11 *846:10 *847:10 0
12 *985:trimCurr[2] *985:CurrAbsTrim[1] 1.4477e-06
*RES
1 *988:analog_ctrl[71] *846:8 6.90303 
2 *846:8 *846:10 194.151 
3 *846:10 *985:CurrAbsTrim[1] 29.6047 
*END

*D_NET *847 0.167549
*CONN
*I *985:CurrAbsTrim[2] I *D CF_BGR
*I *988:analog_ctrl[72] O *D soc_sys
*CAP
1 *985:CurrAbsTrim[2] 0.00381074
2 *988:analog_ctrl[72] 2.31254e-05
3 *847:10 0.0709589
4 *847:8 0.0671712
5 *985:CurrAbsTrim[2] *985:CurrAbsTrim[3] 0.0126329
6 *985:CurrAbsTrim[2] *985:mux1sel[1] 0.000190052
7 *985:CurrAbsTrim[2] *985:pd 0
8 *985:CurrAbsTrim[2] *848:10 0
9 *847:8 *856:8 9.51694e-05
10 *847:8 *862:20 5.26694e-05
11 *847:10 *848:10 0
12 *985:trimCurr[1] *985:CurrAbsTrim[2] 5.75583e-06
13 *985:CurrAbsTrim[1] *985:CurrAbsTrim[2] 0.0123795
14 *846:10 *985:CurrAbsTrim[2] 0.000228542
15 *846:10 *847:10 0
*RES
1 *988:analog_ctrl[72] *847:8 6.9751 
2 *847:8 *847:10 189.391 
3 *847:10 *985:CurrAbsTrim[2] 34.3128 
*END

*D_NET *848 0.223074
*CONN
*I *985:CurrAbsTrim[3] I *D CF_BGR
*I *988:analog_ctrl[73] O *D soc_sys
*CAP
1 *985:CurrAbsTrim[3] 0.00235523
2 *988:analog_ctrl[73] 2.31347e-05
3 *848:10 0.0525051
4 *848:8 0.050173
5 *985:CurrAbsTrim[3] *985:mux1sel[1] 0.000240364
6 *985:CurrAbsTrim[3] *985:pd 0.000952068
7 *985:CurrAbsTrim[3] *985:inl_ctrl[0] 0.0109653
8 *848:8 *856:8 9.5164e-05
9 *848:8 *862:20 5.26694e-05
10 *848:10 *985:pd 0.000721331
11 *848:10 *851:10 0.0923568
12 *985:trimCurr[1] *985:CurrAbsTrim[3] 1.31781e-06
13 *985:CurrAbsTrim[2] *985:CurrAbsTrim[3] 0.0126329
14 *985:CurrAbsTrim[2] *848:10 0
15 *847:10 *848:10 0
*RES
1 *988:analog_ctrl[73] *848:8 6.9751 
2 *848:8 *848:10 193.938 
3 *848:10 *985:CurrAbsTrim[3] 29.6767 
*END

*D_NET *849 0.138152
*CONN
*I *985:CurrAbsTrim[4] I *D CF_BGR
*I *988:analog_ctrl[74] O *D soc_sys
*CAP
1 *985:CurrAbsTrim[4] 0.00859361
2 *988:analog_ctrl[74] 0.0377873
3 *849:5 0.0463809
4 *985:CurrAbsTrim[4] *985:CurrAbsTrim[5] 0.000122568
5 *985:CurrAbsTrim[4] *985:mux2sel 0.00013264
6 *985:CurrAbsTrim[4] *985:mux1sel[0] 0.000194096
7 *985:CurrAbsTrim[4] *985:inl_ctrl[1] 0.000136784
8 *985:CurrAbsTrim[4] *985:inl_ctrl[3] 0
9 *985:CurrAbsTrim[4] *859:13 0.00136544
10 *849:5 *851:10 0.00969734
11 *849:5 *863:22 0.0337239
12 *81:52 *985:CurrAbsTrim[4] 1.73197e-05
*RES
1 *988:analog_ctrl[74] *849:5 1068.63 
2 *849:5 *985:CurrAbsTrim[4] 40.0015 
*END

*D_NET *850 0.137444
*CONN
*I *985:CurrAbsTrim[5] I *D CF_BGR
*I *988:analog_ctrl[75] O *D soc_sys
*CAP
1 *985:CurrAbsTrim[5] 0.00274828
2 *988:analog_ctrl[75] 0.0530663
3 *850:5 0.0558145
4 *985:CurrAbsTrim[5] *985:mux2sel 3.39065e-05
5 *985:CurrAbsTrim[5] *985:mux1sel[0] 4.82e-05
6 *985:CurrAbsTrim[4] *985:CurrAbsTrim[5] 0.000122568
7 *985:trimTC[6] *985:CurrAbsTrim[5] 0.00611763
8 *70:20 *985:CurrAbsTrim[5] 0.00246615
9 *72:24 *985:CurrAbsTrim[5] 0.000185941
10 *105:18 *985:CurrAbsTrim[5] 0.0139819
11 *109:24 *985:CurrAbsTrim[5] 0.00285898
*RES
1 *988:analog_ctrl[75] *850:5 1080.17 
2 *850:5 *985:CurrAbsTrim[5] 36.2517 
*END

*D_NET *851 0.248848
*CONN
*I *985:inl_ctrl[0] I *D CF_BGR
*I *988:analog_ctrl[76] O *D soc_sys
*CAP
1 *985:inl_ctrl[0] 0.00309449
2 *988:analog_ctrl[76] 0.000232894
3 *851:10 0.0488998
4 *851:8 0.0460382
5 *985:inl_ctrl[0] *985:mux1sel[1] 0.00178062
6 *985:inl_ctrl[0] *985:pd 0.0110231
7 *851:8 *856:8 0.00136602
8 *851:8 *862:20 8.56543e-05
9 *851:8 *863:20 0.00121237
10 *851:10 *863:22 0.0196529
11 *985:trimCurr[3] *985:inl_ctrl[0] 0
12 *985:trimCurr[2] *985:inl_ctrl[0] 8.73619e-05
13 *985:CurrAbsTrim[0] *985:inl_ctrl[0] 0
14 *985:CurrAbsTrim[1] *985:inl_ctrl[0] 0.0023549
15 *985:CurrAbsTrim[3] *985:inl_ctrl[0] 0.0109653
16 *848:10 *851:10 0.0923568
17 *849:5 *851:10 0.00969734
*RES
1 *988:analog_ctrl[76] *851:8 8.99297 
2 *851:8 *851:10 193.831 
3 *851:10 *985:inl_ctrl[0] 43.2982 
*END

*D_NET *852 0.126579
*CONN
*I *985:inl_ctrl[1] I *D CF_BGR
*I *988:analog_ctrl[77] O *D soc_sys
*CAP
1 *985:inl_ctrl[1] 0.0111447
2 *988:analog_ctrl[77] 0.051566
3 *852:5 0.0627107
4 *985:inl_ctrl[1] *985:inl_ctrl[5] 0.000316689
5 *985:inl_ctrl[1] *985:inl_ctrl[3] 4.98422e-05
6 *985:inl_ctrl[1] *985:inl_ctrl[2] 9.90542e-05
7 *985:inl_ctrl[1] *857:13 0
8 *985:inl_ctrl[1] *859:13 0
9 *985:trimCurr[4] *985:inl_ctrl[1] 0.000209524
10 *985:CurrAbsTrim[4] *985:inl_ctrl[1] 0.000136784
11 *985:trimTC[4] *985:inl_ctrl[1] 0
12 *81:52 *985:inl_ctrl[1] 0.000345336
*RES
1 *988:analog_ctrl[77] *852:5 1049.81 
2 *852:5 *985:inl_ctrl[1] 48.1214 
*END

*D_NET *853 0.165364
*CONN
*I *985:inl_ctrl[2] I *D CF_BGR
*I *988:analog_ctrl[78] O *D soc_sys
*CAP
1 *985:inl_ctrl[2] 0.000522299
2 *988:analog_ctrl[78] 0.000720951
3 *853:31 0.0622586
4 *853:29 0.0662687
5 *853:25 0.00525338
6 *985:inl_ctrl[2] *985:inl_ctrl[6] 4.98422e-05
7 *985:inl_ctrl[2] *985:inl_ctrl[5] 8.86675e-05
8 *985:inl_ctrl[2] *985:inl_ctrl[3] 5.05015e-05
9 *985:inl_ctrl[2] *985:inl_ctrl[4] 4.52122e-05
10 *853:25 *854:16 6.42723e-05
11 *853:25 *856:8 4.98422e-05
12 *853:25 *863:20 4.98422e-05
13 *853:31 *856:10 0
14 *985:inl_ctrl[1] *985:inl_ctrl[2] 9.90542e-05
15 *45:17 *853:31 0
16 *70:14 *853:31 0
17 *81:52 *985:inl_ctrl[2] 0.000611668
18 *671:10 *853:29 0.0172915
19 *814:5 *853:31 0.00212167
20 *845:16 *853:29 0.00981825
*RES
1 *988:analog_ctrl[78] *853:25 26.0796 
2 *853:25 *853:29 30.9865 
3 *853:29 *853:31 191.274 
4 *853:31 *985:inl_ctrl[2] 11.6097 
*END

*D_NET *854 0.215484
*CONN
*I *985:inl_ctrl[3] I *D CF_BGR
*I *988:analog_ctrl[79] O *D soc_sys
*CAP
1 *985:inl_ctrl[3] 0.00144235
2 *988:analog_ctrl[79] 0.00342056
3 *854:18 0.0425813
4 *854:16 0.0445595
5 *985:inl_ctrl[3] *985:mux2sel 0
6 *985:inl_ctrl[3] *985:mux1sel[0] 0
7 *985:inl_ctrl[3] *985:dft_sel 0
8 *985:inl_ctrl[3] *985:pd_ibg 0
9 *985:inl_ctrl[3] *985:inl_ctrl[5] 3.94585e-06
10 *985:inl_ctrl[3] *985:inl_ctrl[4] 4.03901e-05
11 *854:16 *856:8 7.89761e-05
12 *854:16 *862:20 0.00788319
13 *854:16 *863:20 0.000964475
14 *854:18 *864:17 0.00052218
15 *985:trimCurr[4] *985:inl_ctrl[3] 0.0022904
16 *985:CurrAbsTrim[4] *985:inl_ctrl[3] 0
17 *985:inl_ctrl[1] *985:inl_ctrl[3] 4.98422e-05
18 *985:inl_ctrl[2] *985:inl_ctrl[3] 5.05015e-05
19 *47:31 *854:18 0.000216059
20 *671:10 *854:16 0.0135962
21 *823:5 *854:18 0.00613081
22 *845:18 *854:18 0.0915894
23 *853:25 *854:16 6.42723e-05
*RES
1 *988:analog_ctrl[79] *854:16 37.198 
2 *854:16 *854:18 192.127 
3 *854:18 *985:inl_ctrl[3] 30.5266 
*END

*D_NET *855 0.336457
*CONN
*I *986:gain[1] I *D CF_BUF_HIZ
*I *988:analog_ctrl[7] O *D soc_sys
*CAP
1 *986:gain[1] 0.00219338
2 *988:analog_ctrl[7] 0.00886561
3 *855:9 0.0965785
4 *855:7 0.0943852
5 *855:5 0.00886561
6 *855:9 *872:9 0
7 *986:disable_n *986:gain[1] 6.77829e-05
8 *986:disable_p *986:gain[1] 0.0087953
9 *986:enable_hv *986:gain[1] 0.00456959
10 *986:gain[0] *986:gain[1] 0.000584868
11 *23:23 *986:gain[1] 0
12 *76:22 *855:5 0.00393359
13 *796:9 *855:9 0
14 *797:9 *855:9 0.107617
*RES
1 *988:analog_ctrl[7] *855:5 180.991 
2 *855:5 *855:7 3.41 
3 *855:7 *855:9 326.041 
4 *855:9 *986:gain[1] 29.0378 
*END

*D_NET *856 0.201022
*CONN
*I *985:inl_ctrl[4] I *D CF_BGR
*I *988:analog_ctrl[80] O *D soc_sys
*CAP
1 *985:inl_ctrl[4] 0.000171297
2 *988:analog_ctrl[80] 0.00720779
3 *856:10 0.0292915
4 *856:8 0.036328
5 *985:inl_ctrl[4] *985:inl_ctrl[6] 2.48858e-05
6 *985:inl_ctrl[4] *985:inl_ctrl[5] 0.000130506
7 *856:8 *862:20 0.00159742
8 *856:8 *863:20 0.00153056
9 *856:10 *858:13 0.0681987
10 *985:inl_ctrl[3] *985:inl_ctrl[4] 4.03901e-05
11 *985:inl_ctrl[2] *985:inl_ctrl[4] 4.52122e-05
12 *70:14 *856:10 0.048658
13 *111:13 *856:8 0.00263913
14 *671:10 *856:8 0
15 *830:8 *856:8 4.98422e-05
16 *836:8 *856:8 4.98422e-05
17 *838:8 *856:8 4.98422e-05
18 *839:8 *856:8 0.000227877
19 *840:8 *856:8 9.51694e-05
20 *841:8 *856:8 9.5164e-05
21 *842:8 *856:8 4.98422e-05
22 *843:8 *856:8 0.00261063
23 *845:16 *856:8 0.000195707
24 *846:8 *856:8 4.98422e-05
25 *847:8 *856:8 9.51694e-05
26 *848:8 *856:8 9.5164e-05
27 *851:8 *856:8 0.00136602
28 *853:25 *856:8 4.98422e-05
29 *853:31 *856:10 0
30 *854:16 *856:8 7.89761e-05
*RES
1 *988:analog_ctrl[80] *856:8 35.8018 
2 *856:8 *856:10 190.848 
3 *856:10 *985:inl_ctrl[4] 7.94006 
*END

*D_NET *857 0.130791
*CONN
*I *985:inl_ctrl[5] I *D CF_BGR
*I *988:analog_ctrl[81] O *D soc_sys
*CAP
1 *985:inl_ctrl[5] 0.000408368
2 *988:analog_ctrl[81] 0.0497488
3 *857:13 0.0153361
4 *857:5 0.0646766
5 *985:inl_ctrl[5] *985:inl_ctrl[6] 6.9311e-05
6 *857:13 *859:13 0
7 *985:inl_ctrl[1] *985:inl_ctrl[5] 0.000316689
8 *985:inl_ctrl[1] *857:13 0
9 *985:inl_ctrl[3] *985:inl_ctrl[5] 3.94585e-06
10 *985:inl_ctrl[2] *985:inl_ctrl[5] 8.86675e-05
11 *985:inl_ctrl[4] *985:inl_ctrl[5] 0.000130506
12 *81:52 *985:inl_ctrl[5] 1.1672e-05
*RES
1 *988:analog_ctrl[81] *857:5 1012.78 
2 *857:5 *857:13 48.379 
3 *857:13 *985:inl_ctrl[5] 8.98822 
*END

*D_NET *858 0.188323
*CONN
*I *985:inl_ctrl[6] I *D CF_BGR
*I *988:analog_ctrl[82] O *D soc_sys
*CAP
1 *985:inl_ctrl[6] 0.000121091
2 *988:analog_ctrl[82] 0.0137641
3 *858:13 0.0355641
4 *858:11 0.0461051
5 *858:5 0.0244262
6 *985:inl_ctrl[5] *985:inl_ctrl[6] 6.9311e-05
7 *985:inl_ctrl[2] *985:inl_ctrl[6] 4.98422e-05
8 *985:inl_ctrl[4] *985:inl_ctrl[6] 2.48858e-05
9 *112:18 *858:11 0
10 *856:10 *858:13 0.0681987
*RES
1 *988:analog_ctrl[82] *858:5 273.884 
2 *858:5 *858:11 37.2431 
3 *858:11 *858:13 142.482 
4 *858:13 *985:inl_ctrl[6] 9.22 
*END

*D_NET *859 0.133029
*CONN
*I *985:mux1sel[0] I *D CF_BGR
*I *988:analog_ctrl[83] O *D soc_sys
*CAP
1 *985:mux1sel[0] 0.000182682
2 *988:analog_ctrl[83] 0.0494407
3 *859:13 0.0128143
4 *859:5 0.0620723
5 *985:mux1sel[0] *985:mux2sel 0.000126042
6 *985:mux1sel[0] *985:dft_sel 6.92076e-05
7 *859:13 *985:mux2sel 0.00660786
8 *985:CurrAbsTrim[5] *985:mux1sel[0] 4.82e-05
9 *985:CurrAbsTrim[4] *985:mux1sel[0] 0.000194096
10 *985:CurrAbsTrim[4] *859:13 0.00136544
11 *985:inl_ctrl[1] *859:13 0
12 *985:inl_ctrl[3] *985:mux1sel[0] 0
13 *81:52 *985:mux1sel[0] 0.000107831
14 *857:13 *859:13 0
*RES
1 *988:analog_ctrl[83] *859:5 1006.71 
2 *859:5 *859:13 49.1936 
3 *859:13 *985:mux1sel[0] 9.65686 
*END

*D_NET *860 0.15324
*CONN
*I *985:mux1sel[1] I *D CF_BGR
*I *988:analog_ctrl[84] O *D soc_sys
*CAP
1 *985:mux1sel[1] 0.00755674
2 *988:analog_ctrl[84] 0.000277193
3 *860:10 0.0704347
4 *860:8 0.0631551
5 *985:mux1sel[1] *985:pd 4.74071e-05
6 *860:8 *862:20 0.000719071
7 *985:CurrAbsTrim[1] *985:mux1sel[1] 0.008738
8 *985:CurrAbsTrim[2] *985:mux1sel[1] 0.000190052
9 *985:CurrAbsTrim[3] *985:mux1sel[1] 0.000240364
10 *985:inl_ctrl[0] *985:mux1sel[1] 0.00178062
11 *111:13 *860:8 0.000100781
*RES
1 *988:analog_ctrl[84] *860:8 7.98403 
2 *860:8 *860:10 194.151 
3 *860:10 *985:mux1sel[1] 39.9098 
*END

*D_NET *861 0.135016
*CONN
*I *985:mux2sel I *D CF_BGR
*I *988:analog_ctrl[85] O *D soc_sys
*CAP
1 *985:mux2sel 0.00592436
2 *988:analog_ctrl[85] 0.0476171
3 *861:11 0.0164405
4 *861:5 0.0581332
5 *985:mux2sel *864:17 0
6 *985:CurrAbsTrim[5] *985:mux2sel 3.39065e-05
7 *985:CurrAbsTrim[4] *985:mux2sel 0.00013264
8 *985:mux1sel[0] *985:mux2sel 0.000126042
9 *985:inl_ctrl[3] *985:mux2sel 0
10 *859:13 *985:mux2sel 0.00660786
*RES
1 *988:analog_ctrl[85] *861:5 969.67 
2 *861:5 *861:11 36.7386 
3 *861:11 *985:mux2sel 28.4438 
*END

*D_NET *862 0.174043
*CONN
*I *985:dft_sel I *D CF_BGR
*I *988:analog_ctrl[86] O *D soc_sys
*CAP
1 *985:dft_sel 0.000556895
2 *988:analog_ctrl[86] 0.00498547
3 *862:22 0.0699991
4 *862:20 0.0744277
5 *985:dft_sel *985:pd_ibg 0.000682418
6 *862:20 *863:20 0.0044132
7 *862:22 *867:13 0
8 *985:trimCurr[4] *985:dft_sel 0
9 *985:mux1sel[0] *985:dft_sel 6.92076e-05
10 *985:inl_ctrl[3] *985:dft_sel 0
11 *81:52 *985:dft_sel 0.000427619
12 *111:13 *862:20 0
13 *671:10 *862:20 0.000852297
14 *824:5 *862:22 0.00130393
15 *830:8 *862:20 2.81967e-05
16 *843:8 *862:20 0.0055086
17 *845:16 *862:20 0.000369687
18 *845:18 *862:22 0
19 *846:8 *862:20 2.81967e-05
20 *847:8 *862:20 5.26694e-05
21 *848:8 *862:20 5.26694e-05
22 *851:8 *862:20 8.56543e-05
23 *854:16 *862:20 0.00788319
24 *856:8 *862:20 0.00159742
25 *860:8 *862:20 0.000719071
*RES
1 *988:analog_ctrl[86] *862:20 42.0828 
2 *862:20 *862:22 191.061 
3 *862:22 *985:dft_sel 10.5533 
*END

*D_NET *863 0.16695
*CONN
*I *985:pd I *D CF_BGR
*I *988:analog_ctrl[87] O *D soc_sys
*CAP
1 *985:pd 0.00495355
2 *988:analog_ctrl[87] 0.00219761
3 *863:22 0.0436966
4 *863:20 0.0409406
5 *985:CurrAbsTrim[2] *985:pd 0
6 *985:CurrAbsTrim[3] *985:pd 0.000952068
7 *985:mux1sel[1] *985:pd 4.74071e-05
8 *985:trimTC[5] *985:pd 0
9 *985:inl_ctrl[0] *985:pd 0.0110231
10 *81:52 *985:pd 0.000128805
11 *111:13 *863:20 0
12 *671:10 *863:20 0.000741465
13 *848:10 *985:pd 0.000721331
14 *849:5 *863:22 0.0337239
15 *851:8 *863:20 0.00121237
16 *851:10 *863:22 0.0196529
17 *853:25 *863:20 4.98422e-05
18 *854:16 *863:20 0.000964475
19 *856:8 *863:20 0.00153056
20 *862:20 *863:20 0.0044132
*RES
1 *988:analog_ctrl[87] *863:20 20.094 
2 *863:20 *863:22 1086.55 
3 *863:22 *985:pd 38.2672 
*END

*D_NET *864 0.130368
*CONN
*I *985:pd_ibg I *D CF_BGR
*I *988:analog_ctrl[88] O *D soc_sys
*CAP
1 *985:pd_ibg 0.000211039
2 *988:analog_ctrl[88] 0.0506333
3 *864:17 0.0139485
4 *864:5 0.0643707
5 *985:mux2sel *864:17 0
6 *985:dft_sel *985:pd_ibg 0.000682418
7 *985:inl_ctrl[3] *985:pd_ibg 0
8 *854:18 *864:17 0.00052218
*RES
1 *988:analog_ctrl[88] *864:5 1031.6 
2 *864:5 *864:17 47.7993 
3 *864:17 *985:pd_ibg 8.44531 
*END

*D_NET *865 0.110496
*CONN
*I *985:finetune I *D CF_BGR
*I *988:analog_ctrl[89] O *D soc_sys
*CAP
1 *985:finetune 0.00241793
2 *988:analog_ctrl[89] 0.0526283
3 *865:5 0.0550463
4 *985:trimTC[1] *985:finetune 0.00037724
5 *81:52 *985:finetune 2.62855e-05
*RES
1 *988:analog_ctrl[89] *865:5 1072.28 
2 *865:5 *985:finetune 21.6347 
*END

*D_NET *866 0.352283
*CONN
*I *984:reset_b I *D CF_ADC_DSM20
*I *988:analog_ctrl[8] O *D soc_sys
*CAP
1 *984:reset_b 0.001861
2 *988:analog_ctrl[8] 0.00589971
3 *866:41 0.00205422
4 *866:31 0.0023692
5 *866:25 0.00291893
6 *866:13 0.025741
7 *866:11 0.0249981
8 *866:9 0.0564403
9 *866:7 0.0564403
10 *866:5 0.00589971
11 *984:IPCAP1[0] *866:13 0.000206831
12 *984:FCAP1[3] *866:13 0.00128125
13 *984:ODET_TH[3] *866:13 1.48292e-05
14 *984:TESTMODE *866:31 0.00201674
15 *984:SCANINPUT *984:reset_b 0.00161799
16 *984:SCANCLK *984:reset_b 0.00248475
17 *76:22 *866:5 0.0023996
18 *661:16 *866:41 0.000125821
19 *662:16 *866:41 2.55367e-05
20 *663:12 *866:41 1.60027e-05
21 *666:16 *866:41 2.15903e-05
22 *680:11 *866:9 0
23 *712:30 *866:13 1.99203e-05
24 *712:30 *866:25 7.02339e-06
25 *759:9 *866:9 0
26 *759:25 *984:reset_b 0.00251515
27 *796:13 *866:13 0
28 *810:9 *866:9 0.096736
29 *814:9 *866:9 0
30 *828:13 *866:13 0.0557233
31 *828:31 *984:reset_b 0.00154334
32 *828:31 *866:31 0.000234687
33 *828:31 *866:41 0.00067038
*RES
1 *988:analog_ctrl[8] *866:5 119.67 
2 *866:5 *866:7 3.41 
3 *866:7 *866:9 211.671 
4 *866:9 *866:11 3.41 
5 *866:11 *866:13 117.34 
6 *866:13 *866:25 23.9762 
7 *866:25 *866:31 48.8482 
8 *866:31 *866:41 12.6527 
9 *866:41 *984:reset_b 64.6696 
*END

*D_NET *867 0.170571
*CONN
*I *985:en_startb I *D CF_BGR
*I *988:analog_ctrl[90] O *D soc_sys
*CAP
1 *985:en_startb 0.000132171
2 *988:analog_ctrl[90] 0.0140693
3 *867:13 0.0597155
4 *867:11 0.0651585
5 *867:5 0.0196444
6 *1:17 *867:13 0
7 *112:18 *867:11 0.00683288
8 *811:9 *867:11 0.00501802
9 *862:22 *867:13 0
*RES
1 *988:analog_ctrl[90] *867:5 279.955 
2 *867:5 *867:11 36.3783 
3 *867:11 *867:13 187.865 
4 *867:13 *985:en_startb 12.8673 
*END

*D_NET *868 0.152645
*CONN
*I *987:pd I *D CF_REFBUF
*I *988:analog_ctrl[91] O *D soc_sys
*CAP
1 *987:pd 9.54446e-05
2 *988:analog_ctrl[91] 0.00144358
3 *868:19 0.013737
4 *868:13 0.0647872
5 *868:11 0.0511457
6 *868:9 0.00298813
7 *868:7 0.0044317
8 *670:22 *868:19 0.00159816
9 *670:65 *868:19 0.000934888
10 *675:5 *868:13 0.0114837
11 *676:5 *868:13 0
*RES
1 *988:analog_ctrl[91] *868:7 32.0357 
2 *868:7 *868:9 54.75 
3 *868:9 *868:11 4.5 
4 *868:11 *868:13 1093.44 
5 *868:13 *868:19 49.9629 
6 *868:19 *987:pd 6.07143 
*END

*D_NET *869 0.187277
*CONN
*I *987:switchon I *D CF_REFBUF
*I *988:analog_ctrl[92] O *D soc_sys
*CAP
1 *987:switchon 0.00141609
2 *988:analog_ctrl[92] 0.0440468
3 *869:13 0.0186764
4 *869:11 0.0172603
5 *869:9 0.0199967
6 *869:7 0.0199967
7 *869:5 0.0440468
8 *987:switchon *870:13 0
9 *869:13 *870:13 0
10 *834:13 *869:5 0.0218373
*RES
1 *988:analog_ctrl[92] *869:5 896.205 
2 *869:5 *869:7 3.41 
3 *869:7 *869:9 60.4749 
4 *869:9 *869:11 3.41 
5 *869:11 *869:13 54.6359 
6 *869:13 *987:switchon 11.6814 
*END

*D_NET *870 0.165212
*CONN
*I *987:boost I *D CF_REFBUF
*I *988:analog_ctrl[93] O *D soc_sys
*CAP
1 *987:boost 0.000105425
2 *988:analog_ctrl[93] 0.0437111
3 *870:13 0.0188993
4 *870:11 0.0187939
5 *870:9 0.0199959
6 *870:7 0.0199959
7 *870:5 0.0437111
8 *987:switchon *870:13 0
9 *869:13 *870:13 0
*RES
1 *988:analog_ctrl[93] *870:5 889.527 
2 *870:5 *870:7 3.41 
3 *870:7 *870:9 60.547 
4 *870:9 *870:11 3.41 
5 *870:11 *870:13 60.0253 
6 *870:13 *987:boost 8.17982 
*END

*D_NET *871 0.150539
*CONN
*I *987:ch_cont I *D CF_REFBUF
*I *988:analog_ctrl[94] O *D soc_sys
*CAP
1 *987:ch_cont 0.0118307
2 *988:analog_ctrl[94] 0.0134702
3 *871:13 0.0575442
4 *871:11 0.0457136
5 *871:9 0.00425515
6 *871:7 0.00425515
7 *871:5 0.0134702
*RES
1 *988:analog_ctrl[94] *871:5 267.661 
2 *871:5 *871:7 4.5 
3 *871:7 *871:9 84.3214 
4 *871:9 *871:11 4.5 
5 *871:11 *871:13 937.705 
6 *871:13 *987:ch_cont 48.4673 
*END

*D_NET *872 0.234741
*CONN
*I *984:itrim_comp[0] I *D CF_ADC_DSM20
*I *988:analog_ctrl[95] O *D soc_sys
*CAP
1 *984:itrim_comp[0] 3.93512e-05
2 *988:analog_ctrl[95] 0.0088487
3 *872:13 0.0222265
4 *872:11 0.0221871
5 *872:9 0.0415027
6 *872:7 0.0415027
7 *872:5 0.0088487
8 *872:13 *873:13 0
9 *796:9 *872:9 0.0895855
10 *855:9 *872:9 0
*RES
1 *988:analog_ctrl[95] *872:5 175.527 
2 *872:5 *872:7 3.41 
3 *872:7 *872:9 158.846 
4 *872:9 *872:11 3.41 
5 *872:11 *872:13 69.1339 
6 *872:13 *984:itrim_comp[0] 6.90303 
*END

*D_NET *873 0.255919
*CONN
*I *984:itrim_comp[1] I *D CF_ADC_DSM20
*I *988:analog_ctrl[96] O *D soc_sys
*CAP
1 *984:itrim_comp[1] 3.93512e-05
2 *988:analog_ctrl[96] 0.0104005
3 *873:13 0.0150657
4 *873:11 0.0150263
5 *873:9 0.0397619
6 *873:7 0.0397619
7 *873:5 0.0104005
8 *715:19 *873:13 0.000211187
9 *715:21 *873:13 4.53109e-06
10 *748:9 *873:9 0
11 *793:9 *873:9 0.0990775
12 *826:19 *873:13 0.000647954
13 *826:21 *873:13 0.0255215
14 *872:13 *873:13 0
*RES
1 *988:analog_ctrl[96] *873:5 206.491 
2 *873:5 *873:7 3.41 
3 *873:7 *873:9 158.918 
4 *873:9 *873:11 3.41 
5 *873:11 *873:13 63.6364 
6 *873:13 *984:itrim_comp[1] 6.90303 
*END

*D_NET *874 0.266434
*CONN
*I *984:itrim_comp[2] I *D CF_ADC_DSM20
*I *988:analog_ctrl[97] O *D soc_sys
*CAP
1 *984:itrim_comp[2] 0.000168815
2 *988:analog_ctrl[97] 0.0032947
3 *874:17 0.0111026
4 *874:15 0.0109337
5 *874:13 0.0196394
6 *874:11 0.0196394
7 *874:9 0.0237911
8 *874:7 0.0237911
9 *874:5 0.0032947
10 *984:itrim_comp[2] *984:itrim_comp[3] 1.56812e-05
11 *874:17 *875:17 0.0396122
12 *984:FCHOP[0] *874:17 2.1494e-05
13 *984:ODET_TH[2] *874:17 0
14 *984:ODET_TH[0] *874:17 0
15 *984:MODINPUT *874:17 0.00034718
16 *984:BUF_CHOP_EN *874:17 4.36274e-05
17 *984:BUF_FCHOP[2] *874:17 0.00812111
18 *984:BUF_FCHOP[1] *874:17 0.00324084
19 *984:RESET_DEC_INPUT *874:17 1.13851e-05
20 *646:16 *984:itrim_comp[2] 5.19987e-05
21 *658:18 *874:13 0.0404026
22 *660:18 *874:13 0
23 *782:9 *874:9 0
24 *791:13 *874:13 0
25 *800:9 *874:9 0.0589102
*RES
1 *988:analog_ctrl[97] *874:5 65.0268 
2 *874:5 *874:7 3.41 
3 *874:7 *874:9 94.5624 
4 *874:9 *874:11 3.41 
5 *874:11 *874:13 88.4697 
6 *874:13 *874:15 3.41 
7 *874:15 *874:17 62.2405 
8 *874:17 *984:itrim_comp[2] 4.28577 
*END

*D_NET *875 0.260032
*CONN
*I *984:itrim_comp[3] I *D CF_ADC_DSM20
*I *988:analog_ctrl[98] O *D soc_sys
*CAP
1 *984:itrim_comp[3] 2.90421e-05
2 *988:analog_ctrl[98] 0.010106
3 *875:17 0.0132166
4 *875:15 0.0131875
5 *875:13 0.0129776
6 *875:11 0.0129776
7 *875:9 0.0191055
8 *875:7 0.0191055
9 *875:5 0.010106
10 *984:MODBIT *875:17 0.0190185
11 *984:SIGN *875:17 2.39402e-05
12 *984:MODINPUT *875:17 0.00191605
13 *984:itrim_comp[2] *984:itrim_comp[3] 1.56812e-05
14 *646:16 *984:itrim_comp[3] 2.25666e-05
15 *646:16 *875:17 0.00207329
16 *646:18 *875:17 0.000980549
17 *659:20 *875:17 0.00161562
18 *780:10 *875:13 0.00207362
19 *783:10 *875:13 0.0307011
20 *793:9 *875:9 0
21 *794:9 *875:9 0.0511677
22 *874:17 *875:17 0.0396122
*RES
1 *988:analog_ctrl[98] *875:5 200.42 
2 *875:5 *875:7 3.41 
3 *875:7 *875:9 80.7977 
4 *875:9 *875:11 3.41 
5 *875:11 *875:13 64.6062 
6 *875:13 *875:15 3.41 
7 *875:15 *875:17 75.2125 
8 *875:17 *984:itrim_comp[3] 3.5745 
*END

*D_NET *876 0.0837959
*CONN
*I *984:itrim_2_3[0] I *D CF_ADC_DSM20
*I *988:analog_ctrl[99] O *D soc_sys
*CAP
1 *984:itrim_2_3[0] 0.00827786
2 *988:analog_ctrl[99] 0.00977367
3 *876:11 0.0226235
4 *876:5 0.0241193
5 *119:17 *876:5 0.000662985
6 *674:11 *876:11 0
7 *724:10 *984:itrim_2_3[0] 0.0183386
8 *725:10 *984:itrim_2_3[0] 0
9 *792:9 *876:11 0
10 *794:9 *876:11 0
*RES
1 *988:analog_ctrl[99] *876:5 193.741 
2 *876:5 *876:11 45.8911 
3 *876:11 *984:itrim_2_3[0] 45.4219 
*END

*D_NET *877 0.315742
*CONN
*I *984:disable_mod I *D CF_ADC_DSM20
*I *988:analog_ctrl[9] O *D soc_sys
*CAP
1 *984:disable_mod 0.0279992
2 *988:analog_ctrl[9] 0.00363029
3 *877:13 0.0423485
4 *877:11 0.0143493
5 *877:9 0.0357108
6 *877:7 0.0357108
7 *877:5 0.00363029
8 *984:ODET_TH[4] *984:disable_mod 0.000770337
9 *984:ODET_TH[3] *984:disable_mod 0.000865035
10 *984:ODET_TH[2] *984:disable_mod 0.00166955
11 *984:ODET_TH[1] *984:disable_mod 0.00174916
12 *984:ODET_TH[0] *984:disable_mod 0.0016121
13 *984:RESET1 *984:disable_mod 0.00239146
14 *984:dig_test_sel[1] *984:disable_mod 0.00264099
15 *984:MODINPUT *984:disable_mod 0.00206422
16 *47:23 *877:5 0
17 *782:9 *877:9 0.0967795
18 *784:10 *877:13 0.0225167
19 *785:10 *877:13 0.0154533
20 *820:17 *984:disable_mod 0.00385026
21 *821:9 *877:9 0
*RES
1 *988:analog_ctrl[9] *877:5 71.0982 
2 *877:5 *877:7 3.41 
3 *877:7 *877:9 152.648 
4 *877:9 *877:11 3.41 
5 *877:11 *877:13 88.6827 
6 *877:13 *984:disable_mod 14.1718 
*END

*D_NET *880 0.054615
*CONN
*I *988:sram_ack_i I *D soc_sys
*I *989:wbs_ack_o O *D CF_SRAM_1024x32_wb_wrapper
*CAP
1 *988:sram_ack_i 0.00227613
2 *989:wbs_ack_o 0.0039622
3 *880:19 0.00372493
4 *880:15 0.005411
5 *988:sram_ack_i *913:7 0
6 *880:15 *989:wbs_adr_i[3] 0.0131938
7 *880:15 *989:wbs_adr_i[4] 0.010893
8 *880:15 *989:wbs_cyc_i 0
9 *880:15 *989:wbs_dat_i[3] 3.66327e-06
10 *880:15 *989:wbs_we_i 7.26537e-05
11 *880:15 *885:19 0.00272211
12 *880:15 *886:13 0.000136506
13 *880:15 *887:19 0.000180893
14 *880:15 *887:21 0.000128866
15 *880:15 *888:19 0.00051098
16 *880:15 *888:21 0.00225236
17 *880:15 *889:17 0.00242877
18 *880:15 *892:27 0.000108345
19 *880:15 *894:19 0.00065887
20 *880:15 *896:19 2.68192e-05
21 *880:15 *928:19 0.00220887
22 *880:19 *941:13 0.00341805
23 *989:wb_rst_i *880:15 0
24 *40:53 *880:19 0.000296154
*RES
1 *989:wbs_ack_o *880:15 39.7526 
2 *880:15 *880:19 46.035 
3 *880:19 *988:sram_ack_i 6.1852 
*END

*D_NET *881 0.0530762
*CONN
*I *989:wbs_adr_i[0] I *D CF_SRAM_1024x32_wb_wrapper
*I *988:sram_adr_o[0] O *D soc_sys
*CAP
1 *989:wbs_adr_i[0] 0.00476455
2 *988:sram_adr_o[0] 0.000155571
3 *881:9 0.00781313
4 *881:7 0.00320415
5 *989:wbs_adr_i[0] *989:wbs_dat_i[0] 0
6 *989:wbs_adr_i[0] *989:wbs_stb_i 0
7 *989:wbs_adr_i[0] *989:wbs_we_i 0
8 *989:wbs_adr_i[0] *882:15 0.0190657
9 *989:wbs_adr_i[0] *883:15 0.00376728
10 *989:wbs_adr_i[0] *884:19 0.00449857
11 *989:wbs_adr_i[0] *885:19 0.000518599
12 *989:wbs_adr_i[0] *895:19 7.69372e-05
13 *989:wbs_adr_i[0] *909:15 0.000231386
14 *989:wbs_adr_i[0] *913:27 0.00495543
15 *881:7 *988:sram_dat_i[0] 0
16 *881:7 *983:7 0
17 *881:9 *978:11 0
18 *881:9 *979:11 0
19 *36:23 *989:wbs_adr_i[0] 0.000223526
20 *36:25 *989:wbs_adr_i[0] 0.00312845
21 *39:17 *989:wbs_adr_i[0] 0.000108081
22 *40:57 *989:wbs_adr_i[0] 0.000400282
23 *67:21 *989:wbs_adr_i[0] 0.000164544
*RES
1 *988:sram_adr_o[0] *881:7 3.90193 
2 *881:7 *881:9 59.625 
3 *881:9 *989:wbs_adr_i[0] 49.7224 
*END

*D_NET *882 0.0836757
*CONN
*I *989:wbs_adr_i[10] I *D CF_SRAM_1024x32_wb_wrapper
*I *988:sram_adr_o[10] O *D soc_sys
*CAP
1 *989:wbs_adr_i[10] 0.000586399
2 *988:sram_adr_o[10] 0.0013101
3 *882:15 0.00773659
4 *882:9 0.0136323
5 *882:7 0.00779221
6 *989:wbs_adr_i[10] *989:wbs_dat_i[10] 0
7 *989:wbs_adr_i[10] *945:7 0
8 *882:7 *988:sram_dat_i[10] 0
9 *882:7 *982:7 0
10 *882:9 *932:13 0
11 *882:9 *943:21 0.0124145
12 *882:15 *989:wbs_adr_i[4] 0.000659271
13 *882:15 *989:wbs_dat_i[4] 0
14 *882:15 *883:15 0.00608191
15 *882:15 *885:19 0.00346644
16 *882:15 *903:27 0.00991554
17 *882:15 *909:15 0.000964689
18 *882:15 *924:19 5.00194e-05
19 *882:15 *929:11 0
20 *882:15 *981:15 0
21 *989:wbs_adr_i[0] *882:15 0.0190657
*RES
1 *988:sram_adr_o[10] *882:7 7.14493 
2 *882:7 *882:9 182.875 
3 *882:9 *882:15 48.9539 
4 *882:15 *989:wbs_adr_i[10] 9.16964 
*END

*D_NET *883 0.097108
*CONN
*I *989:wbs_adr_i[11] I *D CF_SRAM_1024x32_wb_wrapper
*I *988:sram_adr_o[11] O *D soc_sys
*CAP
1 *989:wbs_adr_i[11] 0.000949764
2 *988:sram_adr_o[11] 0.0273375
3 *883:15 0.0282873
4 *989:wbs_adr_i[11] *989:wbs_dat_i[10] 0.000123765
5 *989:wbs_adr_i[11] *989:wbs_dat_i[25] 0.000327141
6 *989:wbs_adr_i[11] *915:7 0.000144876
7 *883:15 *988:sram_dat_i[11] 0
8 *883:15 *884:19 0.000742247
9 *883:15 *909:15 0.000133554
10 *883:15 *910:15 0.000123309
11 *883:15 *911:15 0.000123309
12 *883:15 *912:17 0.0154979
13 *883:15 *918:19 0.000123309
14 *883:15 *930:13 0.00172385
15 *883:15 *931:13 0.00190362
16 *883:15 *952:7 0
17 *883:15 *976:9 0.000795634
18 *989:wbs_adr_i[0] *883:15 0.00376728
19 *39:17 *883:15 0.000240161
20 *40:53 *883:15 0
21 *40:57 *883:15 0.000164369
22 *65:21 *883:15 6.65945e-05
23 *67:17 *883:15 0.00845061
24 *882:15 *883:15 0.00608191
*RES
1 *988:sram_adr_o[11] *883:15 48.3418 
2 *883:15 *989:wbs_adr_i[11] 9.1935 
*END

*D_NET *884 0.0886397
*CONN
*I *989:wbs_adr_i[12] I *D CF_SRAM_1024x32_wb_wrapper
*I *988:sram_adr_o[12] O *D soc_sys
*CAP
1 *989:wbs_adr_i[12] 0.00051417
2 *988:sram_adr_o[12] 0.00258795
3 *884:21 0.00690691
4 *884:19 0.00746759
5 *884:9 0.00568369
6 *884:7 0.00719679
7 *989:wbs_adr_i[12] *989:wbs_dat_i[12] 0
8 *989:wbs_adr_i[12] *916:7 0
9 *884:7 *988:sram_dat_i[12] 0
10 *884:7 *953:7 0
11 *884:9 *988:sram_dat_i[6] 0.000491475
12 *884:9 *894:9 0
13 *884:9 *915:21 0.0151824
14 *884:9 *949:9 0.00927099
15 *884:19 *895:19 0.00148109
16 *884:19 *895:21 0.000101601
17 *884:19 *913:27 0.000518916
18 *884:19 *915:19 0.000340066
19 *884:19 *916:19 0.00191071
20 *884:19 *925:15 0.000206645
21 *884:21 *989:wbs_adr_i[4] 0.00079033
22 *884:21 *885:21 0.0201045
23 *884:21 *895:21 0
24 *884:21 *903:27 0.00183153
25 *989:wbs_adr_i[0] *884:19 0.00449857
26 *37:29 *884:9 0.00081149
27 *883:15 *884:19 0.000742247
*RES
1 *988:sram_adr_o[12] *884:7 10.8203 
2 *884:7 *884:9 205.946 
3 *884:9 *884:19 21.207 
4 *884:19 *884:21 190.696 
5 *884:21 *989:wbs_adr_i[12] 12.3036 
*END

*D_NET *885 0.0891038
*CONN
*I *989:wbs_adr_i[13] I *D CF_SRAM_1024x32_wb_wrapper
*I *988:sram_adr_o[13] O *D soc_sys
*CAP
1 *989:wbs_adr_i[13] 0.000500083
2 *988:sram_adr_o[13] 0.000579013
3 *885:21 0.00345376
4 *885:19 0.00510985
5 *885:9 0.0130558
6 *885:7 0.0114786
7 *989:wbs_adr_i[13] *989:wbs_dat_i[13] 0
8 *989:wbs_adr_i[13] *917:7 0
9 *885:7 *988:sram_dat_i[13] 0
10 *885:7 *954:7 0
11 *885:19 *989:wbs_adr_i[3] 0.00168643
12 *885:19 *903:27 0.000114967
13 *885:19 *924:19 4.65519e-05
14 *885:19 *928:19 8.55277e-05
15 *885:19 *962:33 4.26759e-05
16 *885:21 *989:wbs_adr_i[4] 0.000770983
17 *885:21 *886:13 0.0210887
18 *885:21 *903:27 0.00198492
19 *989:wbs_adr_i[0] *885:19 0.000518599
20 *38:29 *885:19 0.000179007
21 *67:21 *885:19 0.00211531
22 *880:15 *885:19 0.00272211
23 *882:15 *885:19 0.00346644
24 *884:21 *885:21 0.0201045
*RES
1 *988:sram_adr_o[13] *885:7 4.98293 
2 *885:7 *885:9 214.446 
3 *885:9 *885:19 24.3428 
4 *885:19 *885:21 200.143 
5 *885:21 *989:wbs_adr_i[13] 12 
*END

*D_NET *886 0.106749
*CONN
*I *989:wbs_adr_i[14] I *D CF_SRAM_1024x32_wb_wrapper
*I *988:sram_adr_o[14] O *D soc_sys
*CAP
1 *989:wbs_adr_i[14] 0.00047203
2 *988:sram_adr_o[14] 0.0046502
3 *886:13 0.00370989
4 *886:11 0.00323786
5 *886:9 0.00351224
6 *886:7 0.00816244
7 *989:wbs_adr_i[14] *989:wbs_dat_i[14] 0
8 *989:wbs_adr_i[14] *918:7 0
9 *886:7 *988:sram_dat_i[14] 0
10 *886:7 *955:7 0
11 *886:9 *919:13 0.0182287
12 *886:9 *924:21 0.00230849
13 *886:9 *953:9 0.0161428
14 *886:9 *958:9 0
15 *886:13 *989:wbs_adr_i[4] 0.00255634
16 *886:13 *887:21 0.021985
17 *886:13 *888:21 0.000208183
18 *886:13 *913:27 0.000349777
19 *880:15 *886:13 0.000136506
20 *885:21 *886:13 0.0210887
*RES
1 *988:sram_adr_o[14] *886:7 16.2253 
2 *886:7 *886:9 224.616 
3 *886:9 *886:11 4.5 
4 *886:11 *886:13 212.875 
5 *886:13 *989:wbs_adr_i[14] 11.6964 
*END

*D_NET *887 0.110106
*CONN
*I *989:wbs_adr_i[15] I *D CF_SRAM_1024x32_wb_wrapper
*I *988:sram_adr_o[15] O *D soc_sys
*CAP
1 *989:wbs_adr_i[15] 0.000459242
2 *988:sram_adr_o[15] 0.00415587
3 *887:21 0.00359889
4 *887:19 0.00374435
5 *887:9 0.0048579
6 *887:7 0.00840907
7 *989:wbs_adr_i[15] *989:wbs_dat_i[15] 0
8 *989:wbs_adr_i[15] *919:7 0
9 *989:wbs_adr_i[15] *920:7 0
10 *887:7 *988:sram_dat_i[15] 0
11 *887:7 *956:7 0
12 *887:9 *927:13 0.018635
13 *887:9 *954:9 0.0165985
14 *887:19 *989:wbs_dat_i[3] 0.00118733
15 *887:19 *888:19 0.000549188
16 *887:19 *892:27 4.00658e-06
17 *887:19 *896:19 4.93452e-05
18 *887:19 *907:9 1.29011e-05
19 *887:19 *922:15 0.000153659
20 *887:19 *980:31 0
21 *887:21 *989:wbs_adr_i[4] 0.00276737
22 *887:21 *888:21 0.0226281
23 *880:15 *887:19 0.000180893
24 *880:15 *887:21 0.000128866
25 *886:13 *887:21 0.021985
*RES
1 *988:sram_adr_o[15] *887:7 15.0002 
2 *887:7 *887:9 233.268 
3 *887:9 *887:19 15.411 
4 *887:19 *887:21 214.929 
5 *887:21 *989:wbs_adr_i[15] 11.3929 
*END

*D_NET *888 0.114181
*CONN
*I *989:wbs_adr_i[16] I *D CF_SRAM_1024x32_wb_wrapper
*I *988:sram_adr_o[16] O *D soc_sys
*CAP
1 *989:wbs_adr_i[16] 0.000431229
2 *988:sram_adr_o[16] 0.00377115
3 *888:21 0.00391375
4 *888:19 0.00404062
5 *888:9 0.00490726
6 *888:7 0.00812031
7 *989:wbs_adr_i[16] *989:wbs_dat_i[16] 0
8 *989:wbs_adr_i[16] *920:7 0
9 *888:7 *988:sram_dat_i[16] 0
10 *888:7 *957:7 0
11 *888:9 *893:9 0.000222083
12 *888:9 *916:21 0.000327599
13 *888:9 *952:9 0.0151132
14 *888:9 *960:9 0.0193854
15 *888:19 *989:wbs_dat_i[3] 0.000353472
16 *888:19 *889:15 6.75683e-05
17 *888:19 *890:9 2.06112e-05
18 *888:19 *894:19 0.000249222
19 *888:19 *914:21 7.48901e-06
20 *888:19 *923:19 3.30996e-05
21 *888:21 *989:wbs_adr_i[3] 0.0002845
22 *888:21 *889:17 0.0238899
23 *540:37 *888:9 0.00289351
24 *880:15 *888:19 0.00051098
25 *880:15 *888:21 0.00225236
26 *886:13 *888:21 0.000208183
27 *887:19 *888:19 0.000549188
28 *887:21 *888:21 0.0226281
*RES
1 *988:sram_adr_o[16] *888:7 13.8471 
2 *888:7 *888:9 244.804 
3 *888:9 *888:19 14.5724 
4 *888:19 *888:21 227.25 
5 *888:21 *989:wbs_adr_i[16] 11.0893 
*END

*D_NET *889 0.116639
*CONN
*I *989:wbs_adr_i[17] I *D CF_SRAM_1024x32_wb_wrapper
*I *988:sram_adr_o[17] O *D soc_sys
*CAP
1 *989:wbs_adr_i[17] 0.000413851
2 *988:sram_adr_o[17] 0.00469813
3 *889:17 0.00399038
4 *889:15 0.00402615
5 *889:9 0.00353718
6 *889:7 0.00778568
7 *989:wbs_adr_i[17] *989:wbs_dat_i[17] 0
8 *989:wbs_adr_i[17] *921:7 0
9 *989:wbs_adr_i[17] *922:7 0
10 *889:7 *988:sram_dat_i[17] 0
11 *889:7 *958:7 0
12 *889:9 *890:9 0.0194346
13 *889:9 *923:21 0.0193986
14 *889:9 *959:19 1.4663e-05
15 *889:15 *890:9 0.000171176
16 *889:15 *914:21 0.000114796
17 *889:15 *926:19 0.000956155
18 *889:15 *959:19 0.00115517
19 *889:17 *989:wbs_adr_i[3] 0.000263837
20 *889:17 *890:13 0.000226677
21 *889:17 *891:21 0.0240403
22 *889:17 *893:13 2.56811e-05
23 *880:15 *889:17 0.00242877
24 *888:19 *889:15 6.75683e-05
25 *888:21 *889:17 0.0238899
*RES
1 *988:sram_adr_o[17] *889:7 15.865 
2 *889:7 *889:9 238.732 
3 *889:9 *889:15 22.9196 
4 *889:15 *889:17 233.821 
5 *889:17 *989:wbs_adr_i[17] 10.7857 
*END

*D_NET *890 0.118677
*CONN
*I *989:wbs_adr_i[18] I *D CF_SRAM_1024x32_wb_wrapper
*I *988:sram_adr_o[18] O *D soc_sys
*CAP
1 *989:wbs_adr_i[18] 0.000369281
2 *988:sram_adr_o[18] 0.00445859
3 *890:13 0.00388858
4 *890:11 0.0035193
5 *890:9 0.00399032
6 *890:7 0.0084489
7 *989:wbs_adr_i[18] *989:wbs_dat_i[18] 0
8 *989:wbs_adr_i[18] *922:7 0
9 *989:wbs_adr_i[18] *923:7 0
10 *890:7 *988:sram_dat_i[18] 0
11 *890:9 *921:15 2.77008e-05
12 *890:9 *921:17 0.0187519
13 *890:9 *923:19 0.00138143
14 *890:9 *923:21 0.000492248
15 *890:9 *926:19 0.000954576
16 *890:13 *989:wbs_adr_i[3] 0.00272166
17 *890:13 *891:21 0.0246819
18 *890:13 *893:13 0.0251374
19 *888:19 *890:9 2.06112e-05
20 *889:9 *890:9 0.0194346
21 *889:15 *890:9 0.000171176
22 *889:17 *890:13 0.000226677
*RES
1 *988:sram_adr_o[18] *890:7 15.9371 
2 *890:7 *890:9 266.812 
3 *890:9 *890:11 4.5 
4 *890:11 *890:13 239.161 
5 *890:13 *989:wbs_adr_i[18] 10.1786 
*END

*D_NET *891 0.118863
*CONN
*I *989:wbs_adr_i[19] I *D CF_SRAM_1024x32_wb_wrapper
*I *988:sram_adr_o[19] O *D soc_sys
*CAP
1 *989:wbs_adr_i[19] 0.000381656
2 *988:sram_adr_o[19] 0.00469972
3 *891:21 0.00408138
4 *891:19 0.00394749
5 *891:9 0.0058718
6 *891:7 0.0103237
7 *989:wbs_adr_i[19] *989:wbs_dat_i[19] 0
8 *989:wbs_adr_i[19] *923:7 0
9 *989:wbs_adr_i[19] *924:7 0
10 *891:7 *988:sram_dat_i[19] 0
11 *891:7 *960:7 0
12 *891:9 *892:9 0.00109221
13 *891:9 *896:9 0.0122624
14 *891:9 *924:21 0.0227268
15 *891:9 *950:15 0.000640964
16 *891:19 *989:wbs_sel_i[0] 1.09611e-05
17 *891:19 *920:23 0.000590162
18 *891:19 *939:23 0.000593747
19 *891:19 *961:19 5.00194e-05
20 *891:21 *989:wbs_adr_i[3] 0.0025162
21 *891:21 *893:13 0.000351211
22 *889:17 *891:21 0.0240403
23 *890:13 *891:21 0.0246819
*RES
1 *988:sram_adr_o[19] *891:7 16.6938 
2 *891:7 *891:9 47.4543 
3 *891:9 *891:19 19.2691 
4 *891:19 *891:21 240.804 
5 *891:21 *989:wbs_adr_i[19] 10.4821 
*END

*D_NET *892 0.0612316
*CONN
*I *989:wbs_adr_i[1] I *D CF_SRAM_1024x32_wb_wrapper
*I *988:sram_adr_o[1] O *D soc_sys
*CAP
1 *989:wbs_adr_i[1] 0.000342781
2 *988:sram_adr_o[1] 0.00526673
3 *892:27 0.0036278
4 *892:9 0.00450169
5 *892:7 0.0064834
6 *989:wbs_adr_i[1] *989:wbs_dat_i[1] 0
7 *989:wbs_adr_i[1] *914:17 0
8 *892:7 *988:sram_dat_i[1] 0
9 *892:9 *920:23 4.26759e-05
10 *892:9 *922:17 0.000199213
11 *892:9 *939:23 1.69153e-05
12 *892:9 *950:15 0.00298334
13 *892:9 *953:9 0
14 *892:9 *958:9 0.0044603
15 *892:27 *989:wbs_adr_i[3] 0.000599258
16 *892:27 *989:wbs_adr_i[4] 0.00012253
17 *892:27 *989:wbs_dat_i[3] 0.013487
18 *892:27 *989:wbs_we_i 0.0117846
19 *892:27 *894:21 0.00228064
20 *892:27 *907:9 0.000692619
21 *892:27 *920:23 6.66818e-05
22 *892:27 *922:15 4.52751e-05
23 *892:27 *922:17 6.87203e-05
24 *892:27 *928:9 0.00241509
25 *892:27 *980:31 0.000539816
26 *880:15 *892:27 0.000108345
27 *887:19 *892:27 4.00658e-06
28 *891:9 *892:9 0.00109221
*RES
1 *988:sram_adr_o[1] *892:7 16.8019 
2 *892:7 *892:9 59.625 
3 *892:9 *892:27 49.0559 
4 *892:27 *989:wbs_adr_i[1] 4.91964 
*END

*D_NET *893 0.114743
*CONN
*I *989:wbs_adr_i[20] I *D CF_SRAM_1024x32_wb_wrapper
*I *988:sram_adr_o[20] O *D soc_sys
*CAP
1 *989:wbs_adr_i[20] 0.000344345
2 *988:sram_adr_o[20] 0.00370765
3 *893:13 0.00480158
4 *893:11 0.00445723
5 *893:9 0.00832958
6 *893:7 0.0120372
7 *989:wbs_adr_i[20] *989:wbs_dat_i[20] 0
8 *989:wbs_adr_i[20] *924:7 0
9 *893:7 *961:7 0
10 *893:9 *928:19 0
11 *893:9 *960:9 0.021744
12 *893:9 *961:9 0
13 *893:9 *973:9 0.00269369
14 *893:9 *981:9 0
15 *893:13 *989:wbs_adr_i[3] 0.000129601
16 *893:13 *989:wbs_we_i 0.00228064
17 *893:13 *894:21 0.000834106
18 *893:13 *896:21 0.0258078
19 *893:13 *928:9 9.30625e-05
20 *540:37 *893:9 0.00174652
21 *888:9 *893:9 0.000222083
22 *889:17 *893:13 2.56811e-05
23 *890:13 *893:13 0.0251374
24 *891:21 *893:13 0.000351211
*RES
1 *988:sram_adr_o[20] *893:7 13.703 
2 *893:7 *893:9 288.366 
3 *893:9 *893:11 4.5 
4 *893:11 *893:13 264.214 
5 *893:13 *989:wbs_adr_i[20] 9.875 
*END

*D_NET *894 0.121265
*CONN
*I *989:wbs_adr_i[21] I *D CF_SRAM_1024x32_wb_wrapper
*I *988:sram_adr_o[21] O *D soc_sys
*CAP
1 *989:wbs_adr_i[21] 0.000298439
2 *988:sram_adr_o[21] 0.00273802
3 *894:21 0.0043634
4 *894:19 0.00460506
5 *894:9 0.010246
6 *894:7 0.0124439
7 *989:wbs_adr_i[21] *927:7 0
8 *894:7 *988:sram_dat_i[21] 0
9 *894:7 *963:7 0
10 *894:9 *912:17 0.00208907
11 *894:9 *944:21 0.000149753
12 *894:9 *949:9 0
13 *894:9 *963:9 0.0237281
14 *894:19 *989:wbs_dat_i[3] 0.00025505
15 *894:19 *928:19 0.00105264
16 *894:19 *947:13 0.000113831
17 *894:19 *951:9 0
18 *894:21 *989:wbs_dat_i[23] 0.000112662
19 *894:21 *989:wbs_dat_i[3] 0.00014225
20 *894:21 *896:21 0.0264589
21 *894:21 *928:9 0.0280895
22 *108:21 *894:19 0.000355893
23 *880:15 *894:19 0.00065887
24 *884:9 *894:9 0
25 *888:19 *894:19 0.000249222
26 *892:27 *894:21 0.00228064
27 *893:13 *894:21 0.000834106
*RES
1 *988:sram_adr_o[21] *894:7 11.4689 
2 *894:7 *894:9 300.054 
3 *894:9 *894:19 15.5966 
4 *894:19 *894:21 267.5 
5 *894:21 *989:wbs_adr_i[21] 9.26786 
*END

*D_NET *895 0.11967
*CONN
*I *989:wbs_adr_i[22] I *D CF_SRAM_1024x32_wb_wrapper
*I *988:sram_adr_o[22] O *D soc_sys
*CAP
1 *989:wbs_adr_i[22] 0.000584973
2 *988:sram_adr_o[22] 0.00245855
3 *895:21 0.0103796
4 *895:19 0.0101258
5 *895:9 0.00485324
6 *895:7 0.00698068
7 *989:wbs_adr_i[22] *927:7 0
8 *989:wbs_adr_i[22] *928:7 0
9 *895:7 *988:sram_dat_i[22] 0
10 *895:7 *964:7 0
11 *895:9 *988:sram_dat_i[6] 0.00126427
12 *895:9 *915:21 0.000210402
13 *895:19 *909:15 5.44456e-05
14 *895:19 *915:19 0.00152799
15 *895:19 *981:9 2.11419e-05
16 *895:21 *909:15 0.000118491
17 *895:21 *913:27 0.000631401
18 *895:21 *927:9 0.0283344
19 *989:wbs_adr_i[0] *895:19 7.69372e-05
20 *36:13 *895:9 0.000120012
21 *37:29 *895:9 0.0251277
22 *38:25 *895:9 0.025174
23 *39:13 *895:9 4.36915e-05
24 *884:19 *895:19 0.00148109
25 *884:19 *895:21 0.000101601
26 *884:21 *895:21 0
*RES
1 *988:sram_adr_o[22] *895:7 10.6041 
2 *895:7 *895:9 315.839 
3 *895:9 *895:19 14.1661 
4 *895:19 *895:21 279.821 
5 *895:21 *989:wbs_adr_i[22] 15.3393 
*END

*D_NET *896 0.136777
*CONN
*I *989:wbs_adr_i[23] I *D CF_SRAM_1024x32_wb_wrapper
*I *988:sram_adr_o[23] O *D soc_sys
*CAP
1 *989:wbs_adr_i[23] 0.000306403
2 *988:sram_adr_o[23] 0.00415434
3 *896:21 0.00448955
4 *896:19 0.00423632
5 *896:9 0.0142343
6 *896:7 0.0183355
7 *989:wbs_adr_i[23] *928:7 0
8 *896:7 *929:25 0.00186375
9 *896:9 *903:9 0.000790521
10 *896:9 *907:9 0.00178092
11 *896:9 *920:25 0.00395628
12 *896:9 *922:17 0.00445354
13 *896:9 *924:21 0.000261713
14 *896:9 *939:25 0.00146635
15 *896:9 *958:9 0.00515182
16 *896:9 *962:9 0.000759374
17 *896:9 *978:21 0
18 *896:9 *980:9 0.00273197
19 *896:19 *989:wbs_dat_i[3] 2.08536e-05
20 *896:19 *907:9 1.7532e-05
21 *896:21 *989:wbs_adr_i[3] 0.000112662
22 *896:21 *989:wbs_we_i 0.00245925
23 *896:21 *928:9 0.000588343
24 *880:15 *896:19 2.68192e-05
25 *887:19 *896:19 4.93452e-05
26 *891:9 *896:9 0.0122624
27 *893:13 *896:21 0.0258078
28 *894:21 *896:21 0.0264589
*RES
1 *988:sram_adr_o[23] *896:7 16.982 
2 *896:7 *896:9 56.4031 
3 *896:9 *896:19 11.9834 
4 *896:19 *896:21 263.804 
5 *896:21 *989:wbs_adr_i[23] 9.57143 
*END

*D_NET *897 0.0932747
*CONN
*I *989:wbs_adr_i[24] I *D CF_SRAM_1024x32_wb_wrapper
*I *988:sram_adr_o[24] O *D soc_sys
*CAP
1 *989:wbs_adr_i[24] 0.00458326
2 *988:sram_adr_o[24] 0.010983
3 *897:9 0.0226928
4 *897:7 0.0290925
5 *989:wbs_adr_i[24] *989:wbs_adr_i[25] 0.00201255
6 *989:wbs_adr_i[24] *989:wbs_adr_i[9] 8.69452e-05
7 *989:wbs_adr_i[24] *989:wbs_dat_i[15] 0.000294213
8 *989:wbs_adr_i[24] *989:wbs_dat_i[25] 0.00172803
9 *989:wbs_adr_i[24] *989:wbs_dat_i[29] 0.00056931
10 *989:wbs_adr_i[24] *989:wbs_dat_i[30] 0.00139911
11 *989:wbs_adr_i[24] *989:wbs_dat_i[9] 0.000358114
12 *989:wbs_adr_i[24] *929:11 0.011942
13 *989:wbs_adr_i[24] *942:44 9.97767e-06
14 *989:wbs_adr_i[24] *960:21 0.0002845
15 *989:wbs_adr_i[24] *961:21 0.000259202
16 *989:wbs_adr_i[24] *963:21 0.000225323
17 *897:7 *988:sram_dat_i[24] 0
18 *897:7 *966:5 0
19 *897:7 *967:13 0.00675385
*RES
1 *988:sram_adr_o[24] *897:7 44.9439 
2 *897:7 *897:9 57.7881 
3 *897:9 *989:wbs_adr_i[24] 28.78 
*END

*D_NET *898 0.107893
*CONN
*I *989:wbs_adr_i[25] I *D CF_SRAM_1024x32_wb_wrapper
*I *988:sram_adr_o[25] O *D soc_sys
*CAP
1 *989:wbs_adr_i[25] 0.00184154
2 *988:sram_adr_o[25] 0.012834
3 *898:9 0.0145619
4 *898:7 0.0127203
5 *898:5 0.012834
6 *989:wbs_adr_i[25] *989:wbs_dat_i[25] 0.0055915
7 *989:wbs_adr_i[25] *989:wbs_dat_i[29] 0.000670665
8 *989:wbs_adr_i[25] *989:wbs_dat_i[30] 0.00209095
9 *898:5 *967:11 0
10 *898:5 *968:17 0.0165347
11 *898:9 *965:9 0.0262015
12 *989:wbs_adr_i[24] *989:wbs_adr_i[25] 0.00201255
*RES
1 *988:sram_adr_o[25] *898:5 53.3528 
2 *898:5 *898:7 3.41 
3 *898:7 *898:9 59.4926 
4 *898:9 *989:wbs_adr_i[25] 16.8278 
*END

*D_NET *899 0.154788
*CONN
*I *989:wbs_adr_i[26] I *D CF_SRAM_1024x32_wb_wrapper
*I *988:sram_adr_o[26] O *D soc_sys
*CAP
1 *989:wbs_adr_i[26] 0.00132014
2 *988:sram_adr_o[26] 0.00179594
3 *899:13 0.00627125
4 *899:11 0.00495111
5 *899:9 0.00645338
6 *899:7 0.00824932
7 *989:wbs_adr_i[26] *989:wbs_dat_i[26] 0
8 *989:wbs_adr_i[26] *931:7 0
9 *899:7 *988:sram_dat_i[26] 0
10 *899:9 *901:9 0.00655408
11 *899:9 *917:21 0.0171728
12 *899:9 *918:21 0.0182524
13 *899:9 *931:13 0.00684472
14 *899:13 *901:13 0.0374811
15 *899:13 *931:9 0.0371655
16 *67:17 *899:9 0.00227636
*RES
1 *988:sram_adr_o[26] *899:7 8.37007 
2 *899:7 *899:9 374.732 
3 *899:9 *899:11 3.41 
4 *899:11 *899:13 58.2048 
5 *899:13 *989:wbs_adr_i[26] 29.5796 
*END

*D_NET *900 0.10947
*CONN
*I *989:wbs_adr_i[27] I *D CF_SRAM_1024x32_wb_wrapper
*I *988:sram_adr_o[27] O *D soc_sys
*CAP
1 *989:wbs_adr_i[27] 0.000887677
2 *988:sram_adr_o[27] 0.000164154
3 *900:11 0.0204791
4 *900:9 0.0195914
5 *900:7 0.0114225
6 *900:5 0.0115866
7 *989:wbs_adr_i[27] *989:wbs_dat_i[25] 0.00353738
8 *989:wbs_adr_i[27] *989:wbs_dat_i[28] 0.00178472
9 *989:wbs_adr_i[27] *989:wbs_dat_i[29] 0.00105117
10 *989:wbs_adr_i[27] *989:wbs_dat_i[30] 0.000436332
11 *989:wbs_adr_i[27] *933:12 0.0019995
12 *900:7 *933:18 0.0365295
13 *900:11 *966:9 0
14 *900:11 *972:9 0
*RES
1 *988:sram_adr_o[27] *900:5 0.3431 
2 *900:5 *900:7 56.6914 
3 *900:7 *900:9 3.41 
4 *900:9 *900:11 62.6886 
5 *900:11 *989:wbs_adr_i[27] 14.5985 
*END

*D_NET *901 0.149837
*CONN
*I *989:wbs_adr_i[28] I *D CF_SRAM_1024x32_wb_wrapper
*I *988:sram_adr_o[28] O *D soc_sys
*CAP
1 *989:wbs_adr_i[28] 0.00127658
2 *988:sram_adr_o[28] 0.00158264
3 *901:13 0.00676291
4 *901:11 0.00548633
5 *901:9 0.0137439
6 *901:7 0.0153265
7 *989:wbs_adr_i[28] *989:wbs_dat_i[27] 0
8 *989:wbs_adr_i[28] *934:7 0
9 *901:7 *988:sram_dat_i[28] 0
10 *901:7 *970:7 0
11 *901:9 *918:21 0.0182511
12 *901:13 *932:9 0.000136114
13 *901:13 *934:9 0.00010008
14 *901:13 *969:13 0.0378054
15 *901:13 *970:13 0.00018115
16 *65:21 *901:9 0.00514942
17 *899:9 *901:9 0.00655408
18 *899:13 *901:13 0.0374811
*RES
1 *988:sram_adr_o[28] *901:7 8.22593 
2 *901:7 *901:9 395.982 
3 *901:9 *901:11 3.41 
4 *901:11 *901:13 60.5109 
5 *901:13 *989:wbs_adr_i[28] 28.9725 
*END

*D_NET *902 0.109455
*CONN
*I *989:wbs_adr_i[29] I *D CF_SRAM_1024x32_wb_wrapper
*I *988:sram_adr_o[29] O *D soc_sys
*CAP
1 *989:wbs_adr_i[29] 0.00116875
2 *988:sram_adr_o[29] 0.018474
3 *902:9 0.00772761
4 *902:7 0.00655886
5 *902:5 0.018474
6 *989:wbs_adr_i[29] *989:wbs_dat_i[29] 0.000265091
7 *989:wbs_adr_i[29] *989:wbs_dat_i[30] 0.000667148
8 *989:wbs_adr_i[29] *935:11 0.00368536
9 *902:5 *988:sram_dat_i[29] 0
10 *902:5 *971:13 0.000685303
11 *902:5 *971:17 0.0167118
12 *902:9 *904:9 0.0175045
13 *902:9 *935:13 0.0175327
*RES
1 *988:sram_adr_o[29] *902:5 72.7027 
2 *902:5 *902:7 3.41 
3 *902:7 *902:9 382.625 
4 *902:9 *989:wbs_adr_i[29] 14.079 
*END

*D_NET *903 0.0588074
*CONN
*I *989:wbs_adr_i[2] I *D CF_SRAM_1024x32_wb_wrapper
*I *988:sram_adr_o[2] O *D soc_sys
*CAP
1 *989:wbs_adr_i[2] 0.000576776
2 *988:sram_adr_o[2] 0.00563047
3 *903:27 0.00381115
4 *903:9 0.00556831
5 *903:7 0.0079644
6 *989:wbs_adr_i[2] *989:wbs_dat_i[2] 0
7 *989:wbs_adr_i[2] *989:wbs_sel_i[1] 0
8 *903:7 *947:11 0
9 *903:9 *925:15 0
10 *903:9 *925:17 0
11 *903:9 *936:15 5.75951e-05
12 *903:9 *939:25 0.000323826
13 *903:9 *962:9 0.00551497
14 *903:27 *989:wbs_adr_i[3] 2.81411e-05
15 *903:27 *989:wbs_adr_i[4] 0.0131102
16 *903:27 *907:9 6.55193e-05
17 *903:27 *908:21 0.000306365
18 *903:27 *962:33 0.000769557
19 *903:27 *980:31 0.000442659
20 *882:15 *903:27 0.00991554
21 *884:21 *903:27 0.00183153
22 *885:19 *903:27 0.000114967
23 *885:21 *903:27 0.00198492
24 *896:9 *903:9 0.000790521
*RES
1 *988:sram_adr_o[2] *903:7 17.3784 
2 *903:7 *903:9 74.9554 
3 *903:9 *903:27 48.5983 
4 *903:27 *989:wbs_adr_i[2] 11.3654 
*END

*D_NET *904 0.116822
*CONN
*I *989:wbs_adr_i[30] I *D CF_SRAM_1024x32_wb_wrapper
*I *988:sram_adr_o[30] O *D soc_sys
*CAP
1 *989:wbs_adr_i[30] 0.000442111
2 *988:sram_adr_o[30] 0.0241598
3 *904:9 0.00640661
4 *904:7 0.0059645
5 *904:5 0.0241598
6 *989:wbs_adr_i[30] *935:11 0.00335705
7 *989:wbs_adr_i[30] *937:8 0.00284463
8 *904:5 *988:sram_dat_i[30] 0
9 *904:5 *972:5 0
10 *904:9 *935:13 0
11 *904:9 *937:10 0.0319828
12 *902:9 *904:9 0.0175045
*RES
1 *988:sram_adr_o[30] *904:5 72.5586 
2 *904:5 *904:7 3.41 
3 *904:7 *904:9 392.339 
4 *904:9 *989:wbs_adr_i[30] 11.9837 
*END

*D_NET *905 0.109302
*CONN
*I *989:wbs_adr_i[31] I *D CF_SRAM_1024x32_wb_wrapper
*I *988:sram_adr_o[31] O *D soc_sys
*CAP
1 *989:wbs_adr_i[31] 0.000661439
2 *988:sram_adr_o[31] 0.0240352
3 *905:9 0.013074
4 *905:7 0.0124126
5 *905:5 0.0240352
6 *989:wbs_adr_i[31] *989:wbs_dat_i[31] 0.00019474
7 *989:wbs_adr_i[31] *937:8 0.00256322
8 *989:wbs_adr_i[31] *938:8 0.000100938
9 *905:5 *988:sram_dat_i[31] 0
10 *905:5 *974:5 0
11 *905:5 *975:15 0
12 *905:9 *937:10 0.0322252
*RES
1 *988:sram_adr_o[31] *905:5 72.4145 
2 *905:5 *905:7 3.41 
3 *905:7 *905:9 402.054 
4 *905:9 *989:wbs_adr_i[31] 10.7586 
*END

*D_NET *906 0.0734189
*CONN
*I *989:wbs_adr_i[3] I *D CF_SRAM_1024x32_wb_wrapper
*I *988:sram_adr_o[3] O *D soc_sys
*CAP
1 *989:wbs_adr_i[3] 0.00493506
2 *988:sram_adr_o[3] 0.00438223
3 *906:9 0.00719931
4 *906:7 0.00664647
5 *989:wbs_adr_i[3] *989:wbs_adr_i[4] 0.00236584
6 *989:wbs_adr_i[3] *989:wbs_dat_i[3] 0.00056989
7 *989:wbs_adr_i[3] *989:wbs_sel_i[2] 0
8 *989:wbs_adr_i[3] *989:wbs_we_i 0.0116448
9 *989:wbs_adr_i[3] *925:15 0
10 *989:wbs_adr_i[3] *939:15 0
11 *906:7 *988:sram_dat_i[3] 0
12 *906:7 *948:7 0
13 *906:9 *916:21 0
14 *906:9 *927:13 0
15 *906:9 *947:11 0
16 *906:9 *951:9 0.00518151
17 *906:9 *957:21 0.00124851
18 *32:17 *906:9 0.00770919
19 *880:15 *989:wbs_adr_i[3] 0.0131938
20 *885:19 *989:wbs_adr_i[3] 0.00168643
21 *888:21 *989:wbs_adr_i[3] 0.0002845
22 *889:17 *989:wbs_adr_i[3] 0.000263837
23 *890:13 *989:wbs_adr_i[3] 0.00272166
24 *891:21 *989:wbs_adr_i[3] 0.0025162
25 *892:27 *989:wbs_adr_i[3] 0.000599258
26 *893:13 *989:wbs_adr_i[3] 0.000129601
27 *896:21 *989:wbs_adr_i[3] 0.000112662
28 *903:27 *989:wbs_adr_i[3] 2.81411e-05
*RES
1 *988:sram_adr_o[3] *906:7 14.6399 
2 *906:7 *906:9 100.911 
3 *906:9 *989:wbs_adr_i[3] 47.8719 
*END

*D_NET *907 0.0774884
*CONN
*I *989:wbs_adr_i[4] I *D CF_SRAM_1024x32_wb_wrapper
*I *988:sram_adr_o[4] O *D soc_sys
*CAP
1 *989:wbs_adr_i[4] 0.00454572
2 *988:sram_adr_o[4] 0.00564696
3 *907:9 0.00641724
4 *907:7 0.00751848
5 *989:wbs_adr_i[4] *989:wbs_dat_i[3] 3.44845e-05
6 *989:wbs_adr_i[4] *989:wbs_dat_i[4] 0
7 *989:wbs_adr_i[4] *989:wbs_sel_i[3] 0
8 *989:wbs_adr_i[4] *940:7 0
9 *989:wbs_adr_i[4] *962:33 0.000113568
10 *907:7 *988:sram_dat_i[4] 0
11 *907:7 *949:7 0
12 *907:9 *908:21 0.000578583
13 *907:9 *922:17 1.80451e-05
14 *907:9 *939:25 0.00734718
15 *907:9 *962:9 1.20719e-05
16 *907:9 *980:9 0.00837337
17 *907:9 *980:31 0.000277315
18 *989:wbs_adr_i[3] *989:wbs_adr_i[4] 0.00236584
19 *880:15 *989:wbs_adr_i[4] 0.010893
20 *882:15 *989:wbs_adr_i[4] 0.000659271
21 *884:21 *989:wbs_adr_i[4] 0.00079033
22 *885:21 *989:wbs_adr_i[4] 0.000770983
23 *886:13 *989:wbs_adr_i[4] 0.00255634
24 *887:19 *907:9 1.29011e-05
25 *887:21 *989:wbs_adr_i[4] 0.00276737
26 *892:27 *989:wbs_adr_i[4] 0.00012253
27 *892:27 *907:9 0.000692619
28 *896:9 *907:9 0.00178092
29 *896:19 *907:9 1.7532e-05
30 *903:27 *989:wbs_adr_i[4] 0.0131102
31 *903:27 *907:9 6.55193e-05
*RES
1 *988:sram_adr_o[4] *907:7 17.1622 
2 *907:7 *907:9 114.268 
3 *907:9 *989:wbs_adr_i[4] 48.8128 
*END

*D_NET *908 0.0859039
*CONN
*I *989:wbs_adr_i[5] I *D CF_SRAM_1024x32_wb_wrapper
*I *988:sram_adr_o[5] O *D soc_sys
*CAP
1 *989:wbs_adr_i[5] 0.0037367
2 *988:sram_adr_o[5] 0.000170457
3 *908:21 0.00638557
4 *908:11 0.00404805
5 *908:9 0.00156963
6 *989:wbs_adr_i[5] *989:wbs_dat_i[2] 0.0148331
7 *989:wbs_adr_i[5] *989:wbs_dat_i[5] 0.00124061
8 *989:wbs_adr_i[5] *989:wbs_dat_i[9] 0.0133383
9 *989:wbs_adr_i[5] *940:7 0
10 *989:wbs_adr_i[5] *957:21 0.0038021
11 *908:11 *978:11 0.0090725
12 *908:11 *979:11 0.00907321
13 *908:21 *926:19 0
14 *908:21 *936:19 2.72228e-05
15 *908:21 *962:9 0.000244844
16 *908:21 *962:33 8.41555e-06
17 *908:21 *978:21 0.00864812
18 *35:21 *908:21 0.00598376
19 *110:13 *908:21 0.000687548
20 *540:52 *989:wbs_adr_i[5] 0.0021487
21 *903:27 *908:21 0.000306365
22 *907:9 *908:21 0.000578583
*RES
1 *988:sram_adr_o[5] *908:9 3.7296 
2 *908:9 *908:11 111.232 
3 *908:11 *908:21 31.6686 
4 *908:21 *989:wbs_adr_i[5] 30.7192 
*END

*D_NET *909 0.0935441
*CONN
*I *989:wbs_adr_i[6] I *D CF_SRAM_1024x32_wb_wrapper
*I *988:sram_adr_o[6] O *D soc_sys
*CAP
1 *989:wbs_adr_i[6] 0.000756542
2 *988:sram_adr_o[6] 0.00217921
3 *909:15 0.00556052
4 *909:9 0.00703596
5 *909:7 0.0044112
6 *989:wbs_adr_i[6] *941:7 0
7 *909:7 *988:sram_dat_i[6] 0
8 *909:9 *941:13 0.0108749
9 *909:9 *956:9 0.0114687
10 *909:15 *912:17 0.00465369
11 *909:15 *913:27 0.0102185
12 *909:15 *915:19 0.0045602
13 *909:15 *917:19 0.00127477
14 *909:15 *922:9 0.00322293
15 *909:15 *923:9 0.000694298
16 *909:15 *924:9 0.00346207
17 *909:15 *927:9 0.000603551
18 *909:15 *981:15 0.0204372
19 *989:wbs_adr_i[0] *909:15 0.000231386
20 *39:17 *909:15 0.000627285
21 *882:15 *909:15 0.000964689
22 *883:15 *909:15 0.000133554
23 *895:19 *909:15 5.44456e-05
24 *895:21 *909:15 0.000118491
*RES
1 *988:sram_adr_o[6] *909:7 9.45107 
2 *909:7 *909:9 142.196 
3 *909:9 *909:15 42.3238 
4 *909:15 *989:wbs_adr_i[6] 12.2054 
*END

*D_NET *910 0.0860107
*CONN
*I *989:wbs_adr_i[7] I *D CF_SRAM_1024x32_wb_wrapper
*I *988:sram_adr_o[7] O *D soc_sys
*CAP
1 *989:wbs_adr_i[7] 0.000982262
2 *988:sram_adr_o[7] 0.0013645
3 *910:15 0.00500606
4 *910:9 0.00917002
5 *910:7 0.00651072
6 *989:wbs_adr_i[7] *989:wbs_dat_i[7] 0
7 *910:7 *988:sram_dat_i[7] 0
8 *910:9 *943:21 0.0125952
9 *910:15 *911:15 0.0248243
10 *910:15 *912:17 0.00207574
11 *910:15 *914:17 0.000490292
12 *910:15 *918:19 0.00511642
13 *910:15 *925:11 0.0137363
14 *910:15 *942:44 0.00398538
15 *910:15 *962:33 3.01032e-05
16 *883:15 *910:15 0.000123309
*RES
1 *988:sram_adr_o[7] *910:7 7.28907 
2 *910:7 *910:9 156.161 
3 *910:9 *910:15 45.5668 
4 *910:15 *989:wbs_adr_i[7] 15.2411 
*END

*D_NET *911 0.0993586
*CONN
*I *989:wbs_adr_i[8] I *D CF_SRAM_1024x32_wb_wrapper
*I *988:sram_adr_o[8] O *D soc_sys
*CAP
1 *989:wbs_adr_i[8] 0.000934644
2 *988:sram_adr_o[8] 0.00100921
3 *911:15 0.00585944
4 *911:9 0.00736971
5 *911:7 0.00345412
6 *989:wbs_adr_i[8] *989:wbs_dat_i[8] 0
7 *989:wbs_adr_i[8] *943:7 0
8 *989:wbs_adr_i[8] *944:7 0
9 *911:7 *988:sram_dat_i[8] 0
10 *911:7 *980:7 0
11 *911:9 *969:9 0.0134327
12 *911:9 *970:9 0.0134348
13 *911:15 *912:17 0.00262731
14 *911:15 *914:17 0.0129261
15 *911:15 *915:9 0.00377004
16 *911:15 *916:9 0.000435096
17 *911:15 *917:9 0.000378227
18 *911:15 *917:19 0.00291826
19 *911:15 *939:15 0.00218949
20 *911:15 *942:44 0.00215316
21 *911:15 *981:15 0.00115033
22 *39:17 *911:15 1.932e-05
23 *65:25 *911:15 0.000349057
24 *883:15 *911:15 0.000123309
25 *910:15 *911:15 0.0248243
*RES
1 *988:sram_adr_o[8] *911:7 6.28013 
2 *911:7 *911:9 166.482 
3 *911:9 *911:15 47.6567 
4 *911:15 *989:wbs_adr_i[8] 14.6339 
*END

*D_NET *912 0.103512
*CONN
*I *989:wbs_adr_i[9] I *D CF_SRAM_1024x32_wb_wrapper
*I *988:sram_adr_o[9] O *D soc_sys
*CAP
1 *989:wbs_adr_i[9] 0.000165352
2 *988:sram_adr_o[9] 0.0249791
3 *912:17 0.0251444
4 *989:wbs_adr_i[9] *989:wbs_dat_i[9] 0.000327141
5 *912:17 *988:sram_dat_i[6] 0
6 *912:17 *988:sram_dat_i[9] 0
7 *912:17 *989:wbs_stb_i 0.000391404
8 *912:17 *913:27 0.00225953
9 *912:17 *914:17 0.000910701
10 *912:17 *915:19 0.000630543
11 *912:17 *916:19 0.000177692
12 *912:17 *917:19 0.000610655
13 *912:17 *918:19 0.000238636
14 *912:17 *925:11 0.000585591
15 *912:17 *939:15 0.00339621
16 *912:17 *942:44 0.00768585
17 *912:17 *944:7 0.000111243
18 *912:17 *944:21 0.00168962
19 *912:17 *945:19 0.000108464
20 *912:17 *962:33 0.000456599
21 *912:17 *963:9 0.00193109
22 *912:17 *981:7 0
23 *912:17 *981:15 0.00468152
24 *989:wbs_adr_i[24] *989:wbs_adr_i[9] 8.69452e-05
25 *40:53 *912:17 0
26 *883:15 *912:17 0.0154979
27 *894:9 *912:17 0.00208907
28 *909:15 *912:17 0.00465369
29 *910:15 *912:17 0.00207574
30 *911:15 *912:17 0.00262731
*RES
1 *988:sram_adr_o[9] *912:17 49.6114 
2 *912:17 *989:wbs_adr_i[9] 7.33543 
*END

*D_NET *913 0.0489598
*CONN
*I *989:wbs_cyc_i I *D CF_SRAM_1024x32_wb_wrapper
*I *988:sram_cyc_o O *D soc_sys
*CAP
1 *989:wbs_cyc_i 0.000806447
2 *988:sram_cyc_o 0.00521033
3 *913:27 0.0033692
4 *913:9 0.00394216
5 *913:7 0.00658974
6 *989:wbs_cyc_i *989:wbs_stb_i 0
7 *913:7 *950:7 0
8 *913:9 *924:21 0.000570755
9 *913:9 *939:23 0.00111908
10 *913:9 *950:15 0.00144821
11 *913:9 *953:9 0
12 *913:9 *958:19 0.00134231
13 *913:27 *915:19 0.000516644
14 *913:27 *916:19 3.47641e-06
15 *913:27 *922:15 0
16 *913:27 *923:9 0.00237384
17 *913:27 *927:9 0.00245962
18 *913:27 *980:31 0.000274417
19 *988:sram_ack_i *913:7 0
20 *989:wbs_adr_i[0] *913:27 0.00495543
21 *880:15 *989:wbs_cyc_i 0
22 *884:19 *913:27 0.000518916
23 *886:13 *913:27 0.000349777
24 *895:21 *913:27 0.000631401
25 *909:15 *913:27 0.0102185
26 *912:17 *913:27 0.00225953
*RES
1 *988:sram_cyc_o *913:7 16.5857 
2 *913:7 *913:9 46.4196 
3 *913:9 *913:27 41.8317 
4 *913:27 *989:wbs_cyc_i 11.5982 
*END

*D_NET *914 0.0623722
*CONN
*I *988:sram_dat_i[0] I *D soc_sys
*I *989:wbs_dat_o[0] O *D CF_SRAM_1024x32_wb_wrapper
*CAP
1 *988:sram_dat_i[0] 0.00478833
2 *989:wbs_dat_o[0] 0.00315096
3 *914:21 0.00692119
4 *914:19 0.00213286
5 *914:17 0.00315096
6 *988:sram_dat_i[0] *951:7 0
7 *914:17 *989:wbs_dat_i[0] 0
8 *914:17 *916:9 0.00251622
9 *914:17 *917:9 0.00271329
10 *914:17 *918:19 0.000440125
11 *914:17 *925:15 4.55356e-05
12 *914:17 *939:15 0.0129232
13 *914:17 *942:44 0.00140075
14 *914:17 *951:23 0.000601673
15 *914:17 *962:33 0.000259209
16 *914:21 *923:19 0
17 *914:21 *948:9 0
18 *914:21 *953:15 0
19 *914:21 *955:19 0.00231003
20 *914:21 *959:19 0.00456845
21 *989:wbs_adr_i[1] *914:17 0
22 *881:7 *988:sram_dat_i[0] 0
23 *888:19 *914:21 7.48901e-06
24 *889:15 *914:21 0.000114796
25 *910:15 *914:17 0.000490292
26 *911:15 *914:17 0.0129261
27 *912:17 *914:17 0.000910701
*RES
1 *989:wbs_dat_o[0] *914:17 48.9568 
2 *914:17 *914:19 3.41 
3 *914:19 *914:21 69.9464 
4 *914:21 *988:sram_dat_i[0] 15.6488 
*END

*D_NET *915 0.0908469
*CONN
*I *988:sram_dat_i[10] I *D soc_sys
*I *989:wbs_dat_o[10] O *D CF_SRAM_1024x32_wb_wrapper
*CAP
1 *988:sram_dat_i[10] 0.00259538
2 *989:wbs_dat_o[10] 0.00090067
3 *915:21 0.00533018
4 *915:19 0.00407226
5 *915:9 0.00733271
6 *915:7 0.00689593
7 *988:sram_dat_i[10] *952:7 0
8 *915:7 *989:wbs_dat_i[10] 0
9 *915:7 *989:wbs_dat_i[11] 0
10 *915:9 *916:9 0.0193887
11 *915:9 *956:21 0
12 *915:19 *916:19 0.00191723
13 *915:19 *925:15 0.000188142
14 *915:21 *988:sram_dat_i[6] 0.000491475
15 *915:21 *949:9 4.65424e-05
16 *989:wbs_adr_i[11] *915:7 0.000144876
17 *37:29 *915:21 0.0148045
18 *39:13 *915:21 0
19 *882:7 *988:sram_dat_i[10] 0
20 *884:9 *915:21 0.0151824
21 *884:19 *915:19 0.000340066
22 *895:9 *915:21 0.000210402
23 *895:19 *915:19 0.00152799
24 *909:15 *915:19 0.0045602
25 *911:15 *915:9 0.00377004
26 *912:17 *915:19 0.000630543
27 *913:27 *915:19 0.000516644
*RES
1 *989:wbs_dat_o[10] *915:7 18.6786 
2 *915:7 *915:9 182.482 
3 *915:9 *915:19 21.279 
4 *915:19 *915:21 188.946 
5 *915:21 *988:sram_dat_i[10] 10.7483 
*END

*D_NET *916 0.0971632
*CONN
*I *988:sram_dat_i[11] I *D soc_sys
*I *989:wbs_dat_o[11] O *D CF_SRAM_1024x32_wb_wrapper
*CAP
1 *988:sram_dat_i[11] 0.00394748
2 *989:wbs_dat_o[11] 0.000880702
3 *916:21 0.00901055
4 *916:19 0.00574044
5 *916:9 0.0034431
6 *916:7 0.00364643
7 *988:sram_dat_i[11] *953:7 0
8 *916:7 *989:wbs_dat_i[11] 0
9 *916:7 *989:wbs_dat_i[12] 0
10 *916:9 *917:9 0.0203787
11 *916:9 *918:9 0.000110117
12 *916:9 *939:15 0.000343729
13 *916:9 *956:21 0
14 *916:19 *920:23 9.86094e-06
15 *916:19 *922:15 3.30259e-05
16 *916:19 *980:31 4.59657e-05
17 *916:21 *947:11 0.00146905
18 *916:21 *947:13 0.00287755
19 *916:21 *952:9 0.0155351
20 *989:wbs_adr_i[12] *916:7 0
21 *32:17 *916:21 0
22 *540:35 *916:21 0.000183872
23 *540:37 *916:21 0.00283081
24 *883:15 *988:sram_dat_i[11] 0
25 *884:19 *916:19 0.00191071
26 *888:9 *916:21 0.000327599
27 *906:9 *916:21 0
28 *911:15 *916:9 0.000435096
29 *912:17 *916:19 0.000177692
30 *913:27 *916:19 3.47641e-06
31 *914:17 *916:9 0.00251622
32 *915:9 *916:9 0.0193887
33 *915:19 *916:19 0.00191723
*RES
1 *989:wbs_dat_o[11] *916:7 18.375 
2 *916:7 *916:9 193.982 
3 *916:9 *916:19 17.4027 
4 *916:19 *916:21 199.268 
5 *916:21 *988:sram_dat_i[11] 13.9913 
*END

*D_NET *917 0.108956
*CONN
*I *988:sram_dat_i[12] I *D soc_sys
*I *989:wbs_dat_o[12] O *D CF_SRAM_1024x32_wb_wrapper
*CAP
1 *988:sram_dat_i[12] 0.0017447
2 *989:wbs_dat_o[12] 0.00087726
3 *917:21 0.0048153
4 *917:19 0.00445006
5 *917:9 0.00409402
6 *917:7 0.00359182
7 *988:sram_dat_i[12] *954:7 0
8 *917:7 *989:wbs_dat_i[12] 0
9 *917:9 *918:9 0.0210277
10 *917:9 *939:15 0.000318763
11 *917:19 *939:15 0.000492626
12 *917:19 *962:33 2.06112e-05
13 *917:19 *981:15 0.00276145
14 *917:21 *931:13 0.0171734
15 *989:wbs_adr_i[13] *917:7 0
16 *39:17 *917:19 0.000237779
17 *67:17 *917:21 0.00190362
18 *884:7 *988:sram_dat_i[12] 0
19 *899:9 *917:21 0.0171728
20 *909:15 *917:19 0.00127477
21 *911:15 *917:9 0.000378227
22 *911:15 *917:19 0.00291826
23 *912:17 *917:19 0.000610655
24 *914:17 *917:9 0.00271329
25 *916:9 *917:9 0.0203787
*RES
1 *989:wbs_dat_o[12] *917:7 18.0714 
2 *917:7 *917:9 198.089 
3 *917:9 *917:19 20.5801 
4 *917:19 *917:21 212.625 
5 *917:21 *988:sram_dat_i[12] 8.44213 
*END

*D_NET *918 0.113623
*CONN
*I *988:sram_dat_i[13] I *D soc_sys
*I *989:wbs_dat_o[13] O *D CF_SRAM_1024x32_wb_wrapper
*CAP
1 *988:sram_dat_i[13] 0.00165967
2 *989:wbs_dat_o[13] 0.000824811
3 *918:21 0.0049303
4 *918:19 0.00456756
5 *918:9 0.00432752
6 *918:7 0.0038554
7 *988:sram_dat_i[13] *955:7 0
8 *918:7 *989:wbs_dat_i[13] 0
9 *918:7 *989:wbs_dat_i[14] 0
10 *918:9 *919:9 0.0223143
11 *918:9 *939:15 0.0029591
12 *918:9 *981:15 0.000477562
13 *918:19 *942:44 0.00012254
14 *918:19 *945:19 0.000485737
15 *918:19 *949:15 4.52377e-05
16 *918:19 *950:27 0.000207624
17 *918:19 *951:23 0.00021839
18 *918:19 *953:15 0.000209278
19 *918:19 *956:19 0.000818902
20 *989:wbs_adr_i[14] *918:7 0
21 *65:21 *918:21 0.00203959
22 *883:15 *918:19 0.000123309
23 *885:7 *988:sram_dat_i[13] 0
24 *899:9 *918:21 0.0182524
25 *901:9 *918:21 0.0182511
26 *910:15 *918:19 0.00511642
27 *912:17 *918:19 0.000238636
28 *914:17 *918:19 0.000440125
29 *916:9 *918:9 0.000110117
30 *917:9 *918:9 0.0210277
*RES
1 *989:wbs_dat_o[13] *918:7 17.7679 
2 *918:7 *918:9 210.411 
3 *918:9 *918:19 22.0718 
4 *918:19 *918:21 225.982 
5 *918:21 *988:sram_dat_i[13] 8.298 
*END

*D_NET *919 0.112067
*CONN
*I *988:sram_dat_i[14] I *D soc_sys
*I *989:wbs_dat_o[14] O *D CF_SRAM_1024x32_wb_wrapper
*CAP
1 *988:sram_dat_i[14] 0.00461322
2 *989:wbs_dat_o[14] 0.000800785
3 *919:13 0.00797664
4 *919:11 0.00336341
5 *919:9 0.00308057
6 *919:7 0.00388136
7 *988:sram_dat_i[14] *956:7 0
8 *919:7 *989:wbs_dat_i[14] 0
9 *919:9 *920:9 0.0226707
10 *919:9 *921:9 0.000198768
11 *919:9 *939:15 0.00319085
12 *919:9 *981:15 0.000442876
13 *919:13 *921:15 0.00194672
14 *919:13 *921:17 0.000341171
15 *919:13 *924:21 0.00226292
16 *919:13 *953:9 2.33412e-05
17 *919:13 *953:15 0.000383888
18 *919:13 *955:9 0.0163462
19 *919:13 *958:9 0
20 *989:wbs_adr_i[15] *919:7 0
21 *886:7 *988:sram_dat_i[14] 0
22 *886:9 *919:13 0.0182287
23 *918:9 *919:9 0.0223143
*RES
1 *989:wbs_dat_o[14] *919:7 17.4643 
2 *919:7 *919:9 217.393 
3 *919:9 *919:11 4.5 
4 *919:11 *919:13 234.027 
5 *919:13 *988:sram_dat_i[14] 16.1533 
*END

*D_NET *920 0.113792
*CONN
*I *988:sram_dat_i[15] I *D soc_sys
*I *989:wbs_dat_o[15] O *D CF_SRAM_1024x32_wb_wrapper
*CAP
1 *988:sram_dat_i[15] 0.0051024
2 *989:wbs_dat_o[15] 0.000776507
3 *920:25 0.00950357
4 *920:23 0.00509971
5 *920:9 0.00374852
6 *920:7 0.00382649
7 *988:sram_dat_i[15] *957:7 0
8 *920:7 *989:wbs_dat_i[15] 0
9 *920:7 *989:wbs_dat_i[16] 0
10 *920:9 *921:9 0.0233167
11 *920:9 *981:15 0.00340197
12 *920:23 *922:15 0.000992911
13 *920:23 *922:17 0.000120014
14 *920:23 *939:23 0.000422235
15 *920:23 *950:15 6.05161e-06
16 *920:23 *980:31 1.32056e-05
17 *920:25 *922:17 0.0184839
18 *920:25 *980:9 0.011641
19 *989:wbs_adr_i[15] *920:7 0
20 *989:wbs_adr_i[16] *920:7 0
21 *887:7 *988:sram_dat_i[15] 0
22 *891:19 *920:23 0.000590162
23 *892:9 *920:23 4.26759e-05
24 *892:27 *920:23 6.66818e-05
25 *896:9 *920:25 0.00395628
26 *916:19 *920:23 9.86094e-06
27 *919:9 *920:9 0.0226707
*RES
1 *989:wbs_dat_o[15] *920:7 17.1607 
2 *920:7 *920:9 219.857 
3 *920:9 *920:23 33.9643 
4 *920:23 *920:25 226.741 
5 *920:25 *988:sram_dat_i[15] 17.0181 
*END

*D_NET *921 0.115618
*CONN
*I *988:sram_dat_i[16] I *D soc_sys
*I *989:wbs_dat_o[16] O *D CF_SRAM_1024x32_wb_wrapper
*CAP
1 *988:sram_dat_i[16] 0.00450656
2 *989:wbs_dat_o[16] 0.000742313
3 *921:17 0.00788344
4 *921:15 0.00399351
5 *921:9 0.00392007
6 *921:7 0.00404575
7 *988:sram_dat_i[16] *958:7 0
8 *921:7 *989:wbs_dat_i[16] 0
9 *921:9 *922:9 0.0239261
10 *921:9 *923:9 9.73809e-05
11 *921:9 *924:9 8.86512e-05
12 *921:9 *981:15 0.00366841
13 *921:15 *923:19 0.00181614
14 *921:17 *955:9 0.0163462
15 *989:wbs_adr_i[17] *921:7 0
16 *888:7 *988:sram_dat_i[16] 0
17 *890:9 *921:15 2.77008e-05
18 *890:9 *921:17 0.0187519
19 *919:9 *921:9 0.000198768
20 *919:13 *921:15 0.00194672
21 *919:13 *921:17 0.000341171
22 *920:9 *921:9 0.0233167
*RES
1 *989:wbs_dat_o[16] *921:7 16.8571 
2 *921:7 *921:9 230.125 
3 *921:9 *921:15 30.2054 
4 *921:15 *921:17 230.232 
5 *921:17 *988:sram_dat_i[16] 16.0091 
*END

*D_NET *922 0.122567
*CONN
*I *988:sram_dat_i[17] I *D soc_sys
*I *989:wbs_dat_o[17] O *D CF_SRAM_1024x32_wb_wrapper
*CAP
1 *988:sram_dat_i[17] 0.00496549
2 *989:wbs_dat_o[17] 0.000717998
3 *922:17 0.00879031
4 *922:15 0.00437205
5 *922:9 0.0037736
6 *922:7 0.00394436
7 *922:7 *989:wbs_dat_i[17] 0
8 *922:9 *924:9 0.0245755
9 *922:15 *980:31 0.000138062
10 *922:17 *958:9 0.0193084
11 *922:17 *980:31 0.000263755
12 *989:wbs_adr_i[17] *922:7 0
13 *989:wbs_adr_i[18] *922:7 0
14 *887:19 *922:15 0.000153659
15 *889:7 *988:sram_dat_i[17] 0
16 *892:9 *922:17 0.000199213
17 *892:27 *922:15 4.52751e-05
18 *892:27 *922:17 6.87203e-05
19 *896:9 *922:17 0.00445354
20 *907:9 *922:17 1.80451e-05
21 *909:15 *922:9 0.00322293
22 *913:27 *922:15 0
23 *916:19 *922:15 3.30259e-05
24 *920:23 *922:15 0.000992911
25 *920:23 *922:17 0.000120014
26 *920:25 *922:17 0.0184839
27 *921:9 *922:9 0.0239261
*RES
1 *989:wbs_dat_o[17] *922:7 16.5536 
2 *922:7 *922:9 231.768 
3 *922:9 *922:15 18.3661 
4 *922:15 *922:17 252.696 
5 *922:17 *988:sram_dat_i[17] 16.946 
*END

*D_NET *923 0.116999
*CONN
*I *988:sram_dat_i[18] I *D soc_sys
*I *989:wbs_dat_o[18] O *D CF_SRAM_1024x32_wb_wrapper
*CAP
1 *988:sram_dat_i[18] 0.00453434
2 *989:wbs_dat_o[18] 0.000665429
3 *923:21 0.0105836
4 *923:19 0.00676901
5 *923:9 0.00407463
6 *923:7 0.00402035
7 *988:sram_dat_i[18] *960:7 0
8 *923:7 *989:wbs_dat_i[18] 0
9 *923:9 *924:9 0.0253971
10 *923:9 *927:9 0.025725
11 *923:19 *955:19 2.72887e-05
12 *923:21 *954:9 0
13 *923:21 *959:19 0.00891569
14 *989:wbs_adr_i[18] *923:7 0
15 *989:wbs_adr_i[19] *923:7 0
16 *888:19 *923:19 3.30996e-05
17 *889:9 *923:21 0.0193986
18 *890:7 *988:sram_dat_i[18] 0
19 *890:9 *923:19 0.00138143
20 *890:9 *923:21 0.000492248
21 *909:15 *923:9 0.000694298
22 *913:27 *923:9 0.00237384
23 *914:21 *923:19 0
24 *921:9 *923:9 9.73809e-05
25 *921:15 *923:19 0.00181614
*RES
1 *989:wbs_dat_o[18] *923:7 15.9464 
2 *923:7 *923:9 242.857 
3 *923:9 *923:19 38.3571 
4 *923:19 *923:21 252.848 
5 *923:21 *988:sram_dat_i[18] 15.7929 
*END

*D_NET *924 0.126901
*CONN
*I *988:sram_dat_i[19] I *D soc_sys
*I *989:wbs_dat_o[19] O *D CF_SRAM_1024x32_wb_wrapper
*CAP
1 *988:sram_dat_i[19] 0.00462686
2 *989:wbs_dat_o[19] 0.000676236
3 *924:21 0.0163513
4 *924:19 0.0118469
5 *924:9 0.00369834
6 *924:7 0.00425213
7 *988:sram_dat_i[19] *961:7 0
8 *924:7 *989:wbs_dat_i[19] 0
9 *924:9 *927:9 0.000363512
10 *924:19 *939:23 0.000244634
11 *924:19 *958:19 0.00024774
12 *924:21 *953:9 0.00284233
13 *989:wbs_adr_i[19] *924:7 0
14 *989:wbs_adr_i[20] *924:7 0
15 *882:15 *924:19 5.00194e-05
16 *885:19 *924:19 4.65519e-05
17 *886:9 *924:21 0.00230849
18 *891:7 *988:sram_dat_i[19] 0
19 *891:9 *924:21 0.0227268
20 *896:9 *924:21 0.000261713
21 *909:15 *924:9 0.00346207
22 *913:9 *924:21 0.000570755
23 *919:13 *924:21 0.00226292
24 *921:9 *924:9 8.86512e-05
25 *922:9 *924:9 0.0245755
26 *923:9 *924:9 0.0253971
*RES
1 *989:wbs_dat_o[19] *924:7 16.25 
2 *924:7 *924:9 245.732 
3 *924:9 *924:19 14.7155 
4 *924:19 *924:21 49.9046 
5 *924:21 *988:sram_dat_i[19] 16.5496 
*END

*D_NET *925 0.0531878
*CONN
*I *988:sram_dat_i[1] I *D soc_sys
*I *989:wbs_dat_o[1] O *D CF_SRAM_1024x32_wb_wrapper
*CAP
1 *988:sram_dat_i[1] 0.00572585
2 *989:wbs_dat_o[1] 0.00325067
3 *925:17 0.00778323
4 *925:15 0.00349068
5 *925:11 0.00468396
6 *988:sram_dat_i[1] *962:7 0
7 *925:11 *989:wbs_dat_i[1] 0
8 *925:11 *989:wbs_sel_i[1] 0
9 *925:11 *942:44 0.002164
10 *925:11 *949:15 8.92921e-06
11 *925:11 *962:33 0.00769196
12 *925:15 *936:15 0
13 *925:15 *960:19 0.000198179
14 *925:15 *962:33 0
15 *925:15 *983:9 0.000803648
16 *925:17 *983:9 0.00262444
17 *989:wbs_adr_i[3] *925:15 0
18 *884:19 *925:15 0.000206645
19 *892:7 *988:sram_dat_i[1] 0
20 *903:9 *925:15 0
21 *903:9 *925:17 0
22 *910:15 *925:11 0.0137363
23 *912:17 *925:11 0.000585591
24 *914:17 *925:15 4.55356e-05
25 *915:19 *925:15 0.000188142
*RES
1 *989:wbs_dat_o[1] *925:11 43.9749 
2 *925:11 *925:15 30.5893 
3 *925:15 *925:17 53.9821 
4 *925:17 *988:sram_dat_i[1] 17.9549 
*END

*D_NET *926 0.115439
*CONN
*I *988:sram_dat_i[20] I *D soc_sys
*I *989:wbs_dat_o[20] O *D CF_SRAM_1024x32_wb_wrapper
*CAP
1 *988:sram_dat_i[20] 0.000108246
2 *989:wbs_dat_o[20] 7.83629e-05
3 *926:21 0.00824582
4 *926:19 0.0129883
5 *926:9 0.00870438
6 *926:7 0.00393204
7 *926:7 *989:wbs_dat_i[20] 0
8 *926:9 *989:wbs_dat_i[2] 0.00216755
9 *926:9 *963:21 0.0264842
10 *926:9 *964:21 0.0270247
11 *926:21 *936:21 0.00576288
12 *926:21 *946:11 0.00393152
13 *926:21 *959:11 0.0109159
14 *926:21 *979:11 0.0018251
15 *110:13 *926:19 0.00129028
16 *541:59 *926:9 6.93262e-05
17 *889:15 *926:19 0.000956155
18 *890:9 *926:19 0.000954576
19 *908:21 *926:19 0
*RES
1 *989:wbs_dat_o[20] *926:7 5.625 
2 *926:7 *926:9 256 
3 *926:9 *926:19 36.3109 
4 *926:19 *926:21 274.554 
5 *926:21 *988:sram_dat_i[20] 3.7296 
*END

*D_NET *927 0.13071
*CONN
*I *988:sram_dat_i[21] I *D soc_sys
*I *989:wbs_dat_o[21] O *D CF_SRAM_1024x32_wb_wrapper
*CAP
1 *988:sram_dat_i[21] 0.00417711
2 *989:wbs_dat_o[21] 0.000611607
3 *927:13 0.0107251
4 *927:11 0.00654803
5 *927:9 0.00406841
6 *927:7 0.00468002
7 *988:sram_dat_i[21] *964:7 0
8 *927:13 *951:9 0
9 *927:13 *954:9 0.000230743
10 *989:wbs_adr_i[21] *927:7 0
11 *989:wbs_adr_i[22] *927:7 0
12 *31:17 *927:13 0.000358023
13 *32:17 *927:13 5.28368e-06
14 *110:17 *927:13 0.0231845
15 *887:9 *927:13 0.018635
16 *894:7 *988:sram_dat_i[21] 0
17 *895:21 *927:9 0.0283344
18 *906:9 *927:13 0
19 *909:15 *927:9 0.000603551
20 *913:27 *927:9 0.00245962
21 *923:9 *927:9 0.025725
22 *924:9 *927:9 0.000363512
*RES
1 *989:wbs_dat_o[21] *927:7 15.6429 
2 *927:7 *927:9 267.5 
3 *927:9 *927:11 4.5 
4 *927:11 *927:13 308.705 
5 *927:13 *988:sram_dat_i[21] 14.9281 
*END

*D_NET *928 0.103623
*CONN
*I *988:sram_dat_i[22] I *D soc_sys
*I *989:wbs_dat_o[22] O *D CF_SRAM_1024x32_wb_wrapper
*CAP
1 *988:sram_dat_i[22] 0.002003
2 *989:wbs_dat_o[22] 0.000270736
3 *928:21 0.0137225
4 *928:19 0.0124373
5 *928:9 0.0105428
6 *928:7 0.0100957
7 *988:sram_dat_i[22] *965:5 0
8 *928:9 *989:wbs_dat_i[3] 0.000131918
9 *928:9 *960:21 0
10 *928:9 *961:21 0
11 *928:9 *963:21 0
12 *928:9 *980:31 0
13 *928:19 *981:9 0.000188717
14 *928:21 *930:13 0
15 *928:21 *956:9 0.0187302
16 *989:wbs_adr_i[22] *928:7 0
17 *989:wbs_adr_i[23] *928:7 0
18 *32:21 *928:9 0
19 *37:33 *928:19 4.47593e-05
20 *38:29 *928:19 0.000779461
21 *108:21 *928:19 0.000142747
22 *541:59 *928:9 0
23 *880:15 *928:19 0.00220887
24 *885:19 *928:19 8.55277e-05
25 *892:27 *928:9 0.00241509
26 *893:9 *928:19 0
27 *893:13 *928:9 9.30625e-05
28 *894:19 *928:19 0.00105264
29 *894:21 *928:9 0.0280895
30 *895:7 *988:sram_dat_i[22] 0
31 *896:21 *928:9 0.000588343
*RES
1 *989:wbs_dat_o[22] *928:7 8.96429 
2 *928:7 *928:9 283.929 
3 *928:9 *928:19 17.5883 
4 *928:19 *928:21 315.232 
5 *928:21 *988:sram_dat_i[22] 9.30693 
*END

*D_NET *929 0.0982734
*CONN
*I *988:sram_dat_i[23] I *D soc_sys
*I *989:wbs_dat_o[23] O *D CF_SRAM_1024x32_wb_wrapper
*CAP
1 *988:sram_dat_i[23] 0.000109793
2 *989:wbs_dat_o[23] 0.00647238
3 *929:25 0.00776108
4 *929:13 0.0250121
5 *929:11 0.0238332
6 *929:11 *989:wbs_dat_i[23] 0.0029955
7 *929:11 *989:wbs_dat_i[4] 0.00291599
8 *929:11 *989:wbs_dat_i[5] 0.00116388
9 *929:11 *936:15 0.00134046
10 *929:25 *965:5 0.0128632
11 *989:wbs_adr_i[24] *929:11 0.011942
12 *882:15 *929:11 0
13 *896:7 *929:25 0.00186375
*RES
1 *989:wbs_dat_o[23] *929:11 35.5128 
2 *929:11 *929:13 55.5509 
3 *929:13 *929:25 49.8675 
4 *929:25 *988:sram_dat_i[23] 0.3431 
*END

*D_NET *930 0.112172
*CONN
*I *988:sram_dat_i[24] I *D soc_sys
*I *989:wbs_dat_o[24] O *D CF_SRAM_1024x32_wb_wrapper
*CAP
1 *988:sram_dat_i[24] 0.00185568
2 *989:wbs_dat_o[24] 0.00141657
3 *930:13 0.0142722
4 *930:11 0.0124165
5 *930:9 0.0114366
6 *930:7 0.0128532
7 *988:sram_dat_i[24] *967:11 0
8 *930:9 *931:9 0.0363752
9 *930:13 *931:13 0.0111519
10 *930:13 *956:9 0
11 *930:13 *976:9 0.00849799
12 *36:23 *930:13 4.37237e-05
13 *67:17 *930:13 0.000129086
14 *883:15 *930:13 0.00172385
15 *897:7 *988:sram_dat_i[24] 0
16 *928:21 *930:13 0
*RES
1 *989:wbs_dat_o[24] *930:7 30.7939 
2 *930:7 *930:9 56.4752 
3 *930:9 *930:11 3.41 
4 *930:11 *930:13 357.732 
5 *930:13 *988:sram_dat_i[24] 8.65833 
*END

*D_NET *931 0.149531
*CONN
*I *988:sram_dat_i[25] I *D soc_sys
*I *989:wbs_dat_o[25] O *D CF_SRAM_1024x32_wb_wrapper
*CAP
1 *988:sram_dat_i[25] 0.00136301
2 *989:wbs_dat_o[25] 0.0013652
3 *931:13 0.00808711
4 *931:11 0.0067241
5 *931:9 0.00496752
6 *931:7 0.00633272
7 *988:sram_dat_i[25] *968:17 0.000880562
8 *931:13 *976:9 0.00849957
9 *989:wbs_adr_i[26] *931:7 0
10 *67:17 *931:13 0.000696992
11 *883:15 *931:13 0.00190362
12 *899:9 *931:13 0.00684472
13 *899:13 *931:9 0.0371655
14 *917:21 *931:13 0.0171734
15 *930:9 *931:9 0.0363752
16 *930:13 *931:13 0.0111519
*RES
1 *989:wbs_dat_o[25] *931:7 30.1868 
2 *931:7 *931:9 57.7003 
3 *931:9 *931:11 3.41 
4 *931:11 *931:13 368.054 
5 *931:13 *988:sram_dat_i[25] 8.5142 
*END

*D_NET *932 0.140562
*CONN
*I *988:sram_dat_i[26] I *D soc_sys
*I *989:wbs_dat_o[26] O *D CF_SRAM_1024x32_wb_wrapper
*CAP
1 *988:sram_dat_i[26] 0.0011275
2 *989:wbs_dat_o[26] 0.0012066
3 *932:13 0.0141061
4 *932:11 0.0129786
5 *932:9 0.00509223
6 *932:7 0.00629883
7 *988:sram_dat_i[26] *969:7 0
8 *932:7 *989:wbs_dat_i[26] 0
9 *932:7 *989:wbs_dat_i[27] 0
10 *932:9 *969:13 0.0389275
11 *932:9 *970:13 0.0391614
12 *932:13 *940:13 0.0106789
13 *932:13 *943:21 0
14 *932:13 *969:9 0.0108486
15 *882:9 *932:13 0
16 *899:7 *988:sram_dat_i[26] 0
17 *901:13 *932:9 0.000136114
*RES
1 *989:wbs_dat_o[26] *932:7 27.7582 
2 *932:7 *932:9 60.7992 
3 *932:9 *932:11 3.41 
4 *932:11 *932:13 376.554 
5 *932:13 *988:sram_dat_i[26] 6.49633 
*END

*D_NET *933 0.112194
*CONN
*I *988:sram_dat_i[27] I *D soc_sys
*I *989:wbs_dat_o[27] O *D CF_SRAM_1024x32_wb_wrapper
*CAP
1 *988:sram_dat_i[27] 0.000354555
2 *989:wbs_dat_o[27] 0.000415001
3 *933:18 0.0129376
4 *933:16 0.0125831
5 *933:14 0.0144634
6 *933:12 0.0148784
7 *933:12 *989:wbs_dat_i[28] 0.00161538
8 *933:12 *989:wbs_dat_i[29] 0.000500918
9 *933:12 *989:wbs_dat_i[30] 0.000126407
10 *933:14 *967:17 0.0147371
11 *933:18 *969:7 0.00105304
12 *989:wbs_adr_i[27] *933:12 0.0019995
13 *900:7 *933:18 0.0365295
*RES
1 *989:wbs_dat_o[27] *933:12 10.851 
2 *933:12 *933:14 62.5821 
3 *933:14 *933:16 3.41 
4 *933:16 *933:18 61.2676 
5 *933:18 *988:sram_dat_i[27] 11.6211 
*END

*D_NET *934 0.129583
*CONN
*I *988:sram_dat_i[28] I *D soc_sys
*I *989:wbs_dat_o[28] O *D CF_SRAM_1024x32_wb_wrapper
*CAP
1 *988:sram_dat_i[28] 0.000900954
2 *989:wbs_dat_o[28] 0.00114964
3 *934:13 0.0146234
4 *934:11 0.0137225
5 *934:9 0.0109133
6 *934:7 0.0120629
7 *988:sram_dat_i[28] *971:13 0
8 *934:7 *989:wbs_dat_i[29] 0
9 *934:9 *940:11 0.000112724
10 *934:9 *941:11 0.00316611
11 *934:9 *943:19 0.00642836
12 *934:9 *947:33 0.00339469
13 *934:9 *950:27 0.000583098
14 *934:9 *970:13 0.0389458
15 *934:13 *970:9 0.00971762
16 *934:13 *982:9 0.0137617
17 *989:wbs_adr_i[28] *934:7 0
18 *901:7 *988:sram_dat_i[28] 0
19 *901:13 *934:9 0.00010008
*RES
1 *989:wbs_dat_o[28] *934:7 26.5439 
2 *934:7 *934:9 63.3936 
3 *934:9 *934:11 3.41 
4 *934:11 *934:13 397.196 
5 *934:13 *988:sram_dat_i[28] 6.06393 
*END

*D_NET *935 0.0987462
*CONN
*I *988:sram_dat_i[29] I *D soc_sys
*I *989:wbs_dat_o[29] O *D CF_SRAM_1024x32_wb_wrapper
*CAP
1 *988:sram_dat_i[29] 0.0197272
2 *989:wbs_dat_o[29] 0.000536423
3 *935:15 0.0197272
4 *935:13 0.0127163
5 *935:11 0.0132527
6 *988:sram_dat_i[29] *971:17 0.00821127
7 *988:sram_dat_i[29] *972:5 0
8 *935:11 *989:wbs_dat_i[29] 0
9 *935:11 *989:wbs_dat_i[30] 0
10 *989:wbs_adr_i[29] *935:11 0.00368536
11 *989:wbs_adr_i[30] *935:11 0.00335705
12 *902:5 *988:sram_dat_i[29] 0
13 *902:9 *935:13 0.0175327
14 *904:9 *935:13 0
*RES
1 *989:wbs_dat_o[29] *935:11 13.302 
2 *935:11 *935:13 385.661 
3 *935:13 *935:15 3.41 
4 *935:15 *988:sram_dat_i[29] 72.8469 
*END

*D_NET *936 0.0796854
*CONN
*I *988:sram_dat_i[2] I *D soc_sys
*I *989:wbs_dat_o[2] O *D CF_SRAM_1024x32_wb_wrapper
*CAP
1 *988:sram_dat_i[2] 0.000188425
2 *989:wbs_dat_o[2] 0.00318293
3 *936:21 0.00116574
4 *936:19 0.00315672
5 *936:15 0.00536233
6 *936:15 *989:wbs_dat_i[2] 0.000172217
7 *936:15 *989:wbs_dat_i[4] 0.00116333
8 *936:15 *989:wbs_dat_i[5] 0.0145881
9 *936:15 *989:wbs_sel_i[2] 0
10 *936:15 *957:21 0.00343891
11 *936:15 *959:29 0.01101
12 *936:15 *960:19 0
13 *936:15 *960:21 0.00234393
14 *936:15 *962:9 7.49162e-06
15 *936:15 *962:33 0.000288038
16 *936:19 *989:wbs_dat_i[6] 0.00891812
17 *936:19 *989:wbs_sel_i[0] 1.8115e-05
18 *936:19 *978:21 0.00882527
19 *936:21 *946:11 0.000239144
20 *936:21 *979:11 0.00620053
21 *35:21 *936:19 3.20942e-05
22 *541:59 *936:15 0.00219582
23 *903:9 *936:15 5.75951e-05
24 *908:21 *936:19 2.72228e-05
25 *925:15 *936:15 0
26 *926:21 *936:21 0.00576288
27 *929:11 *936:15 0.00134046
*RES
1 *989:wbs_dat_o[2] *936:15 43.8473 
2 *936:15 *936:19 17.8703 
3 *936:19 *936:21 76.0179 
4 *936:21 *988:sram_dat_i[2] 3.7296 
*END

*D_NET *937 0.128224
*CONN
*I *988:sram_dat_i[30] I *D soc_sys
*I *989:wbs_dat_o[30] O *D CF_SRAM_1024x32_wb_wrapper
*CAP
1 *988:sram_dat_i[30] 0.0233353
2 *989:wbs_dat_o[30] 0.000338663
3 *937:12 0.0233353
4 *937:10 0.00497706
5 *937:8 0.00531572
6 *988:sram_dat_i[30] *974:5 0
7 *988:sram_dat_i[30] *975:15 0.00130617
8 *989:wbs_adr_i[30] *937:8 0.00284463
9 *989:wbs_adr_i[31] *937:8 0.00256322
10 *904:5 *988:sram_dat_i[30] 0
11 *904:9 *937:10 0.0319828
12 *905:9 *937:10 0.0322252
*RES
1 *989:wbs_dat_o[30] *937:8 11.191 
2 *937:8 *937:10 395.375 
3 *937:10 *937:12 3.41 
4 *937:12 *988:sram_dat_i[30] 72.4865 
*END

*D_NET *938 0.0901669
*CONN
*I *988:sram_dat_i[31] I *D soc_sys
*I *989:wbs_dat_o[31] O *D CF_SRAM_1024x32_wb_wrapper
*CAP
1 *988:sram_dat_i[31] 0.0229828
2 *989:wbs_dat_o[31] 3.65453e-05
3 *938:12 0.0229828
4 *938:10 0.0220136
5 *938:8 0.0220502
6 *988:sram_dat_i[31] *975:5 0
7 *938:10 *975:17 0
8 *989:wbs_adr_i[31] *938:8 0.000100938
9 *905:5 *988:sram_dat_i[31] 0
*RES
1 *989:wbs_dat_o[31] *938:8 6.9751 
2 *938:8 *938:10 71.1047 
3 *938:10 *938:12 3.41 
4 *938:12 *988:sram_dat_i[31] 69.3516 
*END

*D_NET *939 0.0813831
*CONN
*I *988:sram_dat_i[3] I *D soc_sys
*I *989:wbs_dat_o[3] O *D CF_SRAM_1024x32_wb_wrapper
*CAP
1 *988:sram_dat_i[3] 0.00543644
2 *989:wbs_dat_o[3] 0.00352214
3 *939:25 0.00693201
4 *939:23 0.00240656
5 *939:15 0.00443314
6 *988:sram_dat_i[3] *976:7 0
7 *939:15 *989:wbs_dat_i[3] 0
8 *939:15 *989:wbs_sel_i[3] 0
9 *939:15 *981:15 0.0158031
10 *939:23 *950:15 0.000110919
11 *939:23 *958:19 0.000114627
12 *939:23 *980:31 0
13 *939:25 *962:9 0.00527626
14 *989:wbs_adr_i[3] *939:15 0
15 *891:19 *939:23 0.000593747
16 *892:9 *939:23 1.69153e-05
17 *896:9 *939:25 0.00146635
18 *903:9 *939:25 0.000323826
19 *906:7 *988:sram_dat_i[3] 0
20 *907:9 *939:25 0.00734718
21 *911:15 *939:15 0.00218949
22 *912:17 *939:15 0.00339621
23 *913:9 *939:23 0.00111908
24 *914:17 *939:15 0.0129232
25 *916:9 *939:15 0.000343729
26 *917:9 *939:15 0.000318763
27 *917:19 *939:15 0.000492626
28 *918:9 *939:15 0.0029591
29 *919:9 *939:15 0.00319085
30 *920:23 *939:23 0.000422235
31 *924:19 *939:23 0.000244634
*RES
1 *989:wbs_dat_o[3] *939:15 45.8546 
2 *939:15 *939:23 33.6339 
3 *939:23 *939:25 90.1339 
4 *939:25 *988:sram_dat_i[3] 17.2343 
*END

*D_NET *940 0.0794513
*CONN
*I *988:sram_dat_i[4] I *D soc_sys
*I *989:wbs_dat_o[4] O *D CF_SRAM_1024x32_wb_wrapper
*CAP
1 *988:sram_dat_i[4] 0.00110543
2 *989:wbs_dat_o[4] 0.00136896
3 *940:13 0.00307213
4 *940:11 0.00712332
5 *940:7 0.00652558
6 *988:sram_dat_i[4] *977:7 0
7 *940:7 *989:wbs_dat_i[4] 0
8 *940:7 *989:wbs_dat_i[5] 0
9 *940:11 *941:11 0.0213795
10 *940:11 *942:44 0
11 *940:11 *943:19 0.000476012
12 *940:11 *944:19 0.00304724
13 *940:11 *947:33 0.00156633
14 *940:11 *948:15 0.000281594
15 *940:11 *949:15 0.000315957
16 *940:11 *951:23 0.0115768
17 *940:11 *956:19 0.000140263
18 *940:13 *969:9 0.0106805
19 *989:wbs_adr_i[4] *940:7 0
20 *989:wbs_adr_i[5] *940:7 0
21 *907:7 *988:sram_dat_i[4] 0
22 *932:13 *940:13 0.0106789
23 *934:9 *940:11 0.000112724
*RES
1 *989:wbs_dat_o[4] *940:7 24.1154 
2 *940:7 *940:11 40.4993 
3 *940:11 *940:13 132.482 
4 *940:13 *988:sram_dat_i[4] 6.42427 
*END

*D_NET *941 0.0770727
*CONN
*I *988:sram_dat_i[5] I *D soc_sys
*I *989:wbs_dat_o[5] O *D CF_SRAM_1024x32_wb_wrapper
*CAP
1 *988:sram_dat_i[5] 0.00177781
2 *989:wbs_dat_o[5] 0.00134746
3 *941:13 0.00587997
4 *941:11 0.00874691
5 *941:7 0.00599221
6 *988:sram_dat_i[5] *959:17 0.00195426
7 *941:7 *989:wbs_dat_i[5] 0
8 *941:11 *988:sram_dat_i[6] 0.00336908
9 *941:11 *942:44 0
10 *941:11 *943:19 0.000497965
11 *941:11 *947:33 0.00636441
12 *941:11 *950:27 0.00178094
13 *941:13 *956:9 0.000226947
14 *989:wbs_adr_i[6] *941:7 0
15 *40:53 *941:13 0.000296154
16 *880:19 *941:13 0.00341805
17 *909:9 *941:13 0.0108749
18 *934:9 *941:11 0.00316611
19 *940:11 *941:11 0.0213795
*RES
1 *989:wbs_dat_o[5] *941:7 24.7225 
2 *941:7 *941:11 38.4814 
3 *941:11 *941:13 144.018 
4 *941:13 *988:sram_dat_i[5] 9.52313 
*END

*D_NET *942 0.10462
*CONN
*I *988:sram_dat_i[6] I *D soc_sys
*I *989:wbs_dat_o[6] O *D CF_SRAM_1024x32_wb_wrapper
*CAP
1 *988:sram_dat_i[6] 0.0148231
2 *989:wbs_dat_o[6] 0.0100782
3 *942:44 0.0249013
4 *988:sram_dat_i[6] *943:19 0.00337568
5 *988:sram_dat_i[6] *949:9 0.000341717
6 *942:44 *989:wbs_dat_i[9] 4.98422e-05
7 *942:44 *989:wbs_stb_i 0.00150388
8 *942:44 *943:9 0.000854325
9 *942:44 *944:9 0.000921235
10 *942:44 *948:15 0.00412106
11 *942:44 *949:15 0.00116579
12 *942:44 *951:23 0.0044987
13 *942:44 *955:21 0.000826372
14 *942:44 *956:21 0.000766352
15 *942:44 *958:21 0.000766352
16 *942:44 *962:33 0.00199286
17 *989:wbs_adr_i[24] *942:44 9.97767e-06
18 *36:13 *988:sram_dat_i[6] 0.00159116
19 *37:29 *988:sram_dat_i[6] 0.000491475
20 *38:25 *988:sram_dat_i[6] 0.00147083
21 *39:13 *988:sram_dat_i[6] 0.00263
22 *40:53 *988:sram_dat_i[6] 0.00431196
23 *884:9 *988:sram_dat_i[6] 0.000491475
24 *895:9 *988:sram_dat_i[6] 0.00126427
25 *909:7 *988:sram_dat_i[6] 0
26 *910:15 *942:44 0.00398538
27 *911:15 *942:44 0.00215316
28 *912:17 *988:sram_dat_i[6] 0
29 *912:17 *942:44 0.00768585
30 *914:17 *942:44 0.00140075
31 *915:21 *988:sram_dat_i[6] 0.000491475
32 *918:19 *942:44 0.00012254
33 *925:11 *942:44 0.002164
34 *940:11 *942:44 0
35 *941:11 *988:sram_dat_i[6] 0.00336908
36 *941:11 *942:44 0
*RES
1 *989:wbs_dat_o[6] *942:44 46.1339 
2 *942:44 *988:sram_dat_i[6] 46.4614 
*END

*D_NET *943 0.0926237
*CONN
*I *988:sram_dat_i[7] I *D soc_sys
*I *989:wbs_dat_o[7] O *D CF_SRAM_1024x32_wb_wrapper
*CAP
1 *988:sram_dat_i[7] 0.00133207
2 *989:wbs_dat_o[7] 0.00123182
3 *943:21 0.00422626
4 *943:19 0.00431025
5 *943:9 0.00362829
6 *943:7 0.00344406
7 *988:sram_dat_i[7] *980:7 0
8 *943:7 *989:wbs_dat_i[7] 0
9 *943:9 *944:9 0.0176729
10 *943:9 *947:33 0.00152664
11 *943:9 *948:15 0.00046413
12 *943:9 *980:33 0.0174611
13 *943:19 *950:27 0.00067038
14 *943:19 *980:31 1.38247e-05
15 *988:sram_dat_i[6] *943:19 0.00337568
16 *989:wbs_adr_i[8] *943:7 0
17 *882:9 *943:21 0.0124145
18 *910:7 *988:sram_dat_i[7] 0
19 *910:9 *943:21 0.0125952
20 *932:13 *943:21 0
21 *934:9 *943:19 0.00642836
22 *940:11 *943:19 0.000476012
23 *941:11 *943:19 0.000497965
24 *942:44 *943:9 0.000854325
*RES
1 *989:wbs_dat_o[7] *943:7 23.8393 
2 *943:7 *943:9 167.286 
3 *943:9 *943:19 24.8409 
4 *943:19 *943:21 167.089 
5 *943:21 *988:sram_dat_i[7] 7.217 
*END

*D_NET *944 0.0922396
*CONN
*I *988:sram_dat_i[8] I *D soc_sys
*I *989:wbs_dat_o[8] O *D CF_SRAM_1024x32_wb_wrapper
*CAP
1 *988:sram_dat_i[8] 0.00309151
2 *989:wbs_dat_o[8] 0.0011941
3 *944:21 0.00694502
4 *944:19 0.00462053
5 *944:9 0.0033042
6 *944:7 0.00373129
7 *988:sram_dat_i[8] *981:7 0
8 *944:7 *989:wbs_dat_i[8] 0
9 *944:9 *945:9 0.01889
10 *944:9 *947:33 0.00188654
11 *944:9 *948:15 0.000432079
12 *944:9 *980:33 4.37451e-05
13 *944:19 *947:33 0.00146583
14 *944:19 *949:15 0.000516661
15 *944:19 *950:27 9.07058e-05
16 *944:21 *949:9 0
17 *944:21 *963:9 0.0127997
18 *944:21 *977:9 0.00963579
19 *989:wbs_adr_i[8] *944:7 0
20 *894:9 *944:21 0.000149753
21 *911:7 *988:sram_dat_i[8] 0
22 *912:17 *944:7 0.000111243
23 *912:17 *944:21 0.00168962
24 *940:11 *944:19 0.00304724
25 *942:44 *944:9 0.000921235
26 *943:9 *944:9 0.0176729
*RES
1 *989:wbs_dat_o[8] *944:7 23.5357 
2 *944:7 *944:9 178.786 
3 *944:9 *944:19 17.383 
4 *944:19 *944:21 175.589 
5 *944:21 *988:sram_dat_i[8] 11.6131 
*END

*D_NET *945 0.0935061
*CONN
*I *988:sram_dat_i[9] I *D soc_sys
*I *989:wbs_dat_o[9] O *D CF_SRAM_1024x32_wb_wrapper
*CAP
1 *988:sram_dat_i[9] 0.0034653
2 *989:wbs_dat_o[9] 0.00119105
3 *945:21 0.00651128
4 *945:19 0.0033569
5 *945:9 0.00329405
6 *945:7 0.00417419
7 *988:sram_dat_i[9] *982:7 0
8 *945:7 *989:wbs_dat_i[10] 0
9 *945:9 *948:15 0.00329835
10 *945:9 *949:15 0.000121926
11 *945:9 *952:13 0.000659605
12 *945:9 *953:17 0.0196662
13 *945:19 *947:13 0.000138588
14 *945:19 *949:15 0.000359571
15 *945:19 *951:9 0
16 *945:19 *956:19 0.000168408
17 *945:21 *956:19 6.27272e-06
18 *945:21 *961:9 0.0134158
19 *945:21 *964:9 0.0136507
20 *945:21 *981:9 0.000543732
21 *989:wbs_adr_i[10] *945:7 0
22 *108:25 *945:21 0
23 *912:17 *988:sram_dat_i[9] 0
24 *912:17 *945:19 0.000108464
25 *918:19 *945:19 0.000485737
26 *944:9 *945:9 0.01889
*RES
1 *989:wbs_dat_o[9] *945:7 23.2321 
2 *945:7 *945:9 197.679 
3 *945:9 *945:19 14.4588 
4 *945:19 *945:21 183.482 
5 *945:21 *988:sram_dat_i[9] 12.9103 
*END

*D_NET *946 0.0405409
*CONN
*I *989:wbs_sel_i[0] I *D CF_SRAM_1024x32_wb_wrapper
*I *988:sram_sel_o[0] O *D soc_sys
*CAP
1 *989:wbs_sel_i[0] 0.00799179
2 *988:sram_sel_o[0] 0.000288574
3 *946:11 0.0097448
4 *946:9 0.00204158
5 *989:wbs_sel_i[0] *989:wbs_dat_i[6] 0.0106635
6 *989:wbs_sel_i[0] *989:wbs_dat_i[9] 0.00291698
7 *989:wbs_sel_i[0] *957:21 0.00146727
8 *989:wbs_sel_i[0] *961:19 0.000746078
9 *946:11 *979:11 2.00751e-05
10 *35:21 *989:wbs_sel_i[0] 0
11 *540:35 *989:wbs_sel_i[0] 1.09611e-05
12 *541:57 *989:wbs_sel_i[0] 0.000449476
13 *891:19 *989:wbs_sel_i[0] 1.09611e-05
14 *926:21 *946:11 0.00393152
15 *936:19 *989:wbs_sel_i[0] 1.8115e-05
16 *936:21 *946:11 0.000239144
*RES
1 *988:sram_sel_o[0] *946:9 3.83613 
2 *946:9 *946:11 55.375 
3 *946:11 *989:wbs_sel_i[0] 42.3771 
*END

*D_NET *947 0.0622261
*CONN
*I *989:wbs_sel_i[1] I *D CF_SRAM_1024x32_wb_wrapper
*I *988:sram_sel_o[1] O *D soc_sys
*CAP
1 *989:wbs_sel_i[1] 0.00135375
2 *988:sram_sel_o[1] 0.00489166
3 *947:33 0.00482748
4 *947:13 0.00636338
5 *947:11 0.00778132
6 *989:wbs_sel_i[1] *989:wbs_dat_i[1] 0
7 *947:11 *962:7 0
8 *947:13 *951:9 0
9 *947:13 *952:9 0.000176154
10 *947:33 *948:15 0.00905551
11 *947:33 *949:15 0.000327755
12 *947:33 *951:23 0.00526816
13 *947:33 *980:33 0.000414624
14 *989:wbs_adr_i[2] *989:wbs_sel_i[1] 0
15 *540:35 *947:13 0.00018181
16 *540:37 *947:11 0.000121549
17 *540:37 *947:13 0.000618845
18 *541:57 *947:13 4.06279e-05
19 *894:19 *947:13 0.000113831
20 *903:7 *947:11 0
21 *906:9 *947:11 0
22 *916:21 *947:11 0.00146905
23 *916:21 *947:13 0.00287755
24 *925:11 *989:wbs_sel_i[1] 0
25 *934:9 *947:33 0.00339469
26 *940:11 *947:33 0.00156633
27 *941:11 *947:33 0.00636441
28 *943:9 *947:33 0.00152664
29 *944:9 *947:33 0.00188654
30 *944:19 *947:33 0.00146583
31 *945:19 *947:13 0.000138588
*RES
1 *988:sram_sel_o[1] *947:11 32.7419 
2 *947:11 *947:13 76.8214 
3 *947:13 *947:33 47.6656 
4 *947:33 *989:wbs_sel_i[1] 22.9011 
*END

*D_NET *948 0.0730589
*CONN
*I *989:wbs_sel_i[2] I *D CF_SRAM_1024x32_wb_wrapper
*I *988:sram_sel_o[2] O *D soc_sys
*CAP
1 *989:wbs_sel_i[2] 0.00127868
2 *988:sram_sel_o[2] 0.00479736
3 *948:15 0.00430817
4 *948:9 0.00695451
5 *948:7 0.00872238
6 *948:7 *973:7 0
7 *948:9 *954:9 0.00853463
8 *948:9 *955:19 0
9 *948:9 *959:19 0
10 *948:9 *964:19 0
11 *948:15 *949:15 0.0162506
12 *948:15 *951:23 0.00116572
13 *948:15 *953:17 0.0033941
14 *989:wbs_adr_i[3] *989:wbs_sel_i[2] 0
15 *906:7 *948:7 0
16 *914:21 *948:9 0
17 *936:15 *989:wbs_sel_i[2] 0
18 *940:11 *948:15 0.000281594
19 *942:44 *948:15 0.00412106
20 *943:9 *948:15 0.00046413
21 *944:9 *948:15 0.000432079
22 *945:9 *948:15 0.00329835
23 *947:33 *948:15 0.00905551
*RES
1 *988:sram_sel_o[2] *948:7 15.1443 
2 *948:7 *948:9 108.804 
3 *948:9 *948:15 32.6669 
4 *948:15 *989:wbs_sel_i[2] 18.8839 
*END

*D_NET *949 0.0763722
*CONN
*I *989:wbs_sel_i[3] I *D CF_SRAM_1024x32_wb_wrapper
*I *988:sram_sel_o[3] O *D soc_sys
*CAP
1 *989:wbs_sel_i[3] 0.00120323
2 *988:sram_sel_o[3] 0.00287536
3 *949:15 0.00522824
4 *949:9 0.00824563
5 *949:7 0.00709598
6 *949:7 *976:7 0
7 *949:15 *989:wbs_stb_i 0.010796
8 *949:15 *951:23 0.00280149
9 *949:15 *952:13 0.00345854
10 *949:15 *954:13 0.00358716
11 *949:15 *956:19 0.00142505
12 *949:15 *962:33 0.000883822
13 *988:sram_dat_i[6] *949:9 0.000341717
14 *989:wbs_adr_i[4] *989:wbs_sel_i[3] 0
15 *884:9 *949:9 0.00927099
16 *894:9 *949:9 0
17 *907:7 *949:7 0
18 *915:21 *949:9 4.65424e-05
19 *918:19 *949:15 4.52377e-05
20 *925:11 *949:15 8.92921e-06
21 *939:15 *989:wbs_sel_i[3] 0
22 *940:11 *949:15 0.000315957
23 *942:44 *949:15 0.00116579
24 *944:19 *949:15 0.000516661
25 *944:21 *949:9 0
26 *945:9 *949:15 0.000121926
27 *945:19 *949:15 0.000359571
28 *947:33 *949:15 0.000327755
29 *948:15 *949:15 0.0162506
*RES
1 *988:sram_sel_o[3] *949:7 10.8924 
2 *949:7 *949:9 122.768 
3 *949:9 *949:15 38.3601 
4 *949:15 *989:wbs_sel_i[3] 18.2768 
*END

*D_NET *950 0.0604785
*CONN
*I *989:wbs_stb_i I *D CF_SRAM_1024x32_wb_wrapper
*I *988:sram_stb_o O *D soc_sys
*CAP
1 *989:wbs_stb_i 0.00284948
2 *988:sram_stb_o 0.0052782
3 *950:27 0.0045809
4 *950:15 0.00251442
5 *950:7 0.0060612
6 *989:wbs_stb_i *989:wbs_we_i 0
7 *989:wbs_stb_i *955:21 0.00223188
8 *989:wbs_stb_i *958:21 0.00240668
9 *989:wbs_stb_i *962:33 0.0110311
10 *950:7 *983:7 0
11 *950:15 *953:9 0
12 *950:27 *951:23 7.4283e-05
13 *950:27 *953:9 0.00106344
14 *950:27 *953:15 0.000268132
15 *950:27 *958:19 0.000814351
16 *950:27 *963:19 9.10302e-05
17 *989:wbs_adr_i[0] *989:wbs_stb_i 0
18 *989:wbs_cyc_i *989:wbs_stb_i 0
19 *891:9 *950:15 0.000640964
20 *892:9 *950:15 0.00298334
21 *912:17 *989:wbs_stb_i 0.000391404
22 *913:7 *950:7 0
23 *913:9 *950:15 0.00144821
24 *918:19 *950:27 0.000207624
25 *920:23 *950:15 6.05161e-06
26 *934:9 *950:27 0.000583098
27 *939:23 *950:15 0.000110919
28 *941:11 *950:27 0.00178094
29 *942:44 *989:wbs_stb_i 0.00150388
30 *943:19 *950:27 0.00067038
31 *944:19 *950:27 9.07058e-05
32 *949:15 *989:wbs_stb_i 0.010796
*RES
1 *988:sram_stb_o *950:7 16.7298 
2 *950:7 *950:15 47.8839 
3 *950:15 *950:27 45.3644 
4 *950:27 *989:wbs_stb_i 38.2064 
*END

*D_NET *951 0.0614808
*CONN
*I *989:wbs_dat_i[0] I *D CF_SRAM_1024x32_wb_wrapper
*I *988:sram_dat_o[0] O *D soc_sys
*CAP
1 *989:wbs_dat_i[0] 0.0014089
2 *988:sram_dat_o[0] 0.00428637
3 *951:23 0.00431486
4 *951:9 0.00571042
5 *951:7 0.00709084
6 *951:9 *954:9 0
7 *951:9 *957:21 0.000618845
8 *951:23 *955:21 0.000233966
9 *951:23 *958:21 0.00025229
10 *951:23 *962:33 0.00111692
11 *951:23 *980:33 0.00506069
12 *988:sram_dat_i[0] *951:7 0
13 *989:wbs_adr_i[0] *989:wbs_dat_i[0] 0
14 *894:19 *951:9 0
15 *906:9 *951:9 0.00518151
16 *914:17 *989:wbs_dat_i[0] 0
17 *914:17 *951:23 0.000601673
18 *918:19 *951:23 0.00021839
19 *927:13 *951:9 0
20 *940:11 *951:23 0.0115768
21 *942:44 *951:23 0.0044987
22 *945:19 *951:9 0
23 *947:13 *951:9 0
24 *947:33 *951:23 0.00526816
25 *948:15 *951:23 0.00116572
26 *949:15 *951:23 0.00280149
27 *950:27 *951:23 7.4283e-05
*RES
1 *988:sram_dat_o[0] *951:7 14.5678 
2 *951:7 *951:9 74.8036 
3 *951:9 *951:23 39.0606 
4 *951:23 *989:wbs_dat_i[0] 20.0982 
*END

*D_NET *952 0.100367
*CONN
*I *989:wbs_dat_i[10] I *D CF_SRAM_1024x32_wb_wrapper
*I *988:sram_dat_o[10] O *D soc_sys
*CAP
1 *989:wbs_dat_i[10] 0.0011355
2 *988:sram_dat_o[10] 0.00377281
3 *952:13 0.00395128
4 *952:11 0.00281577
5 *952:9 0.00315105
6 *952:7 0.00692385
7 *952:13 *953:17 0.0200978
8 *952:13 *954:13 0.0207852
9 *952:13 *956:21 0.000176335
10 *988:sram_dat_i[10] *952:7 0
11 *989:wbs_adr_i[10] *989:wbs_dat_i[10] 0
12 *989:wbs_adr_i[11] *989:wbs_dat_i[10] 0.000123765
13 *540:37 *952:9 0.00249105
14 *883:15 *952:7 0
15 *888:9 *952:9 0.0151132
16 *915:7 *989:wbs_dat_i[10] 0
17 *916:21 *952:9 0.0155351
18 *945:7 *989:wbs_dat_i[10] 0
19 *945:9 *952:13 0.000659605
20 *947:13 *952:9 0.000176154
21 *949:15 *952:13 0.00345854
*RES
1 *988:sram_dat_o[10] *952:7 13.9192 
2 *952:7 *952:9 199.116 
3 *952:9 *952:11 4.5 
4 *952:11 *952:13 203.429 
5 *952:13 *989:wbs_dat_i[10] 22.625 
*END

*D_NET *953 0.0951871
*CONN
*I *989:wbs_dat_i[11] I *D CF_SRAM_1024x32_wb_wrapper
*I *988:sram_dat_o[11] O *D soc_sys
*CAP
1 *989:wbs_dat_i[11] 0.00113778
2 *988:sram_dat_o[11] 0.00486175
3 *953:17 0.00391963
4 *953:15 0.00325126
5 *953:9 0.0065298
6 *953:7 0.0109221
7 *953:9 *958:9 0
8 *953:9 *958:19 0.000118188
9 *953:15 *955:19 0
10 *953:17 *954:13 0.000355166
11 *988:sram_dat_i[11] *953:7 0
12 *884:7 *953:7 0
13 *886:9 *953:9 0.0161428
14 *892:9 *953:9 0
15 *913:9 *953:9 0
16 *914:21 *953:15 0
17 *915:7 *989:wbs_dat_i[11] 0
18 *916:7 *989:wbs_dat_i[11] 0
19 *918:19 *953:15 0.000209278
20 *919:13 *953:9 2.33412e-05
21 *919:13 *953:15 0.000383888
22 *924:21 *953:9 0.00284233
23 *945:9 *953:17 0.0196662
24 *948:15 *953:17 0.0033941
25 *950:15 *953:9 0
26 *950:27 *953:9 0.00106344
27 *950:27 *953:15 0.000268132
28 *952:13 *953:17 0.0200978
*RES
1 *988:sram_dat_o[11] *953:7 16.2974 
2 *953:7 *953:9 199.875 
3 *953:9 *953:15 15.6339 
4 *953:15 *953:17 196.446 
5 *953:17 *989:wbs_dat_i[11] 22.9286 
*END

*D_NET *954 0.100234
*CONN
*I *989:wbs_dat_i[12] I *D CF_SRAM_1024x32_wb_wrapper
*I *988:sram_dat_o[12] O *D soc_sys
*CAP
1 *989:wbs_dat_i[12] 0.00110981
2 *988:sram_dat_o[12] 0.00423216
3 *954:13 0.00399091
4 *954:11 0.00288111
5 *954:9 0.00583088
6 *954:7 0.010063
7 *954:9 *959:19 0
8 *954:13 *955:21 0.0219241
9 *954:13 *956:21 0.000110294
10 *988:sram_dat_i[12] *954:7 0
11 *989:wbs_adr_i[12] *989:wbs_dat_i[12] 0
12 *885:7 *954:7 0
13 *887:9 *954:9 0.0165985
14 *916:7 *989:wbs_dat_i[12] 0
15 *917:7 *989:wbs_dat_i[12] 0
16 *923:21 *954:9 0
17 *927:13 *954:9 0.000230743
18 *948:9 *954:9 0.00853463
19 *949:15 *954:13 0.00358716
20 *951:9 *954:9 0
21 *952:13 *954:13 0.0207852
22 *953:17 *954:13 0.000355166
*RES
1 *988:sram_dat_o[12] *954:7 15.0723 
2 *954:7 *954:9 220.67 
3 *954:9 *954:11 4.5 
4 *954:11 *954:13 209.179 
5 *954:13 *989:wbs_dat_i[12] 22.3214 
*END

*D_NET *955 0.107942
*CONN
*I *989:wbs_dat_i[13] I *D CF_SRAM_1024x32_wb_wrapper
*I *988:sram_dat_o[13] O *D soc_sys
*CAP
1 *989:wbs_dat_i[13] 0.00106294
2 *988:sram_dat_o[13] 0.00459597
3 *955:21 0.00392038
4 *955:19 0.00431947
5 *955:9 0.00402606
6 *955:7 0.00716
7 *955:19 *964:19 9.0043e-05
8 *955:21 *956:21 0.000304048
9 *955:21 *958:21 0.0220151
10 *955:21 *962:33 0.000201479
11 *988:sram_dat_i[13] *955:7 0
12 *989:wbs_adr_i[13] *989:wbs_dat_i[13] 0
13 *989:wbs_stb_i *955:21 0.00223188
14 *886:7 *955:7 0
15 *914:21 *955:19 0.00231003
16 *918:7 *989:wbs_dat_i[13] 0
17 *919:13 *955:9 0.0163462
18 *921:17 *955:9 0.0163462
19 *923:19 *955:19 2.72887e-05
20 *942:44 *955:21 0.000826372
21 *948:9 *955:19 0
22 *951:23 *955:21 0.000233966
23 *953:15 *955:19 0
24 *954:13 *955:21 0.0219241
*RES
1 *988:sram_dat_o[13] *955:7 16.0812 
2 *955:7 *955:9 200.634 
3 *955:9 *955:19 47.2857 
4 *955:19 *955:21 212.464 
5 *955:21 *989:wbs_dat_i[13] 22.0179 
*END

*D_NET *956 0.0938601
*CONN
*I *989:wbs_dat_i[14] I *D CF_SRAM_1024x32_wb_wrapper
*I *988:sram_dat_o[14] O *D soc_sys
*CAP
1 *989:wbs_dat_i[14] 0.00100198
2 *988:sram_dat_o[14] 0.00203543
3 *956:21 0.00889524
4 *956:19 0.00860483
5 *956:9 0.00614315
6 *956:7 0.00746701
7 *956:21 *958:21 0.0226694
8 *956:21 *962:33 0.00270141
9 *988:sram_dat_i[14] *956:7 0
10 *989:wbs_adr_i[14] *989:wbs_dat_i[14] 0
11 *887:7 *956:7 0
12 *909:9 *956:9 0.0114687
13 *915:9 *956:21 0
14 *916:9 *956:21 0
15 *918:7 *989:wbs_dat_i[14] 0
16 *918:19 *956:19 0.000818902
17 *919:7 *989:wbs_dat_i[14] 0
18 *928:21 *956:9 0.0187302
19 *930:13 *956:9 0
20 *940:11 *956:19 0.000140263
21 *941:13 *956:9 0.000226947
22 *942:44 *956:21 0.000766352
23 *945:19 *956:19 0.000168408
24 *945:21 *956:19 6.27272e-06
25 *949:15 *956:19 0.00142505
26 *952:13 *956:21 0.000176335
27 *954:13 *956:21 0.000110294
28 *955:21 *956:21 0.000304048
*RES
1 *988:sram_dat_o[14] *956:7 9.379 
2 *956:7 *956:9 242.375 
3 *956:9 *956:19 15.9984 
4 *956:19 *956:21 232.589 
5 *956:21 *989:wbs_dat_i[14] 21.4107 
*END

*D_NET *957 0.101011
*CONN
*I *989:wbs_dat_i[15] I *D CF_SRAM_1024x32_wb_wrapper
*I *988:sram_dat_o[15] O *D soc_sys
*CAP
1 *989:wbs_dat_i[15] 0.000434602
2 *988:sram_dat_o[15] 0.00414442
3 *957:21 0.0306253
4 *957:7 0.0343351
5 *989:wbs_dat_i[15] *989:wbs_dat_i[25] 0.000545411
6 *957:21 *989:wbs_dat_i[2] 0.00360544
7 *957:21 *989:wbs_dat_i[5] 0.00368816
8 *957:21 *989:wbs_dat_i[6] 0.000399677
9 *957:21 *989:wbs_dat_i[9] 0.00452888
10 *957:21 *960:19 0.000292178
11 *957:21 *961:19 0.000112176
12 *957:21 *963:19 0.000155597
13 *988:sram_dat_i[15] *957:7 0
14 *989:wbs_adr_i[15] *989:wbs_dat_i[15] 0
15 *989:wbs_adr_i[24] *989:wbs_dat_i[15] 0.000294213
16 *989:wbs_adr_i[5] *957:21 0.0038021
17 *989:wbs_sel_i[0] *957:21 0.00146727
18 *540:37 *957:21 0.00727456
19 *888:7 *957:7 0
20 *906:9 *957:21 0.00124851
21 *920:7 *989:wbs_dat_i[15] 0
22 *936:15 *957:21 0.00343891
23 *951:9 *957:21 0.000618845
*RES
1 *988:sram_dat_o[15] *957:7 14.5318 
2 *957:7 *957:21 49.885 
3 *957:21 *989:wbs_dat_i[15] 5.56255 
*END

*D_NET *958 0.113478
*CONN
*I *989:wbs_dat_i[16] I *D CF_SRAM_1024x32_wb_wrapper
*I *988:sram_dat_o[16] O *D soc_sys
*CAP
1 *989:wbs_dat_i[16] 0.000991992
2 *988:sram_dat_o[16] 0.00496203
3 *958:21 0.00447391
4 *958:19 0.0045163
5 *958:9 0.00733115
6 *958:7 0.0112588
7 *958:19 *963:19 8.94444e-05
8 *958:19 *980:31 0
9 *958:21 *962:33 0.000186845
10 *988:sram_dat_i[16] *958:7 0
11 *989:wbs_adr_i[16] *989:wbs_dat_i[16] 0
12 *989:wbs_stb_i *958:21 0.00240668
13 *886:9 *958:9 0
14 *889:7 *958:7 0
15 *892:9 *958:9 0.0044603
16 *896:9 *958:9 0.00515182
17 *913:9 *958:19 0.00134231
18 *919:13 *958:9 0
19 *920:7 *989:wbs_dat_i[16] 0
20 *921:7 *989:wbs_dat_i[16] 0
21 *922:17 *958:9 0.0193084
22 *924:19 *958:19 0.00024774
23 *939:23 *958:19 0.000114627
24 *942:44 *958:21 0.000766352
25 *950:27 *958:19 0.000814351
26 *951:23 *958:21 0.00025229
27 *953:9 *958:9 0
28 *953:9 *958:19 0.000118188
29 *955:21 *958:21 0.0220151
30 *956:21 *958:21 0.0226694
*RES
1 *988:sram_dat_o[16] *958:7 16.8739 
2 *958:7 *958:9 236.759 
3 *958:9 *958:19 42.8214 
4 *958:19 *958:21 225.607 
5 *958:21 *989:wbs_dat_i[16] 21.7143 
*END

*D_NET *959 0.10282
*CONN
*I *989:wbs_dat_i[17] I *D CF_SRAM_1024x32_wb_wrapper
*I *988:sram_dat_o[17] O *D soc_sys
*CAP
1 *989:wbs_dat_i[17] 0.000111909
2 *988:sram_dat_o[17] 0.000248893
3 *959:31 0.00467488
4 *959:29 0.00691158
5 *959:19 0.00536175
6 *959:17 0.0074535
7 *959:11 0.00827303
8 *959:9 0.00408157
9 *959:11 *979:11 0.00109754
10 *959:17 *977:7 0
11 *959:29 *989:wbs_dat_i[2] 0.000170757
12 *959:29 *989:wbs_dat_i[4] 0.0120867
13 *959:29 *963:19 0.000462991
14 *959:31 *964:21 0.01333
15 *988:sram_dat_i[5] *959:17 0.00195426
16 *989:wb_clk_i *959:29 2.06178e-05
17 *989:wbs_adr_i[17] *989:wbs_dat_i[17] 0
18 *889:9 *959:19 1.4663e-05
19 *889:15 *959:19 0.00115517
20 *914:21 *959:19 0.00456845
21 *922:7 *989:wbs_dat_i[17] 0
22 *923:21 *959:19 0.00891569
23 *926:21 *959:11 0.0109159
24 *936:15 *959:29 0.01101
25 *948:9 *959:19 0
26 *954:9 *959:19 0
*RES
1 *988:sram_dat_o[17] *959:9 3.94267 
2 *959:9 *959:11 133.696 
3 *959:11 *959:17 19.4787 
4 *959:17 *959:19 124.589 
5 *959:19 *959:29 33.2421 
6 *959:29 *959:31 126.625 
7 *959:31 *989:wbs_dat_i[17] 5.98214 
*END

*D_NET *960 0.115173
*CONN
*I *989:wbs_dat_i[18] I *D CF_SRAM_1024x32_wb_wrapper
*I *988:sram_dat_o[18] O *D soc_sys
*CAP
1 *989:wbs_dat_i[18] 0.000144974
2 *988:sram_dat_o[18] 0.00373785
3 *960:21 0.00592153
4 *960:19 0.00665719
5 *960:9 0.0050327
6 *960:7 0.00788993
7 *960:19 *989:wbs_dat_i[9] 0.00248159
8 *960:19 *961:19 0.00247871
9 *960:21 *961:21 0.0241454
10 *960:21 *963:21 0.000133783
11 *988:sram_dat_i[18] *960:7 0
12 *989:wbs_adr_i[18] *989:wbs_dat_i[18] 0
13 *989:wbs_adr_i[24] *960:21 0.0002845
14 *540:37 *960:9 0.00174652
15 *541:59 *960:21 0.0105547
16 *888:9 *960:9 0.0193854
17 *891:7 *960:7 0
18 *893:9 *960:9 0.021744
19 *923:7 *989:wbs_dat_i[18] 0
20 *925:15 *960:19 0.000198179
21 *928:9 *960:21 0
22 *936:15 *960:19 0
23 *936:15 *960:21 0.00234393
24 *957:21 *960:19 0.000292178
*RES
1 *988:sram_dat_o[18] *960:7 13.7751 
2 *960:7 *960:9 267.875 
3 *960:9 *960:19 18.1081 
4 *960:19 *960:21 230.536 
5 *960:21 *989:wbs_dat_i[18] 6.53571 
*END

*D_NET *961 0.115799
*CONN
*I *989:wbs_dat_i[19] I *D CF_SRAM_1024x32_wb_wrapper
*I *988:sram_dat_o[19] O *D soc_sys
*CAP
1 *989:wbs_dat_i[19] 0.000123676
2 *988:sram_dat_o[19] 0.003367
3 *961:21 0.00351582
4 *961:19 0.00483878
5 *961:9 0.00771823
6 *961:7 0.00963858
7 *961:9 *964:9 0.00507456
8 *961:9 *981:9 0.0128197
9 *961:19 *989:wbs_dat_i[9] 0.000423781
10 *961:19 *983:9 6.53718e-05
11 *961:21 *989:wbs_dat_i[5] 0.00216755
12 *961:21 *963:21 0.0247885
13 *988:sram_dat_i[19] *961:7 0
14 *989:wbs_adr_i[19] *989:wbs_dat_i[19] 0
15 *989:wbs_adr_i[24] *961:21 0.000259202
16 *989:wbs_sel_i[0] *961:19 0.000746078
17 *540:35 *961:19 5.00194e-05
18 *891:19 *961:19 5.00194e-05
19 *893:7 *961:7 0
20 *893:9 *961:9 0
21 *924:7 *989:wbs_dat_i[19] 0
22 *928:9 *961:21 0
23 *945:21 *961:9 0.0134158
24 *957:21 *961:19 0.000112176
25 *960:19 *961:19 0.00247871
26 *960:21 *961:21 0.0241454
*RES
1 *988:sram_dat_o[19] *961:7 12.9823 
2 *961:7 *961:9 278.196 
3 *961:9 *961:19 19.6368 
4 *961:19 *961:21 234.232 
5 *961:21 *989:wbs_dat_i[19] 6.23214 
*END

*D_NET *962 0.0623942
*CONN
*I *989:wbs_dat_i[1] I *D CF_SRAM_1024x32_wb_wrapper
*I *988:sram_dat_o[1] O *D soc_sys
*CAP
1 *989:wbs_dat_i[1] 0.00116277
2 *988:sram_dat_o[1] 0.00563969
3 *962:33 0.00453382
4 *962:9 0.00428414
5 *962:7 0.00655279
6 *962:33 *980:31 0.000610793
7 *988:sram_dat_i[1] *962:7 0
8 *989:wbs_adr_i[1] *989:wbs_dat_i[1] 0
9 *989:wbs_adr_i[4] *962:33 0.000113568
10 *989:wbs_sel_i[1] *989:wbs_dat_i[1] 0
11 *989:wbs_stb_i *962:33 0.0110311
12 *885:19 *962:33 4.26759e-05
13 *896:9 *962:9 0.000759374
14 *903:9 *962:9 0.00551497
15 *903:27 *962:33 0.000769557
16 *907:9 *962:9 1.20719e-05
17 *908:21 *962:9 0.000244844
18 *908:21 *962:33 8.41555e-06
19 *910:15 *962:33 3.01032e-05
20 *912:17 *962:33 0.000456599
21 *914:17 *962:33 0.000259209
22 *917:19 *962:33 2.06112e-05
23 *925:11 *989:wbs_dat_i[1] 0
24 *925:11 *962:33 0.00769196
25 *925:15 *962:33 0
26 *936:15 *962:9 7.49162e-06
27 *936:15 *962:33 0.000288038
28 *939:25 *962:9 0.00527626
29 *942:44 *962:33 0.00199286
30 *947:11 *962:7 0
31 *949:15 *962:33 0.000883822
32 *951:23 *962:33 0.00111692
33 *955:21 *962:33 0.000201479
34 *956:21 *962:33 0.00270141
35 *958:21 *962:33 0.000186845
*RES
1 *988:sram_dat_o[1] *962:7 17.3063 
2 *962:7 *962:9 68.125 
3 *962:9 *962:33 49.29 
4 *962:33 *989:wbs_dat_i[1] 20.4725 
*END

*D_NET *963 0.126067
*CONN
*I *989:wbs_dat_i[20] I *D CF_SRAM_1024x32_wb_wrapper
*I *988:sram_dat_o[20] O *D soc_sys
*CAP
1 *989:wbs_dat_i[20] 0.000101312
2 *988:sram_dat_o[20] 0.00277046
3 *963:21 0.00392414
4 *963:19 0.00495488
5 *963:9 0.00762792
6 *963:7 0.00926632
7 *963:19 *989:wbs_dat_i[2] 0.00030176
8 *963:19 *989:wbs_dat_i[3] 2.69874e-05
9 *963:19 *989:wbs_dat_i[4] 0.00125491
10 *963:19 *989:wbs_dat_i[9] 0.000193871
11 *963:19 *964:19 0.00169275
12 *963:21 *989:wbs_dat_i[5] 0.00233731
13 *989:wbs_adr_i[20] *989:wbs_dat_i[20] 0
14 *989:wbs_adr_i[24] *963:21 0.000225323
15 *32:21 *963:19 0.00020365
16 *541:57 *963:19 0.000258115
17 *541:59 *963:21 0.000262645
18 *894:7 *963:7 0
19 *894:9 *963:9 0.0237281
20 *912:17 *963:9 0.00193109
21 *926:7 *989:wbs_dat_i[20] 0
22 *926:9 *963:21 0.0264842
23 *928:9 *963:21 0
24 *944:21 *963:9 0.0127997
25 *950:27 *963:19 9.10302e-05
26 *957:21 *963:19 0.000155597
27 *958:19 *963:19 8.94444e-05
28 *959:29 *963:19 0.000462991
29 *960:21 *963:21 0.000133783
30 *961:21 *963:21 0.0247885
*RES
1 *988:sram_dat_o[20] *963:7 11.541 
2 *963:7 *963:9 292.768 
3 *963:9 *963:19 17.455 
4 *963:19 *963:21 250.661 
5 *963:21 *989:wbs_dat_i[20] 5.92857 
*END

*D_NET *964 0.127114
*CONN
*I *989:wbs_dat_i[21] I *D CF_SRAM_1024x32_wb_wrapper
*I *988:sram_dat_o[21] O *D soc_sys
*CAP
1 *989:wbs_dat_i[21] 5.5414e-05
2 *988:sram_dat_o[21] 0.00339233
3 *964:21 0.0046102
4 *964:19 0.00523352
5 *964:9 0.00557396
6 *964:7 0.00828755
7 *964:19 *989:wbs_dat_i[2] 0.000736567
8 *964:19 *989:wbs_dat_i[9] 0.000154763
9 *964:21 *989:wbs_dat_i[2] 0.00232363
10 *988:sram_dat_i[21] *964:7 0
11 *33:17 *964:9 6.14702e-06
12 *34:17 *964:9 0.000329994
13 *35:17 *964:9 0.0238592
14 *540:52 *964:21 0.0116193
15 *541:57 *964:19 5.11566e-05
16 *541:59 *964:21 1.74782e-05
17 *895:7 *964:7 0
18 *926:9 *964:21 0.0270247
19 *945:21 *964:9 0.0136507
20 *948:9 *964:19 0
21 *955:19 *964:19 9.0043e-05
22 *959:31 *964:21 0.01333
23 *961:9 *964:9 0.00507456
24 *963:19 *964:19 0.00169275
*RES
1 *988:sram_dat_o[21] *964:7 12.8382 
2 *964:7 *964:9 303.089 
3 *964:9 *964:19 15.221 
4 *964:19 *964:21 262.161 
5 *964:21 *989:wbs_dat_i[21] 5.32143 
*END

*D_NET *965 0.094653
*CONN
*I *989:wbs_dat_i[22] I *D CF_SRAM_1024x32_wb_wrapper
*I *988:sram_dat_o[22] O *D soc_sys
*CAP
1 *989:wbs_dat_i[22] 0.00113472
2 *988:sram_dat_o[22] 0.0138422
3 *965:9 0.0121103
4 *965:7 0.0109756
5 *965:5 0.0138422
6 *989:wbs_dat_i[22] *989:wbs_dat_i[28] 0.00368319
7 *988:sram_dat_i[22] *965:5 0
8 *898:9 *965:9 0.0262015
9 *929:25 *965:5 0.0128632
*RES
1 *988:sram_dat_o[22] *965:5 53.497 
2 *965:5 *965:7 3.41 
3 *965:7 *965:9 54.4855 
4 *965:9 *989:wbs_dat_i[22] 12.5242 
*END

*D_NET *966 0.0811869
*CONN
*I *989:wbs_dat_i[23] I *D CF_SRAM_1024x32_wb_wrapper
*I *988:sram_dat_o[23] O *D soc_sys
*CAP
1 *989:wbs_dat_i[23] 0.00179889
2 *988:sram_dat_o[23] 0.0142431
3 *966:9 0.019731
4 *966:7 0.0179321
5 *966:5 0.0142431
6 *966:5 *967:13 0.0101306
7 *894:21 *989:wbs_dat_i[23] 0.000112662
8 *897:7 *966:5 0
9 *900:11 *966:9 0
10 *929:11 *989:wbs_dat_i[23] 0.0029955
*RES
1 *988:sram_dat_o[23] *966:5 55.5148 
2 *966:5 *966:7 3.41 
3 *966:7 *966:9 57.3619 
4 *966:9 *989:wbs_dat_i[23] 15.2927 
*END

*D_NET *967 0.0857561
*CONN
*I *989:wbs_dat_i[24] I *D CF_SRAM_1024x32_wb_wrapper
*I *988:sram_dat_o[24] O *D soc_sys
*CAP
1 *989:wbs_dat_i[24] 3.65453e-05
2 *988:sram_dat_o[24] 0.00553744
3 *967:17 0.0125729
4 *967:15 0.0125364
5 *967:13 0.0089065
6 *967:11 0.0144439
7 *989:wbs_dat_i[24] *989:wbs_dat_i[28] 0.000100938
8 *988:sram_dat_i[24] *967:11 0
9 *897:7 *967:13 0.00675385
10 *898:5 *967:11 0
11 *933:14 *967:17 0.0147371
12 *966:5 *967:13 0.0101306
*RES
1 *988:sram_dat_o[24] *967:11 30.0205 
2 *967:11 *967:13 47.5029 
3 *967:13 *967:15 3.41 
4 *967:15 *967:17 56.7227 
5 *967:17 *989:wbs_dat_i[24] 6.9751 
*END

*D_NET *968 0.0973526
*CONN
*I *989:wbs_dat_i[25] I *D CF_SRAM_1024x32_wb_wrapper
*I *988:sram_dat_o[25] O *D soc_sys
*CAP
1 *989:wbs_dat_i[25] 0.00399748
2 *988:sram_dat_o[25] 0.000351287
3 *968:19 0.0226462
4 *968:17 0.0282151
5 *968:13 0.00991768
6 *989:wbs_dat_i[25] *989:wbs_dat_i[28] 0.00216426
7 *989:wbs_dat_i[25] *989:wbs_dat_i[29] 0.000728657
8 *989:wbs_dat_i[25] *989:wbs_dat_i[30] 0.000136114
9 *989:wbs_dat_i[25] *989:wbs_dat_i[9] 5.11428e-05
10 *988:sram_dat_i[25] *968:17 0.000880562
11 *989:wbs_adr_i[11] *989:wbs_dat_i[25] 0.000327141
12 *989:wbs_adr_i[24] *989:wbs_dat_i[25] 0.00172803
13 *989:wbs_adr_i[25] *989:wbs_dat_i[25] 0.0055915
14 *989:wbs_adr_i[27] *989:wbs_dat_i[25] 0.00353738
15 *989:wbs_dat_i[15] *989:wbs_dat_i[25] 0.000545411
16 *898:5 *968:17 0.0165347
*RES
1 *988:sram_dat_o[25] *968:13 11.1205 
2 *968:13 *968:17 48.5347 
3 *968:17 *968:19 59.5991 
4 *968:19 *989:wbs_dat_i[25] 24.9407 
*END

*D_NET *969 0.150636
*CONN
*I *989:wbs_dat_i[26] I *D CF_SRAM_1024x32_wb_wrapper
*I *988:sram_dat_o[26] O *D soc_sys
*CAP
1 *989:wbs_dat_i[26] 0.00124445
2 *988:sram_dat_o[26] 0.000745529
3 *969:13 0.00654266
4 *969:11 0.00529822
5 *969:9 0.0068989
6 *969:7 0.00764443
7 *969:9 *970:9 0.00946386
8 *969:13 *970:13 5.0539e-05
9 *988:sram_dat_i[26] *969:7 0
10 *989:wbs_adr_i[26] *989:wbs_dat_i[26] 0
11 *901:13 *969:13 0.0378054
12 *911:9 *969:9 0.0134327
13 *932:7 *989:wbs_dat_i[26] 0
14 *932:9 *969:13 0.0389275
15 *932:13 *969:9 0.0108486
16 *933:18 *969:7 0.00105304
17 *940:13 *969:9 0.0106805
*RES
1 *988:sram_dat_o[26] *969:7 6.3522 
2 *969:7 *969:9 380.804 
3 *969:9 *969:11 3.41 
4 *969:11 *969:13 60.583 
5 *969:13 *989:wbs_dat_i[26] 28.3654 
*END

*D_NET *970 0.154851
*CONN
*I *989:wbs_dat_i[27] I *D CF_SRAM_1024x32_wb_wrapper
*I *988:sram_dat_o[27] O *D soc_sys
*CAP
1 *989:wbs_dat_i[27] 0.0011665
2 *988:sram_dat_o[27] 0.000954828
3 *970:13 0.00702109
4 *970:11 0.00585459
5 *970:9 0.00709184
6 *970:7 0.00804667
7 *970:9 *982:9 0.0137601
8 *989:wbs_adr_i[28] *989:wbs_dat_i[27] 0
9 *901:7 *970:7 0
10 *901:13 *970:13 0.00018115
11 *911:9 *970:9 0.0134348
12 *932:7 *989:wbs_dat_i[27] 0
13 *932:9 *970:13 0.0391614
14 *934:9 *970:13 0.0389458
15 *934:13 *970:9 0.00971762
16 *969:9 *970:9 0.00946386
17 *969:13 *970:13 5.0539e-05
*RES
1 *988:sram_dat_o[27] *970:7 6.20807 
2 *970:7 *970:9 390.518 
3 *970:9 *970:11 3.41 
4 *970:11 *970:13 61.8081 
5 *970:13 *989:wbs_dat_i[27] 27.1511 
*END

*D_NET *971 0.0989114
*CONN
*I *989:wbs_dat_i[28] I *D CF_SRAM_1024x32_wb_wrapper
*I *988:sram_dat_o[28] O *D soc_sys
*CAP
1 *989:wbs_dat_i[28] 0.0038029
2 *988:sram_dat_o[28] 0.000769044
3 *971:19 0.0246272
4 *971:17 0.0270658
5 *971:13 0.00701051
6 *989:wbs_dat_i[28] *989:wbs_dat_i[29] 0.000679154
7 *989:wbs_dat_i[28] *989:wbs_dat_i[30] 0
8 *988:sram_dat_i[28] *971:13 0
9 *988:sram_dat_i[29] *971:17 0.00821127
10 *989:wbs_adr_i[27] *989:wbs_dat_i[28] 0.00178472
11 *989:wbs_dat_i[22] *989:wbs_dat_i[28] 0.00368319
12 *989:wbs_dat_i[24] *989:wbs_dat_i[28] 0.000100938
13 *989:wbs_dat_i[25] *989:wbs_dat_i[28] 0.00216426
14 *902:5 *971:13 0.000685303
15 *902:5 *971:17 0.0167118
16 *933:12 *989:wbs_dat_i[28] 0.00161538
*RES
1 *988:sram_dat_o[28] *971:13 11.78 
2 *971:13 *971:17 48.6788 
3 *971:17 *971:19 66.9499 
4 *971:19 *989:wbs_dat_i[28] 25.5526 
*END

*D_NET *972 0.0932237
*CONN
*I *989:wbs_dat_i[29] I *D CF_SRAM_1024x32_wb_wrapper
*I *988:sram_dat_o[29] O *D soc_sys
*CAP
1 *989:wbs_dat_i[29] 0.00373478
2 *988:sram_dat_o[29] 0.0183784
3 *972:9 0.0250582
4 *972:7 0.0213234
5 *972:5 0.0183784
6 *989:wbs_dat_i[29] *989:wbs_dat_i[30] 0.00188566
7 *972:9 *974:9 0
8 *988:sram_dat_i[29] *972:5 0
9 *989:wbs_adr_i[24] *989:wbs_dat_i[29] 0.00056931
10 *989:wbs_adr_i[25] *989:wbs_dat_i[29] 0.000670665
11 *989:wbs_adr_i[27] *989:wbs_dat_i[29] 0.00105117
12 *989:wbs_adr_i[29] *989:wbs_dat_i[29] 0.000265091
13 *989:wbs_dat_i[25] *989:wbs_dat_i[29] 0.000728657
14 *989:wbs_dat_i[28] *989:wbs_dat_i[29] 0.000679154
15 *900:11 *972:9 0
16 *904:5 *972:5 0
17 *933:12 *989:wbs_dat_i[29] 0.000500918
18 *934:7 *989:wbs_dat_i[29] 0
19 *935:11 *989:wbs_dat_i[29] 0
*RES
1 *988:sram_dat_o[29] *972:5 57.6768 
2 *972:5 *972:7 3.41 
3 *972:7 *972:9 68.4414 
4 *972:9 *989:wbs_dat_i[29] 10.6951 
*END

*D_NET *973 0.065386
*CONN
*I *989:wbs_dat_i[2] I *D CF_SRAM_1024x32_wb_wrapper
*I *988:sram_dat_o[2] O *D soc_sys
*CAP
1 *989:wbs_dat_i[2] 0.00381308
2 *988:sram_dat_o[2] 0.00402466
3 *973:9 0.00703182
4 *973:7 0.0072434
5 *989:wbs_dat_i[2] *989:wbs_dat_i[5] 0.014364
6 *989:wbs_dat_i[2] *989:wbs_dat_i[9] 0.00170741
7 *973:9 *981:9 0
8 *989:wbs_adr_i[2] *989:wbs_dat_i[2] 0
9 *989:wbs_adr_i[5] *989:wbs_dat_i[2] 0.0148331
10 *541:57 *989:wbs_dat_i[2] 0.000196893
11 *893:9 *973:9 0.00269369
12 *926:9 *989:wbs_dat_i[2] 0.00216755
13 *936:15 *989:wbs_dat_i[2] 0.000172217
14 *948:7 *973:7 0
15 *957:21 *989:wbs_dat_i[2] 0.00360544
16 *959:29 *989:wbs_dat_i[2] 0.000170757
17 *963:19 *989:wbs_dat_i[2] 0.00030176
18 *964:19 *989:wbs_dat_i[2] 0.000736567
19 *964:21 *989:wbs_dat_i[2] 0.00232363
*RES
1 *988:sram_dat_o[2] *973:7 13.4868 
2 *973:7 *973:9 86.9464 
3 *973:9 *989:wbs_dat_i[2] 35.0811 
*END

*D_NET *974 0.0929408
*CONN
*I *989:wbs_dat_i[30] I *D CF_SRAM_1024x32_wb_wrapper
*I *988:sram_dat_o[30] O *D soc_sys
*CAP
1 *989:wbs_dat_i[30] 0.00182988
2 *988:sram_dat_o[30] 0.0191134
3 *974:9 0.0238223
4 *974:7 0.0219924
5 *974:5 0.0191134
6 *974:5 *975:15 0.000327739
7 *988:sram_dat_i[30] *974:5 0
8 *989:wbs_adr_i[24] *989:wbs_dat_i[30] 0.00139911
9 *989:wbs_adr_i[25] *989:wbs_dat_i[30] 0.00209095
10 *989:wbs_adr_i[27] *989:wbs_dat_i[30] 0.000436332
11 *989:wbs_adr_i[29] *989:wbs_dat_i[30] 0.000667148
12 *989:wbs_dat_i[25] *989:wbs_dat_i[30] 0.000136114
13 *989:wbs_dat_i[28] *989:wbs_dat_i[30] 0
14 *989:wbs_dat_i[29] *989:wbs_dat_i[30] 0.00188566
15 *905:5 *974:5 0
16 *933:12 *989:wbs_dat_i[30] 0.000126407
17 *935:11 *989:wbs_dat_i[30] 0
18 *972:9 *974:9 0
*RES
1 *988:sram_dat_o[30] *974:5 58.8299 
2 *974:5 *974:7 3.41 
3 *974:7 *974:9 70.4655 
4 *974:9 *989:wbs_dat_i[30] 17.7232 
*END

*D_NET *975 0.0926446
*CONN
*I *989:wbs_dat_i[31] I *D CF_SRAM_1024x32_wb_wrapper
*I *988:sram_dat_o[31] O *D soc_sys
*CAP
1 *989:wbs_dat_i[31] 6.2673e-05
2 *988:sram_dat_o[31] 0.0200825
3 *975:17 0.0220502
4 *975:15 0.0252628
5 *975:5 0.0233578
6 *988:sram_dat_i[30] *975:15 0.00130617
7 *988:sram_dat_i[31] *975:5 0
8 *989:wbs_adr_i[31] *989:wbs_dat_i[31] 0.00019474
9 *905:5 *975:15 0
10 *938:10 *975:17 0
11 *974:5 *975:15 0.000327739
*RES
1 *988:sram_dat_o[31] *975:5 58.3615 
2 *975:5 *975:15 32.2072 
3 *975:15 *975:17 69.7198 
4 *975:17 *989:wbs_dat_i[31] 7.11923 
*END

*D_NET *976 0.0726214
*CONN
*I *989:wbs_dat_i[3] I *D CF_SRAM_1024x32_wb_wrapper
*I *988:sram_dat_o[3] O *D soc_sys
*CAP
1 *989:wbs_dat_i[3] 0.00528543
2 *988:sram_dat_o[3] 0.00188513
3 *976:9 0.0068019
4 *976:7 0.0034016
5 *989:wbs_dat_i[3] *989:wbs_dat_i[4] 0.0187855
6 *989:wbs_dat_i[3] *989:wbs_dat_i[9] 0
7 *988:sram_dat_i[3] *976:7 0
8 *989:wbs_adr_i[3] *989:wbs_dat_i[3] 0.00056989
9 *989:wbs_adr_i[4] *989:wbs_dat_i[3] 3.44845e-05
10 *108:21 *989:wbs_dat_i[3] 0.00245581
11 *880:15 *989:wbs_dat_i[3] 3.66327e-06
12 *883:15 *976:9 0.000795634
13 *887:19 *989:wbs_dat_i[3] 0.00118733
14 *888:19 *989:wbs_dat_i[3] 0.000353472
15 *892:27 *989:wbs_dat_i[3] 0.013487
16 *894:19 *989:wbs_dat_i[3] 0.00025505
17 *894:21 *989:wbs_dat_i[3] 0.00014225
18 *896:19 *989:wbs_dat_i[3] 2.08536e-05
19 *928:9 *989:wbs_dat_i[3] 0.000131918
20 *930:13 *976:9 0.00849799
21 *931:13 *976:9 0.00849957
22 *939:15 *989:wbs_dat_i[3] 0
23 *949:7 *976:7 0
24 *963:19 *989:wbs_dat_i[3] 2.69874e-05
*RES
1 *988:sram_dat_o[3] *976:7 8.58627 
2 *976:7 *976:9 105.161 
3 *976:9 *989:wbs_dat_i[3] 44.2581 
*END

*D_NET *977 0.0686426
*CONN
*I *989:wbs_dat_i[4] I *D CF_SRAM_1024x32_wb_wrapper
*I *988:sram_dat_o[4] O *D soc_sys
*CAP
1 *989:wbs_dat_i[4] 0.00447811
2 *988:sram_dat_o[4] 0.00305575
3 *977:9 0.00834443
4 *977:7 0.00692207
5 *988:sram_dat_i[4] *977:7 0
6 *989:wbs_adr_i[4] *989:wbs_dat_i[4] 0
7 *989:wbs_dat_i[3] *989:wbs_dat_i[4] 0.0187855
8 *882:15 *989:wbs_dat_i[4] 0
9 *929:11 *989:wbs_dat_i[4] 0.00291599
10 *936:15 *989:wbs_dat_i[4] 0.00116333
11 *940:7 *989:wbs_dat_i[4] 0
12 *944:21 *977:9 0.00963579
13 *959:17 *977:7 0
14 *959:29 *989:wbs_dat_i[4] 0.0120867
15 *963:19 *989:wbs_dat_i[4] 0.00125491
*RES
1 *988:sram_dat_o[4] *977:7 11.6851 
2 *977:7 *977:9 119.125 
3 *977:9 *989:wbs_dat_i[4] 41.9934 
*END

*D_NET *978 0.0881203
*CONN
*I *989:wbs_dat_i[5] I *D CF_SRAM_1024x32_wb_wrapper
*I *988:sram_dat_o[5] O *D soc_sys
*CAP
1 *989:wbs_dat_i[5] 0.00394738
2 *988:sram_dat_o[5] 0.000170767
3 *978:21 0.00685859
4 *978:11 0.00660418
5 *978:9 0.00386374
6 *989:wbs_dat_i[5] *989:wbs_dat_i[9] 6.80387e-05
7 *978:11 *979:11 0.000349519
8 *978:21 *989:wbs_dat_i[6] 0.000162572
9 *989:wbs_adr_i[5] *989:wbs_dat_i[5] 0.00124061
10 *989:wbs_dat_i[2] *989:wbs_dat_i[5] 0.014364
11 *881:9 *978:11 0
12 *896:9 *978:21 0
13 *908:11 *978:11 0.0090725
14 *908:21 *978:21 0.00864812
15 *929:11 *989:wbs_dat_i[5] 0.00116388
16 *936:15 *989:wbs_dat_i[5] 0.0145881
17 *936:19 *978:21 0.00882527
18 *940:7 *989:wbs_dat_i[5] 0
19 *941:7 *989:wbs_dat_i[5] 0
20 *957:21 *989:wbs_dat_i[5] 0.00368816
21 *961:21 *989:wbs_dat_i[5] 0.00216755
22 *963:21 *989:wbs_dat_i[5] 0.00233731
*RES
1 *988:sram_dat_o[5] *978:9 3.7296 
2 *978:9 *978:11 119.125 
3 *978:11 *978:21 26.3745 
4 *978:21 *989:wbs_dat_i[5] 31.5372 
*END

*D_NET *979 0.0635886
*CONN
*I *989:wbs_dat_i[6] I *D CF_SRAM_1024x32_wb_wrapper
*I *988:sram_dat_o[6] O *D soc_sys
*CAP
1 *989:wbs_dat_i[6] 0.00906704
2 *988:sram_dat_o[6] 0.000295327
3 *979:11 0.0110379
4 *979:9 0.00226617
5 *989:wbs_dat_i[6] *989:wbs_dat_i[9] 0.00221232
6 *989:wbs_sel_i[0] *989:wbs_dat_i[6] 0.0106635
7 *881:9 *979:11 0
8 *908:11 *979:11 0.00907321
9 *926:21 *979:11 0.0018251
10 *936:19 *989:wbs_dat_i[6] 0.00891812
11 *936:21 *979:11 0.00620053
12 *946:11 *979:11 2.00751e-05
13 *957:21 *989:wbs_dat_i[6] 0.000399677
14 *959:11 *979:11 0.00109754
15 *978:11 *979:11 0.000349519
16 *978:21 *989:wbs_dat_i[6] 0.000162572
*RES
1 *988:sram_dat_o[6] *979:9 3.94267 
2 *979:9 *979:11 130.054 
3 *979:11 *989:wbs_dat_i[6] 49.6746 
*END

*D_NET *980 0.0794658
*CONN
*I *989:wbs_dat_i[7] I *D CF_SRAM_1024x32_wb_wrapper
*I *988:sram_dat_o[7] O *D soc_sys
*CAP
1 *989:wbs_dat_i[7] 0.00126458
2 *988:sram_dat_o[7] 0.00524936
3 *980:33 0.00655023
4 *980:31 0.00640559
5 *980:9 0.00369266
6 *980:7 0.00782208
7 *988:sram_dat_i[7] *980:7 0
8 *989:wbs_adr_i[7] *989:wbs_dat_i[7] 0
9 *541:59 *980:31 0.000135028
10 *887:19 *980:31 0
11 *892:27 *980:31 0.000539816
12 *896:9 *980:9 0.00273197
13 *903:27 *980:31 0.000442659
14 *907:9 *980:9 0.00837337
15 *907:9 *980:31 0.000277315
16 *911:7 *980:7 0
17 *913:27 *980:31 0.000274417
18 *916:19 *980:31 4.59657e-05
19 *920:23 *980:31 1.32056e-05
20 *920:25 *980:9 0.011641
21 *922:15 *980:31 0.000138062
22 *922:17 *980:31 0.000263755
23 *928:9 *980:31 0
24 *939:23 *980:31 0
25 *943:7 *989:wbs_dat_i[7] 0
26 *943:9 *980:33 0.0174611
27 *943:19 *980:31 1.38247e-05
28 *944:9 *980:33 4.37451e-05
29 *947:33 *980:33 0.000414624
30 *951:23 *980:33 0.00506069
31 *958:19 *980:31 0
32 *962:33 *980:31 0.000610793
*RES
1 *988:sram_dat_o[7] *980:7 17.0901 
2 *980:7 *980:9 142.955 
3 *980:9 *980:31 49.7857 
4 *980:31 *980:33 166.054 
5 *980:33 *989:wbs_dat_i[7] 24.1429 
*END

*D_NET *981 0.0956554
*CONN
*I *989:wbs_dat_i[8] I *D CF_SRAM_1024x32_wb_wrapper
*I *988:sram_dat_o[8] O *D soc_sys
*CAP
1 *989:wbs_dat_i[8] 0.000807728
2 *988:sram_dat_o[8] 0.00364019
3 *981:15 0.00539484
4 *981:9 0.0101809
5 *981:7 0.00923403
6 *988:sram_dat_i[8] *981:7 0
7 *989:wbs_adr_i[8] *989:wbs_dat_i[8] 0
8 *882:15 *981:15 0
9 *893:9 *981:9 0
10 *895:19 *981:9 2.11419e-05
11 *909:15 *981:15 0.0204372
12 *911:15 *981:15 0.00115033
13 *912:17 *981:7 0
14 *912:17 *981:15 0.00468152
15 *917:19 *981:15 0.00276145
16 *918:9 *981:15 0.000477562
17 *919:9 *981:15 0.000442876
18 *920:9 *981:15 0.00340197
19 *921:9 *981:15 0.00366841
20 *928:19 *981:9 0.000188717
21 *939:15 *981:15 0.0158031
22 *944:7 *989:wbs_dat_i[8] 0
23 *945:21 *981:9 0.000543732
24 *961:9 *981:9 0.0128197
25 *973:9 *981:9 0
*RES
1 *988:sram_dat_o[8] *981:7 13.0544 
2 *981:7 *981:9 171.946 
3 *981:9 *981:15 41.2428 
4 *981:15 *989:wbs_dat_i[8] 12.8125 
*END

*D_NET *982 0.083879
*CONN
*I *989:wbs_dat_i[9] I *D CF_SRAM_1024x32_wb_wrapper
*I *988:sram_dat_o[9] O *D soc_sys
*CAP
1 *989:wbs_dat_i[9] 0.0100607
2 *988:sram_dat_o[9] 0.000972252
3 *982:9 0.0124748
4 *982:7 0.00338637
5 *988:sram_dat_i[9] *982:7 0
6 *989:wbs_adr_i[24] *989:wbs_dat_i[9] 0.000358114
7 *989:wbs_adr_i[5] *989:wbs_dat_i[9] 0.0133383
8 *989:wbs_adr_i[9] *989:wbs_dat_i[9] 0.000327141
9 *989:wbs_dat_i[25] *989:wbs_dat_i[9] 5.11428e-05
10 *989:wbs_dat_i[2] *989:wbs_dat_i[9] 0.00170741
11 *989:wbs_dat_i[3] *989:wbs_dat_i[9] 0
12 *989:wbs_dat_i[5] *989:wbs_dat_i[9] 6.80387e-05
13 *989:wbs_dat_i[6] *989:wbs_dat_i[9] 0.00221232
14 *989:wbs_sel_i[0] *989:wbs_dat_i[9] 0.00291698
15 *34:21 *989:wbs_dat_i[9] 0.000212909
16 *108:21 *989:wbs_dat_i[9] 0
17 *540:25 *989:wbs_dat_i[9] 0.00033529
18 *541:57 *989:wbs_dat_i[9] 0.000102517
19 *882:7 *982:7 0
20 *934:13 *982:9 0.0137617
21 *942:44 *989:wbs_dat_i[9] 4.98422e-05
22 *957:21 *989:wbs_dat_i[9] 0.00452888
23 *960:19 *989:wbs_dat_i[9] 0.00248159
24 *961:19 *989:wbs_dat_i[9] 0.000423781
25 *963:19 *989:wbs_dat_i[9] 0.000193871
26 *964:19 *989:wbs_dat_i[9] 0.000154763
27 *970:9 *982:9 0.0137601
*RES
1 *988:sram_dat_o[9] *982:7 6.136 
2 *982:7 *982:9 170.125 
3 *982:9 *989:wbs_dat_i[9] 49.4427 
*END

*D_NET *983 0.0516453
*CONN
*I *989:wbs_we_i I *D CF_SRAM_1024x32_wb_wrapper
*I *988:sram_we_o O *D soc_sys
*CAP
1 *989:wbs_we_i 0.00236421
2 *988:sram_we_o 0.00580068
3 *983:9 0.00415425
4 *983:7 0.00759073
5 *989:wbs_adr_i[0] *989:wbs_we_i 0
6 *989:wbs_adr_i[3] *989:wbs_we_i 0.0116448
7 *989:wbs_stb_i *989:wbs_we_i 0
8 *880:15 *989:wbs_we_i 7.26537e-05
9 *881:7 *983:7 0
10 *892:27 *989:wbs_we_i 0.0117846
11 *893:13 *989:wbs_we_i 0.00228064
12 *896:21 *989:wbs_we_i 0.00245925
13 *925:15 *983:9 0.000803648
14 *925:17 *983:9 0.00262444
15 *950:7 *983:7 0
16 *961:19 *983:9 6.53718e-05
*RES
1 *988:sram_we_o *983:7 18.027 
2 *983:7 *983:9 51.7321 
3 *983:9 *989:wbs_we_i 30.987 
*END
