*SPEF "ieee 1481-1999"
*DESIGN "CF_SRAM_1024x32_wb_wrapper"
*DATE "18:14:31 Tuesday September 29, 2026"
*VENDOR "The OpenROAD Project"
*PROGRAM "OpenROAD"
*VERSION "edf00dff99f6c40d67a30c0e22a8191c5d2ed9d6"
*DESIGN_FLOW "NAME_SCOPE LOCAL" "PIN_CAP NONE"
*DIVIDER /
*DELIMITER :
*BUS_DELIMITER []
*T_UNIT 1 NS
*C_UNIT 1 PF
*R_UNIT 1 OHM
*L_UNIT 1 HENRY

*NAME_MAP
*3 wb_clk_i
*4 wb_rst_i
*5 wbs_ack_o
*6 wbs_adr_i[0]
*7 wbs_adr_i[10]
*8 wbs_adr_i[11]
*9 wbs_adr_i[12]
*10 wbs_adr_i[13]
*11 wbs_adr_i[14]
*12 wbs_adr_i[15]
*13 wbs_adr_i[16]
*14 wbs_adr_i[17]
*15 wbs_adr_i[18]
*16 wbs_adr_i[19]
*17 wbs_adr_i[1]
*18 wbs_adr_i[20]
*19 wbs_adr_i[21]
*20 wbs_adr_i[22]
*21 wbs_adr_i[23]
*22 wbs_adr_i[24]
*23 wbs_adr_i[25]
*24 wbs_adr_i[26]
*25 wbs_adr_i[27]
*26 wbs_adr_i[28]
*27 wbs_adr_i[29]
*28 wbs_adr_i[2]
*29 wbs_adr_i[30]
*30 wbs_adr_i[31]
*31 wbs_adr_i[3]
*32 wbs_adr_i[4]
*33 wbs_adr_i[5]
*34 wbs_adr_i[6]
*35 wbs_adr_i[7]
*36 wbs_adr_i[8]
*37 wbs_adr_i[9]
*38 wbs_cyc_i
*39 wbs_dat_i[0]
*40 wbs_dat_i[10]
*41 wbs_dat_i[11]
*42 wbs_dat_i[12]
*43 wbs_dat_i[13]
*44 wbs_dat_i[14]
*45 wbs_dat_i[15]
*46 wbs_dat_i[16]
*47 wbs_dat_i[17]
*48 wbs_dat_i[18]
*49 wbs_dat_i[19]
*50 wbs_dat_i[1]
*51 wbs_dat_i[20]
*52 wbs_dat_i[21]
*53 wbs_dat_i[22]
*54 wbs_dat_i[23]
*55 wbs_dat_i[24]
*56 wbs_dat_i[25]
*57 wbs_dat_i[26]
*58 wbs_dat_i[27]
*59 wbs_dat_i[28]
*60 wbs_dat_i[29]
*61 wbs_dat_i[2]
*62 wbs_dat_i[30]
*63 wbs_dat_i[31]
*64 wbs_dat_i[3]
*65 wbs_dat_i[4]
*66 wbs_dat_i[5]
*67 wbs_dat_i[6]
*68 wbs_dat_i[7]
*69 wbs_dat_i[8]
*70 wbs_dat_i[9]
*71 wbs_dat_o[0]
*72 wbs_dat_o[10]
*73 wbs_dat_o[11]
*74 wbs_dat_o[12]
*75 wbs_dat_o[13]
*76 wbs_dat_o[14]
*77 wbs_dat_o[15]
*78 wbs_dat_o[16]
*79 wbs_dat_o[17]
*80 wbs_dat_o[18]
*81 wbs_dat_o[19]
*82 wbs_dat_o[1]
*83 wbs_dat_o[20]
*84 wbs_dat_o[21]
*85 wbs_dat_o[22]
*86 wbs_dat_o[23]
*87 wbs_dat_o[24]
*88 wbs_dat_o[25]
*89 wbs_dat_o[26]
*90 wbs_dat_o[27]
*91 wbs_dat_o[28]
*92 wbs_dat_o[29]
*93 wbs_dat_o[2]
*94 wbs_dat_o[30]
*95 wbs_dat_o[31]
*96 wbs_dat_o[3]
*97 wbs_dat_o[4]
*98 wbs_dat_o[5]
*99 wbs_dat_o[6]
*100 wbs_dat_o[7]
*101 wbs_dat_o[8]
*102 wbs_dat_o[9]
*103 wbs_sel_i[0]
*104 wbs_sel_i[1]
*105 wbs_sel_i[2]
*106 wbs_sel_i[3]
*107 wbs_stb_i
*108 wbs_we_i
*109 _00_
*110 clknet_0_wb_clk_i
*111 clknet_1_0__leaf_wb_clk_i
*112 clknet_1_1__leaf_wb_clk_i
*113 i_ram_wb_controller\.DO\[0\]
*114 i_ram_wb_controller\.DO\[10\]
*115 i_ram_wb_controller\.DO\[11\]
*116 i_ram_wb_controller\.DO\[12\]
*117 i_ram_wb_controller\.DO\[13\]
*118 i_ram_wb_controller\.DO\[14\]
*119 i_ram_wb_controller\.DO\[15\]
*120 i_ram_wb_controller\.DO\[16\]
*121 i_ram_wb_controller\.DO\[17\]
*122 i_ram_wb_controller\.DO\[18\]
*123 i_ram_wb_controller\.DO\[19\]
*124 i_ram_wb_controller\.DO\[1\]
*125 i_ram_wb_controller\.DO\[20\]
*126 i_ram_wb_controller\.DO\[21\]
*127 i_ram_wb_controller\.DO\[22\]
*128 i_ram_wb_controller\.DO\[23\]
*129 i_ram_wb_controller\.DO\[24\]
*130 i_ram_wb_controller\.DO\[25\]
*131 i_ram_wb_controller\.DO\[26\]
*132 i_ram_wb_controller\.DO\[27\]
*133 i_ram_wb_controller\.DO\[28\]
*134 i_ram_wb_controller\.DO\[29\]
*135 i_ram_wb_controller\.DO\[2\]
*136 i_ram_wb_controller\.DO\[30\]
*137 i_ram_wb_controller\.DO\[31\]
*138 i_ram_wb_controller\.DO\[3\]
*139 i_ram_wb_controller\.DO\[4\]
*140 i_ram_wb_controller\.DO\[5\]
*141 i_ram_wb_controller\.DO\[6\]
*142 i_ram_wb_controller\.DO\[7\]
*143 i_ram_wb_controller\.DO\[8\]
*144 i_ram_wb_controller\.DO\[9\]
*145 i_ram_wb_controller\.EN
*146 i_ram_wb_controller\.R_WB
*147 net1
*148 net10
*149 net100
*150 net101
*151 net102
*152 net103
*153 net104
*154 net105
*155 net106
*156 net107
*157 net108
*158 net109
*159 net11
*160 net110
*161 net111
*162 net112
*163 net113
*164 net114
*165 net115
*166 net116
*167 net117
*168 net118
*169 net119
*170 net12
*171 net120
*172 net121
*173 net122
*174 net123
*175 net124
*176 net125
*177 net126
*178 net127
*179 net128
*180 net129
*181 net13
*182 net130
*183 net131
*184 net132
*185 net133
*186 net134
*187 net135
*188 net136
*189 net137
*190 net138
*191 net139
*192 net14
*193 net140
*194 net141
*195 net142
*196 net143
*197 net144
*198 net145
*199 net146
*200 net147
*201 net148
*202 net149
*203 net15
*204 net150
*205 net151
*206 net152
*207 net153
*208 net154
*209 net155
*210 net156
*211 net157
*212 net158
*213 net159
*214 net16
*215 net160
*216 net161
*217 net162
*218 net163
*219 net164
*220 net165
*221 net166
*222 net167
*223 net168
*224 net169
*225 net17
*226 net170
*227 net171
*228 net172
*229 net173
*230 net174
*231 net175
*232 net176
*233 net177
*234 net178
*235 net179
*236 net18
*237 net180
*238 net181
*239 net182
*240 net183
*241 net184
*242 net185
*243 net186
*244 net187
*245 net188
*246 net189
*247 net19
*248 net190
*249 net191
*250 net192
*251 net193
*252 net194
*253 net195
*254 net196
*255 net197
*256 net198
*257 net199
*258 net2
*259 net20
*260 net200
*261 net201
*262 net202
*263 net203
*264 net204
*265 net205
*266 net206
*267 net207
*268 net208
*269 net209
*270 net21
*271 net210
*272 net211
*273 net212
*274 net213
*275 net214
*276 net215
*277 net216
*278 net217
*279 net218
*280 net219
*281 net22
*282 net220
*283 net221
*284 net222
*285 net223
*286 net224
*287 net225
*288 net226
*289 net227
*290 net228
*291 net229
*292 net23
*293 net230
*294 net231
*295 net232
*296 net233
*297 net234
*298 net235
*299 net236
*300 net24
*301 net25
*302 net26
*303 net27
*304 net28
*305 net29
*306 net3
*307 net30
*308 net31
*309 net32
*310 net33
*311 net34
*312 net35
*313 net36
*314 net37
*315 net38
*316 net39
*317 net4
*318 net40
*319 net41
*320 net42
*321 net43
*322 net44
*323 net45
*324 net46
*325 net47
*326 net48
*327 net49
*328 net5
*329 net50
*330 net51
*331 net52
*332 net53
*333 net54
*334 net55
*335 net56
*336 net57
*337 net58
*338 net59
*339 net6
*340 net60
*341 net61
*342 net62
*343 net63
*344 net64
*345 net65
*346 net66
*347 net67
*348 net68
*349 net69
*350 net7
*351 net70
*352 net71
*353 net72
*354 net73
*355 net74
*356 net75
*357 net76
*358 net77
*359 net78
*360 net79
*361 net8
*362 net80
*363 net81
*364 net82
*365 net83
*366 net84
*367 net85
*368 net86
*369 net87
*370 net88
*371 net89
*372 net9
*373 net90
*374 net91
*375 net92
*376 net93
*377 net94
*378 net95
*379 net96
*380 net97
*381 net98
*382 net99
*383 sram_scan_out_cc
*384 ANTENNA_1
*385 ANTENNA_10
*386 ANTENNA_11
*387 ANTENNA_12
*388 ANTENNA_13
*389 ANTENNA_14
*390 ANTENNA_15
*391 ANTENNA_16
*392 ANTENNA_17
*393 ANTENNA_18
*394 ANTENNA_19
*395 ANTENNA_2
*396 ANTENNA_20
*397 ANTENNA_21
*398 ANTENNA_22
*399 ANTENNA_23
*400 ANTENNA_24
*401 ANTENNA_25
*402 ANTENNA_26
*403 ANTENNA_27
*404 ANTENNA_28
*405 ANTENNA_29
*406 ANTENNA_3
*407 ANTENNA_30
*408 ANTENNA_31
*409 ANTENNA_32
*410 ANTENNA_33
*411 ANTENNA_34
*412 ANTENNA_35
*413 ANTENNA_36
*414 ANTENNA_37
*415 ANTENNA_38
*416 ANTENNA_39
*417 ANTENNA_4
*418 ANTENNA_40
*419 ANTENNA_41
*420 ANTENNA_42
*421 ANTENNA_43
*422 ANTENNA_44
*423 ANTENNA_45
*424 ANTENNA_46
*425 ANTENNA_47
*426 ANTENNA_48
*427 ANTENNA_49
*428 ANTENNA_5
*429 ANTENNA_50
*430 ANTENNA_51
*431 ANTENNA_52
*432 ANTENNA_53
*433 ANTENNA_54
*434 ANTENNA_55
*435 ANTENNA_56
*436 ANTENNA_57
*437 ANTENNA_58
*438 ANTENNA_59
*439 ANTENNA_6
*440 ANTENNA_60
*441 ANTENNA_61
*442 ANTENNA_62
*443 ANTENNA_63
*444 ANTENNA_64
*445 ANTENNA_65
*446 ANTENNA_66
*447 ANTENNA_67
*448 ANTENNA_68
*449 ANTENNA_69
*450 ANTENNA_7
*451 ANTENNA_70
*452 ANTENNA_71
*453 ANTENNA_72
*454 ANTENNA_73
*455 ANTENNA_74
*456 ANTENNA_75
*457 ANTENNA_76
*458 ANTENNA_77
*459 ANTENNA_78
*460 ANTENNA_79
*461 ANTENNA_8
*462 ANTENNA_80
*463 ANTENNA_81
*464 ANTENNA_82
*465 ANTENNA_83
*466 ANTENNA_84
*467 ANTENNA_85
*468 ANTENNA_86
*469 ANTENNA_87
*470 ANTENNA_88
*471 ANTENNA_89
*472 ANTENNA_9
*473 ANTENNA_90
*474 FILLER_0_109
*475 FILLER_0_111
*476 FILLER_0_113
*477 FILLER_0_125
*478 FILLER_0_137
*479 FILLER_0_139
*480 FILLER_0_141
*481 FILLER_0_15
*482 FILLER_0_153
*483 FILLER_0_165
*484 FILLER_0_167
*485 FILLER_0_169
*486 FILLER_0_181
*487 FILLER_0_193
*488 FILLER_0_195
*489 FILLER_0_197
*490 FILLER_0_209
*491 FILLER_0_221
*492 FILLER_0_223
*493 FILLER_0_225
*494 FILLER_0_237
*495 FILLER_0_248
*496 FILLER_0_269
*497 FILLER_0_27
*498 FILLER_0_271
*499 FILLER_0_281
*500 FILLER_0_283
*501 FILLER_0_29
*502 FILLER_0_3
*503 FILLER_0_309
*504 FILLER_0_311
*505 FILLER_0_361
*506 FILLER_0_363
*507 FILLER_0_365
*508 FILLER_0_391
*509 FILLER_0_393
*510 FILLER_0_395
*511 FILLER_0_41
*512 FILLER_0_445
*513 FILLER_0_447
*514 FILLER_0_473
*515 FILLER_0_475
*516 FILLER_0_477
*517 FILLER_0_479
*518 FILLER_0_529
*519 FILLER_0_53
*520 FILLER_0_531
*521 FILLER_0_55
*522 FILLER_0_557
*523 FILLER_0_559
*524 FILLER_0_57
*525 FILLER_0_585
*526 FILLER_0_587
*527 FILLER_0_613
*528 FILLER_0_615
*529 FILLER_0_617
*530 FILLER_0_629
*531 FILLER_0_641
*532 FILLER_0_643
*533 FILLER_0_661
*534 FILLER_0_665
*535 FILLER_0_669
*536 FILLER_0_671
*537 FILLER_0_673
*538 FILLER_0_677
*539 FILLER_0_69
*540 FILLER_0_697
*541 FILLER_0_699
*542 FILLER_0_709
*543 FILLER_0_713
*544 FILLER_0_725
*545 FILLER_0_727
*546 FILLER_0_735
*547 FILLER_0_739
*548 FILLER_0_743
*549 FILLER_0_753
*550 FILLER_0_755
*551 FILLER_0_781
*552 FILLER_0_783
*553 FILLER_0_793
*554 FILLER_0_81
*555 FILLER_0_83
*556 FILLER_0_85
*557 FILLER_0_97
*558 FILLER_100_703
*559 FILLER_100_715
*560 FILLER_100_727
*561 FILLER_100_729
*562 FILLER_100_741
*563 FILLER_100_753
*564 FILLER_100_765
*565 FILLER_100_777
*566 FILLER_100_781
*567 FILLER_100_783
*568 FILLER_100_785
*569 FILLER_100_797
*570 FILLER_101_703
*571 FILLER_101_715
*572 FILLER_101_727
*573 FILLER_101_739
*574 FILLER_101_751
*575 FILLER_101_755
*576 FILLER_101_757
*577 FILLER_101_769
*578 FILLER_101_781
*579 FILLER_101_793
*580 FILLER_102_703
*581 FILLER_102_715
*582 FILLER_102_727
*583 FILLER_102_729
*584 FILLER_102_741
*585 FILLER_102_753
*586 FILLER_102_765
*587 FILLER_102_777
*588 FILLER_102_781
*589 FILLER_102_783
*590 FILLER_102_785
*591 FILLER_102_797
*592 FILLER_103_703
*593 FILLER_103_715
*594 FILLER_103_727
*595 FILLER_103_739
*596 FILLER_103_751
*597 FILLER_103_755
*598 FILLER_103_757
*599 FILLER_103_769
*600 FILLER_103_781
*601 FILLER_103_793
*602 FILLER_104_703
*603 FILLER_104_715
*604 FILLER_104_727
*605 FILLER_104_729
*606 FILLER_104_741
*607 FILLER_104_753
*608 FILLER_104_765
*609 FILLER_104_777
*610 FILLER_104_781
*611 FILLER_104_783
*612 FILLER_104_785
*613 FILLER_104_797
*614 FILLER_105_703
*615 FILLER_105_715
*616 FILLER_105_727
*617 FILLER_105_739
*618 FILLER_105_751
*619 FILLER_105_755
*620 FILLER_105_757
*621 FILLER_105_769
*622 FILLER_105_781
*623 FILLER_105_793
*624 FILLER_106_703
*625 FILLER_106_715
*626 FILLER_106_727
*627 FILLER_106_729
*628 FILLER_106_741
*629 FILLER_106_753
*630 FILLER_106_765
*631 FILLER_106_777
*632 FILLER_106_781
*633 FILLER_106_783
*634 FILLER_106_785
*635 FILLER_106_797
*636 FILLER_107_703
*637 FILLER_107_715
*638 FILLER_107_727
*639 FILLER_107_739
*640 FILLER_107_751
*641 FILLER_107_755
*642 FILLER_107_757
*643 FILLER_107_769
*644 FILLER_107_781
*645 FILLER_107_793
*646 FILLER_108_703
*647 FILLER_108_715
*648 FILLER_108_727
*649 FILLER_108_729
*650 FILLER_108_741
*651 FILLER_108_753
*652 FILLER_108_765
*653 FILLER_108_777
*654 FILLER_108_781
*655 FILLER_108_783
*656 FILLER_108_785
*657 FILLER_108_797
*658 FILLER_109_703
*659 FILLER_109_715
*660 FILLER_109_727
*661 FILLER_109_739
*662 FILLER_109_751
*663 FILLER_109_755
*664 FILLER_109_757
*665 FILLER_109_769
*666 FILLER_109_781
*667 FILLER_109_793
*668 FILLER_10_703
*669 FILLER_10_713
*670 FILLER_10_725
*671 FILLER_10_727
*672 FILLER_10_729
*673 FILLER_10_743
*674 FILLER_10_755
*675 FILLER_10_767
*676 FILLER_10_779
*677 FILLER_10_783
*678 FILLER_10_785
*679 FILLER_10_797
*680 FILLER_110_703
*681 FILLER_110_715
*682 FILLER_110_727
*683 FILLER_110_729
*684 FILLER_110_741
*685 FILLER_110_753
*686 FILLER_110_765
*687 FILLER_110_777
*688 FILLER_110_781
*689 FILLER_110_783
*690 FILLER_110_785
*691 FILLER_110_797
*692 FILLER_111_703
*693 FILLER_111_715
*694 FILLER_111_727
*695 FILLER_111_739
*696 FILLER_111_751
*697 FILLER_111_755
*698 FILLER_111_757
*699 FILLER_111_769
*700 FILLER_111_781
*701 FILLER_111_793
*702 FILLER_112_703
*703 FILLER_112_715
*704 FILLER_112_727
*705 FILLER_112_729
*706 FILLER_112_741
*707 FILLER_112_753
*708 FILLER_112_765
*709 FILLER_112_777
*710 FILLER_112_781
*711 FILLER_112_783
*712 FILLER_112_785
*713 FILLER_112_797
*714 FILLER_113_703
*715 FILLER_113_715
*716 FILLER_113_727
*717 FILLER_113_739
*718 FILLER_113_751
*719 FILLER_113_755
*720 FILLER_113_757
*721 FILLER_113_769
*722 FILLER_113_781
*723 FILLER_113_793
*724 FILLER_114_703
*725 FILLER_114_715
*726 FILLER_114_727
*727 FILLER_114_729
*728 FILLER_114_741
*729 FILLER_114_753
*730 FILLER_114_765
*731 FILLER_114_777
*732 FILLER_114_781
*733 FILLER_114_783
*734 FILLER_114_785
*735 FILLER_114_797
*736 FILLER_115_703
*737 FILLER_115_715
*738 FILLER_115_727
*739 FILLER_115_739
*740 FILLER_115_751
*741 FILLER_115_755
*742 FILLER_115_757
*743 FILLER_115_769
*744 FILLER_115_781
*745 FILLER_115_793
*746 FILLER_116_703
*747 FILLER_116_715
*748 FILLER_116_727
*749 FILLER_116_729
*750 FILLER_116_741
*751 FILLER_116_753
*752 FILLER_116_765
*753 FILLER_116_777
*754 FILLER_116_781
*755 FILLER_116_783
*756 FILLER_116_785
*757 FILLER_116_797
*758 FILLER_117_703
*759 FILLER_117_715
*760 FILLER_117_727
*761 FILLER_117_739
*762 FILLER_117_751
*763 FILLER_117_755
*764 FILLER_117_757
*765 FILLER_117_769
*766 FILLER_117_781
*767 FILLER_117_793
*768 FILLER_118_703
*769 FILLER_118_715
*770 FILLER_118_727
*771 FILLER_118_729
*772 FILLER_118_741
*773 FILLER_118_753
*774 FILLER_118_765
*775 FILLER_118_777
*776 FILLER_118_781
*777 FILLER_118_783
*778 FILLER_118_785
*779 FILLER_118_797
*780 FILLER_119_703
*781 FILLER_119_715
*782 FILLER_119_727
*783 FILLER_119_739
*784 FILLER_119_751
*785 FILLER_119_755
*786 FILLER_119_757
*787 FILLER_119_769
*788 FILLER_119_781
*789 FILLER_119_793
*790 FILLER_11_705
*791 FILLER_11_709
*792 FILLER_11_713
*793 FILLER_11_725
*794 FILLER_11_737
*795 FILLER_11_743
*796 FILLER_11_755
*797 FILLER_11_757
*798 FILLER_11_769
*799 FILLER_11_781
*800 FILLER_11_793
*801 FILLER_120_703
*802 FILLER_120_715
*803 FILLER_120_727
*804 FILLER_120_729
*805 FILLER_120_741
*806 FILLER_120_753
*807 FILLER_120_765
*808 FILLER_120_777
*809 FILLER_120_781
*810 FILLER_120_783
*811 FILLER_120_785
*812 FILLER_120_797
*813 FILLER_121_703
*814 FILLER_121_715
*815 FILLER_121_727
*816 FILLER_121_739
*817 FILLER_121_751
*818 FILLER_121_755
*819 FILLER_121_757
*820 FILLER_121_769
*821 FILLER_121_781
*822 FILLER_121_793
*823 FILLER_122_703
*824 FILLER_122_715
*825 FILLER_122_727
*826 FILLER_122_729
*827 FILLER_122_741
*828 FILLER_122_753
*829 FILLER_122_765
*830 FILLER_122_777
*831 FILLER_122_781
*832 FILLER_122_783
*833 FILLER_122_785
*834 FILLER_122_797
*835 FILLER_123_703
*836 FILLER_123_715
*837 FILLER_123_727
*838 FILLER_123_739
*839 FILLER_123_751
*840 FILLER_123_755
*841 FILLER_123_757
*842 FILLER_123_769
*843 FILLER_123_781
*844 FILLER_123_793
*845 FILLER_124_703
*846 FILLER_124_715
*847 FILLER_124_727
*848 FILLER_124_729
*849 FILLER_124_741
*850 FILLER_124_753
*851 FILLER_124_765
*852 FILLER_124_777
*853 FILLER_124_781
*854 FILLER_124_783
*855 FILLER_124_785
*856 FILLER_124_797
*857 FILLER_125_703
*858 FILLER_125_715
*859 FILLER_125_727
*860 FILLER_125_739
*861 FILLER_125_751
*862 FILLER_125_755
*863 FILLER_125_757
*864 FILLER_125_769
*865 FILLER_125_781
*866 FILLER_125_793
*867 FILLER_126_703
*868 FILLER_126_715
*869 FILLER_126_727
*870 FILLER_126_729
*871 FILLER_126_741
*872 FILLER_126_753
*873 FILLER_126_765
*874 FILLER_126_777
*875 FILLER_126_781
*876 FILLER_126_783
*877 FILLER_126_785
*878 FILLER_126_797
*879 FILLER_127_703
*880 FILLER_127_715
*881 FILLER_127_727
*882 FILLER_127_739
*883 FILLER_127_751
*884 FILLER_127_755
*885 FILLER_127_757
*886 FILLER_127_769
*887 FILLER_127_781
*888 FILLER_127_793
*889 FILLER_128_703
*890 FILLER_128_715
*891 FILLER_128_727
*892 FILLER_128_729
*893 FILLER_128_741
*894 FILLER_128_753
*895 FILLER_128_765
*896 FILLER_128_777
*897 FILLER_128_781
*898 FILLER_128_783
*899 FILLER_128_785
*900 FILLER_128_797
*901 FILLER_129_703
*902 FILLER_129_715
*903 FILLER_129_727
*904 FILLER_129_739
*905 FILLER_129_751
*906 FILLER_129_755
*907 FILLER_129_757
*908 FILLER_129_769
*909 FILLER_129_781
*910 FILLER_129_793
*911 FILLER_12_703
*912 FILLER_12_715
*913 FILLER_12_727
*914 FILLER_12_729
*915 FILLER_12_741
*916 FILLER_12_753
*917 FILLER_12_765
*918 FILLER_12_777
*919 FILLER_12_781
*920 FILLER_12_783
*921 FILLER_12_785
*922 FILLER_12_797
*923 FILLER_130_703
*924 FILLER_130_715
*925 FILLER_130_727
*926 FILLER_130_729
*927 FILLER_130_741
*928 FILLER_130_753
*929 FILLER_130_765
*930 FILLER_130_777
*931 FILLER_130_781
*932 FILLER_130_783
*933 FILLER_130_785
*934 FILLER_130_797
*935 FILLER_131_703
*936 FILLER_131_715
*937 FILLER_131_727
*938 FILLER_131_739
*939 FILLER_131_751
*940 FILLER_131_755
*941 FILLER_131_757
*942 FILLER_131_769
*943 FILLER_131_781
*944 FILLER_131_793
*945 FILLER_132_703
*946 FILLER_132_715
*947 FILLER_132_727
*948 FILLER_132_729
*949 FILLER_132_741
*950 FILLER_132_753
*951 FILLER_132_765
*952 FILLER_132_777
*953 FILLER_132_781
*954 FILLER_132_783
*955 FILLER_132_785
*956 FILLER_132_797
*957 FILLER_133_703
*958 FILLER_133_715
*959 FILLER_133_727
*960 FILLER_133_739
*961 FILLER_133_751
*962 FILLER_133_755
*963 FILLER_133_757
*964 FILLER_133_769
*965 FILLER_133_781
*966 FILLER_133_793
*967 FILLER_134_703
*968 FILLER_134_715
*969 FILLER_134_727
*970 FILLER_134_729
*971 FILLER_134_741
*972 FILLER_134_753
*973 FILLER_134_765
*974 FILLER_134_777
*975 FILLER_134_781
*976 FILLER_134_783
*977 FILLER_134_785
*978 FILLER_134_797
*979 FILLER_135_703
*980 FILLER_135_715
*981 FILLER_135_727
*982 FILLER_135_739
*983 FILLER_135_751
*984 FILLER_135_755
*985 FILLER_135_757
*986 FILLER_135_769
*987 FILLER_135_781
*988 FILLER_135_793
*989 FILLER_136_703
*990 FILLER_136_715
*991 FILLER_136_727
*992 FILLER_136_729
*993 FILLER_136_741
*994 FILLER_136_753
*995 FILLER_136_765
*996 FILLER_136_777
*997 FILLER_136_781
*998 FILLER_136_783
*999 FILLER_136_785
*1000 FILLER_136_797
*1001 FILLER_137_703
*1002 FILLER_137_715
*1003 FILLER_137_727
*1004 FILLER_137_739
*1005 FILLER_137_751
*1006 FILLER_137_755
*1007 FILLER_137_757
*1008 FILLER_137_769
*1009 FILLER_137_781
*1010 FILLER_137_793
*1011 FILLER_138_703
*1012 FILLER_138_715
*1013 FILLER_138_727
*1014 FILLER_138_729
*1015 FILLER_138_741
*1016 FILLER_138_753
*1017 FILLER_138_765
*1018 FILLER_138_777
*1019 FILLER_138_781
*1020 FILLER_138_783
*1021 FILLER_138_785
*1022 FILLER_138_797
*1023 FILLER_139_703
*1024 FILLER_139_715
*1025 FILLER_139_727
*1026 FILLER_139_739
*1027 FILLER_139_751
*1028 FILLER_139_755
*1029 FILLER_139_757
*1030 FILLER_139_769
*1031 FILLER_139_781
*1032 FILLER_139_793
*1033 FILLER_13_703
*1034 FILLER_13_715
*1035 FILLER_13_727
*1036 FILLER_13_739
*1037 FILLER_13_751
*1038 FILLER_13_755
*1039 FILLER_13_757
*1040 FILLER_13_769
*1041 FILLER_13_781
*1042 FILLER_13_793
*1043 FILLER_140_703
*1044 FILLER_140_715
*1045 FILLER_140_727
*1046 FILLER_140_729
*1047 FILLER_140_741
*1048 FILLER_140_753
*1049 FILLER_140_765
*1050 FILLER_140_777
*1051 FILLER_140_781
*1052 FILLER_140_783
*1053 FILLER_140_785
*1054 FILLER_140_797
*1055 FILLER_141_703
*1056 FILLER_141_715
*1057 FILLER_141_727
*1058 FILLER_141_739
*1059 FILLER_141_751
*1060 FILLER_141_755
*1061 FILLER_141_757
*1062 FILLER_141_769
*1063 FILLER_141_781
*1064 FILLER_141_793
*1065 FILLER_142_703
*1066 FILLER_142_715
*1067 FILLER_142_727
*1068 FILLER_142_729
*1069 FILLER_142_741
*1070 FILLER_142_753
*1071 FILLER_142_765
*1072 FILLER_142_777
*1073 FILLER_142_781
*1074 FILLER_142_783
*1075 FILLER_142_785
*1076 FILLER_142_797
*1077 FILLER_143_703
*1078 FILLER_143_715
*1079 FILLER_143_727
*1080 FILLER_143_739
*1081 FILLER_143_751
*1082 FILLER_143_755
*1083 FILLER_143_757
*1084 FILLER_143_769
*1085 FILLER_143_781
*1086 FILLER_143_793
*1087 FILLER_144_703
*1088 FILLER_144_715
*1089 FILLER_144_727
*1090 FILLER_144_729
*1091 FILLER_144_741
*1092 FILLER_144_753
*1093 FILLER_144_765
*1094 FILLER_144_777
*1095 FILLER_144_781
*1096 FILLER_144_783
*1097 FILLER_144_785
*1098 FILLER_144_797
*1099 FILLER_145_703
*1100 FILLER_145_715
*1101 FILLER_145_727
*1102 FILLER_145_739
*1103 FILLER_145_751
*1104 FILLER_145_755
*1105 FILLER_145_757
*1106 FILLER_145_769
*1107 FILLER_145_781
*1108 FILLER_145_793
*1109 FILLER_146_703
*1110 FILLER_146_715
*1111 FILLER_146_727
*1112 FILLER_146_729
*1113 FILLER_146_741
*1114 FILLER_146_753
*1115 FILLER_146_765
*1116 FILLER_146_777
*1117 FILLER_146_781
*1118 FILLER_146_783
*1119 FILLER_146_785
*1120 FILLER_146_797
*1121 FILLER_147_703
*1122 FILLER_147_715
*1123 FILLER_147_727
*1124 FILLER_147_739
*1125 FILLER_147_751
*1126 FILLER_147_755
*1127 FILLER_147_757
*1128 FILLER_147_769
*1129 FILLER_147_781
*1130 FILLER_147_793
*1131 FILLER_148_703
*1132 FILLER_148_715
*1133 FILLER_148_727
*1134 FILLER_148_729
*1135 FILLER_148_741
*1136 FILLER_148_753
*1137 FILLER_148_765
*1138 FILLER_148_777
*1139 FILLER_148_781
*1140 FILLER_148_783
*1141 FILLER_148_785
*1142 FILLER_148_797
*1143 FILLER_149_703
*1144 FILLER_149_715
*1145 FILLER_149_727
*1146 FILLER_149_739
*1147 FILLER_149_751
*1148 FILLER_149_755
*1149 FILLER_149_757
*1150 FILLER_149_769
*1151 FILLER_149_781
*1152 FILLER_149_793
*1153 FILLER_14_703
*1154 FILLER_14_715
*1155 FILLER_14_727
*1156 FILLER_14_729
*1157 FILLER_14_741
*1158 FILLER_14_753
*1159 FILLER_14_765
*1160 FILLER_14_777
*1161 FILLER_14_781
*1162 FILLER_14_783
*1163 FILLER_14_785
*1164 FILLER_14_797
*1165 FILLER_150_703
*1166 FILLER_150_715
*1167 FILLER_150_727
*1168 FILLER_150_729
*1169 FILLER_150_741
*1170 FILLER_150_753
*1171 FILLER_150_765
*1172 FILLER_150_777
*1173 FILLER_150_781
*1174 FILLER_150_783
*1175 FILLER_150_785
*1176 FILLER_150_797
*1177 FILLER_151_703
*1178 FILLER_151_715
*1179 FILLER_151_727
*1180 FILLER_151_739
*1181 FILLER_151_751
*1182 FILLER_151_755
*1183 FILLER_151_757
*1184 FILLER_151_769
*1185 FILLER_151_781
*1186 FILLER_151_793
*1187 FILLER_152_703
*1188 FILLER_152_715
*1189 FILLER_152_727
*1190 FILLER_152_729
*1191 FILLER_152_741
*1192 FILLER_152_753
*1193 FILLER_152_765
*1194 FILLER_152_777
*1195 FILLER_152_781
*1196 FILLER_152_783
*1197 FILLER_152_785
*1198 FILLER_152_797
*1199 FILLER_153_703
*1200 FILLER_153_715
*1201 FILLER_153_727
*1202 FILLER_153_739
*1203 FILLER_153_751
*1204 FILLER_153_755
*1205 FILLER_153_757
*1206 FILLER_153_769
*1207 FILLER_153_781
*1208 FILLER_153_793
*1209 FILLER_154_703
*1210 FILLER_154_715
*1211 FILLER_154_727
*1212 FILLER_154_729
*1213 FILLER_154_741
*1214 FILLER_154_753
*1215 FILLER_154_765
*1216 FILLER_154_777
*1217 FILLER_154_781
*1218 FILLER_154_783
*1219 FILLER_154_785
*1220 FILLER_154_797
*1221 FILLER_155_703
*1222 FILLER_155_715
*1223 FILLER_155_727
*1224 FILLER_155_729
*1225 FILLER_155_741
*1226 FILLER_155_753
*1227 FILLER_155_755
*1228 FILLER_155_757
*1229 FILLER_155_769
*1230 FILLER_155_781
*1231 FILLER_155_783
*1232 FILLER_155_785
*1233 FILLER_155_797
*1234 FILLER_15_703
*1235 FILLER_15_715
*1236 FILLER_15_727
*1237 FILLER_15_739
*1238 FILLER_15_751
*1239 FILLER_15_755
*1240 FILLER_15_757
*1241 FILLER_15_769
*1242 FILLER_15_781
*1243 FILLER_15_793
*1244 FILLER_16_703
*1245 FILLER_16_715
*1246 FILLER_16_727
*1247 FILLER_16_729
*1248 FILLER_16_741
*1249 FILLER_16_753
*1250 FILLER_16_765
*1251 FILLER_16_777
*1252 FILLER_16_781
*1253 FILLER_16_783
*1254 FILLER_16_785
*1255 FILLER_16_797
*1256 FILLER_17_703
*1257 FILLER_17_715
*1258 FILLER_17_727
*1259 FILLER_17_739
*1260 FILLER_17_751
*1261 FILLER_17_755
*1262 FILLER_17_757
*1263 FILLER_17_769
*1264 FILLER_17_781
*1265 FILLER_17_793
*1266 FILLER_18_703
*1267 FILLER_18_715
*1268 FILLER_18_727
*1269 FILLER_18_729
*1270 FILLER_18_741
*1271 FILLER_18_753
*1272 FILLER_18_765
*1273 FILLER_18_777
*1274 FILLER_18_781
*1275 FILLER_18_783
*1276 FILLER_18_785
*1277 FILLER_18_797
*1278 FILLER_19_703
*1279 FILLER_19_715
*1280 FILLER_19_727
*1281 FILLER_19_739
*1282 FILLER_19_751
*1283 FILLER_19_755
*1284 FILLER_19_757
*1285 FILLER_19_769
*1286 FILLER_19_781
*1287 FILLER_19_793
*1288 FILLER_1_105
*1289 FILLER_1_109
*1290 FILLER_1_111
*1291 FILLER_1_113
*1292 FILLER_1_125
*1293 FILLER_1_137
*1294 FILLER_1_149
*1295 FILLER_1_15
*1296 FILLER_1_161
*1297 FILLER_1_165
*1298 FILLER_1_167
*1299 FILLER_1_169
*1300 FILLER_1_181
*1301 FILLER_1_193
*1302 FILLER_1_205
*1303 FILLER_1_217
*1304 FILLER_1_221
*1305 FILLER_1_223
*1306 FILLER_1_225
*1307 FILLER_1_237
*1308 FILLER_1_249
*1309 FILLER_1_251
*1310 FILLER_1_27
*1311 FILLER_1_3
*1312 FILLER_1_301
*1313 FILLER_1_303
*1314 FILLER_1_337
*1315 FILLER_1_339
*1316 FILLER_1_356
*1317 FILLER_1_39
*1318 FILLER_1_447
*1319 FILLER_1_449
*1320 FILLER_1_490
*1321 FILLER_1_509
*1322 FILLER_1_51
*1323 FILLER_1_55
*1324 FILLER_1_556
*1325 FILLER_1_569
*1326 FILLER_1_57
*1327 FILLER_1_625
*1328 FILLER_1_629
*1329 FILLER_1_657
*1330 FILLER_1_661
*1331 FILLER_1_671
*1332 FILLER_1_673
*1333 FILLER_1_677
*1334 FILLER_1_69
*1335 FILLER_1_697
*1336 FILLER_1_709
*1337 FILLER_1_727
*1338 FILLER_1_729
*1339 FILLER_1_781
*1340 FILLER_1_783
*1341 FILLER_1_785
*1342 FILLER_1_797
*1343 FILLER_1_81
*1344 FILLER_1_93
*1345 FILLER_20_703
*1346 FILLER_20_715
*1347 FILLER_20_727
*1348 FILLER_20_729
*1349 FILLER_20_741
*1350 FILLER_20_753
*1351 FILLER_20_765
*1352 FILLER_20_777
*1353 FILLER_20_781
*1354 FILLER_20_783
*1355 FILLER_20_785
*1356 FILLER_20_797
*1357 FILLER_21_703
*1358 FILLER_21_715
*1359 FILLER_21_727
*1360 FILLER_21_739
*1361 FILLER_21_751
*1362 FILLER_21_755
*1363 FILLER_21_757
*1364 FILLER_21_769
*1365 FILLER_21_781
*1366 FILLER_21_793
*1367 FILLER_22_703
*1368 FILLER_22_715
*1369 FILLER_22_727
*1370 FILLER_22_729
*1371 FILLER_22_741
*1372 FILLER_22_753
*1373 FILLER_22_765
*1374 FILLER_22_777
*1375 FILLER_22_781
*1376 FILLER_22_783
*1377 FILLER_22_785
*1378 FILLER_22_797
*1379 FILLER_23_703
*1380 FILLER_23_715
*1381 FILLER_23_727
*1382 FILLER_23_739
*1383 FILLER_23_751
*1384 FILLER_23_755
*1385 FILLER_23_757
*1386 FILLER_23_769
*1387 FILLER_23_781
*1388 FILLER_23_793
*1389 FILLER_24_703
*1390 FILLER_24_715
*1391 FILLER_24_727
*1392 FILLER_24_729
*1393 FILLER_24_741
*1394 FILLER_24_753
*1395 FILLER_24_765
*1396 FILLER_24_777
*1397 FILLER_24_781
*1398 FILLER_24_783
*1399 FILLER_24_785
*1400 FILLER_24_797
*1401 FILLER_25_703
*1402 FILLER_25_715
*1403 FILLER_25_727
*1404 FILLER_25_739
*1405 FILLER_25_751
*1406 FILLER_25_755
*1407 FILLER_25_757
*1408 FILLER_25_769
*1409 FILLER_25_781
*1410 FILLER_25_793
*1411 FILLER_26_703
*1412 FILLER_26_715
*1413 FILLER_26_727
*1414 FILLER_26_729
*1415 FILLER_26_741
*1416 FILLER_26_753
*1417 FILLER_26_765
*1418 FILLER_26_777
*1419 FILLER_26_781
*1420 FILLER_26_783
*1421 FILLER_26_785
*1422 FILLER_26_797
*1423 FILLER_27_703
*1424 FILLER_27_715
*1425 FILLER_27_727
*1426 FILLER_27_739
*1427 FILLER_27_751
*1428 FILLER_27_755
*1429 FILLER_27_757
*1430 FILLER_27_769
*1431 FILLER_27_781
*1432 FILLER_27_793
*1433 FILLER_28_703
*1434 FILLER_28_715
*1435 FILLER_28_727
*1436 FILLER_28_729
*1437 FILLER_28_741
*1438 FILLER_28_753
*1439 FILLER_28_765
*1440 FILLER_28_777
*1441 FILLER_28_781
*1442 FILLER_28_783
*1443 FILLER_28_785
*1444 FILLER_28_797
*1445 FILLER_29_703
*1446 FILLER_29_715
*1447 FILLER_29_727
*1448 FILLER_29_739
*1449 FILLER_29_751
*1450 FILLER_29_755
*1451 FILLER_29_757
*1452 FILLER_29_769
*1453 FILLER_29_781
*1454 FILLER_29_793
*1455 FILLER_2_109
*1456 FILLER_2_121
*1457 FILLER_2_133
*1458 FILLER_2_137
*1459 FILLER_2_139
*1460 FILLER_2_141
*1461 FILLER_2_15
*1462 FILLER_2_153
*1463 FILLER_2_165
*1464 FILLER_2_177
*1465 FILLER_2_189
*1466 FILLER_2_193
*1467 FILLER_2_195
*1468 FILLER_2_197
*1469 FILLER_2_209
*1470 FILLER_2_221
*1471 FILLER_2_233
*1472 FILLER_2_245
*1473 FILLER_2_249
*1474 FILLER_2_251
*1475 FILLER_2_253
*1476 FILLER_2_255
*1477 FILLER_2_27
*1478 FILLER_2_29
*1479 FILLER_2_296
*1480 FILLER_2_3
*1481 FILLER_2_309
*1482 FILLER_2_313
*1483 FILLER_2_326
*1484 FILLER_2_330
*1485 FILLER_2_363
*1486 FILLER_2_365
*1487 FILLER_2_369
*1488 FILLER_2_378
*1489 FILLER_2_388
*1490 FILLER_2_408
*1491 FILLER_2_41
*1492 FILLER_2_418
*1493 FILLER_2_421
*1494 FILLER_2_431
*1495 FILLER_2_433
*1496 FILLER_2_474
*1497 FILLER_2_477
*1498 FILLER_2_491
*1499 FILLER_2_501
*1500 FILLER_2_513
*1501 FILLER_2_529
*1502 FILLER_2_53
*1503 FILLER_2_531
*1504 FILLER_2_533
*1505 FILLER_2_542
*1506 FILLER_2_564
*1507 FILLER_2_568
*1508 FILLER_2_570
*1509 FILLER_2_585
*1510 FILLER_2_587
*1511 FILLER_2_597
*1512 FILLER_2_599
*1513 FILLER_2_614
*1514 FILLER_2_616
*1515 FILLER_2_623
*1516 FILLER_2_641
*1517 FILLER_2_643
*1518 FILLER_2_65
*1519 FILLER_2_653
*1520 FILLER_2_673
*1521 FILLER_2_677
*1522 FILLER_2_697
*1523 FILLER_2_699
*1524 FILLER_2_701
*1525 FILLER_2_735
*1526 FILLER_2_739
*1527 FILLER_2_751
*1528 FILLER_2_755
*1529 FILLER_2_77
*1530 FILLER_2_771
*1531 FILLER_2_779
*1532 FILLER_2_791
*1533 FILLER_2_799
*1534 FILLER_2_81
*1535 FILLER_2_83
*1536 FILLER_2_85
*1537 FILLER_2_97
*1538 FILLER_30_703
*1539 FILLER_30_715
*1540 FILLER_30_727
*1541 FILLER_30_729
*1542 FILLER_30_741
*1543 FILLER_30_753
*1544 FILLER_30_765
*1545 FILLER_30_777
*1546 FILLER_30_781
*1547 FILLER_30_783
*1548 FILLER_30_785
*1549 FILLER_30_797
*1550 FILLER_31_703
*1551 FILLER_31_715
*1552 FILLER_31_727
*1553 FILLER_31_739
*1554 FILLER_31_751
*1555 FILLER_31_755
*1556 FILLER_31_757
*1557 FILLER_31_769
*1558 FILLER_31_781
*1559 FILLER_31_793
*1560 FILLER_32_703
*1561 FILLER_32_715
*1562 FILLER_32_727
*1563 FILLER_32_729
*1564 FILLER_32_741
*1565 FILLER_32_753
*1566 FILLER_32_765
*1567 FILLER_32_777
*1568 FILLER_32_781
*1569 FILLER_32_783
*1570 FILLER_32_785
*1571 FILLER_32_797
*1572 FILLER_33_703
*1573 FILLER_33_715
*1574 FILLER_33_727
*1575 FILLER_33_739
*1576 FILLER_33_751
*1577 FILLER_33_755
*1578 FILLER_33_757
*1579 FILLER_33_769
*1580 FILLER_33_781
*1581 FILLER_33_793
*1582 FILLER_34_703
*1583 FILLER_34_715
*1584 FILLER_34_727
*1585 FILLER_34_729
*1586 FILLER_34_741
*1587 FILLER_34_753
*1588 FILLER_34_765
*1589 FILLER_34_777
*1590 FILLER_34_781
*1591 FILLER_34_783
*1592 FILLER_34_785
*1593 FILLER_34_797
*1594 FILLER_35_703
*1595 FILLER_35_715
*1596 FILLER_35_727
*1597 FILLER_35_739
*1598 FILLER_35_751
*1599 FILLER_35_755
*1600 FILLER_35_757
*1601 FILLER_35_769
*1602 FILLER_35_781
*1603 FILLER_35_793
*1604 FILLER_36_703
*1605 FILLER_36_715
*1606 FILLER_36_727
*1607 FILLER_36_729
*1608 FILLER_36_741
*1609 FILLER_36_753
*1610 FILLER_36_765
*1611 FILLER_36_777
*1612 FILLER_36_781
*1613 FILLER_36_783
*1614 FILLER_36_785
*1615 FILLER_36_797
*1616 FILLER_37_703
*1617 FILLER_37_715
*1618 FILLER_37_727
*1619 FILLER_37_739
*1620 FILLER_37_751
*1621 FILLER_37_755
*1622 FILLER_37_757
*1623 FILLER_37_769
*1624 FILLER_37_781
*1625 FILLER_37_793
*1626 FILLER_38_703
*1627 FILLER_38_715
*1628 FILLER_38_727
*1629 FILLER_38_729
*1630 FILLER_38_741
*1631 FILLER_38_753
*1632 FILLER_38_765
*1633 FILLER_38_777
*1634 FILLER_38_781
*1635 FILLER_38_783
*1636 FILLER_38_785
*1637 FILLER_38_797
*1638 FILLER_39_711
*1639 FILLER_39_723
*1640 FILLER_39_735
*1641 FILLER_39_747
*1642 FILLER_39_755
*1643 FILLER_39_757
*1644 FILLER_39_769
*1645 FILLER_39_781
*1646 FILLER_39_793
*1647 FILLER_3_105
*1648 FILLER_3_109
*1649 FILLER_3_111
*1650 FILLER_3_113
*1651 FILLER_3_125
*1652 FILLER_3_137
*1653 FILLER_3_149
*1654 FILLER_3_15
*1655 FILLER_3_161
*1656 FILLER_3_165
*1657 FILLER_3_167
*1658 FILLER_3_169
*1659 FILLER_3_181
*1660 FILLER_3_193
*1661 FILLER_3_205
*1662 FILLER_3_217
*1663 FILLER_3_221
*1664 FILLER_3_223
*1665 FILLER_3_225
*1666 FILLER_3_237
*1667 FILLER_3_249
*1668 FILLER_3_257
*1669 FILLER_3_259
*1670 FILLER_3_264
*1671 FILLER_3_27
*1672 FILLER_3_287
*1673 FILLER_3_3
*1674 FILLER_3_337
*1675 FILLER_3_348
*1676 FILLER_3_372
*1677 FILLER_3_379
*1678 FILLER_3_388
*1679 FILLER_3_39
*1680 FILLER_3_407
*1681 FILLER_3_415
*1682 FILLER_3_427
*1683 FILLER_3_435
*1684 FILLER_3_457
*1685 FILLER_3_465
*1686 FILLER_3_484
*1687 FILLER_3_496
*1688 FILLER_3_505
*1689 FILLER_3_51
*1690 FILLER_3_517
*1691 FILLER_3_529
*1692 FILLER_3_541
*1693 FILLER_3_55
*1694 FILLER_3_553
*1695 FILLER_3_557
*1696 FILLER_3_559
*1697 FILLER_3_561
*1698 FILLER_3_57
*1699 FILLER_3_573
*1700 FILLER_3_585
*1701 FILLER_3_597
*1702 FILLER_3_609
*1703 FILLER_3_613
*1704 FILLER_3_615
*1705 FILLER_3_617
*1706 FILLER_3_629
*1707 FILLER_3_665
*1708 FILLER_3_669
*1709 FILLER_3_671
*1710 FILLER_3_673
*1711 FILLER_3_677
*1712 FILLER_3_681
*1713 FILLER_3_69
*1714 FILLER_3_707
*1715 FILLER_3_713
*1716 FILLER_3_717
*1717 FILLER_3_726
*1718 FILLER_3_729
*1719 FILLER_3_759
*1720 FILLER_3_771
*1721 FILLER_3_783
*1722 FILLER_3_785
*1723 FILLER_3_797
*1724 FILLER_3_81
*1725 FILLER_3_93
*1726 FILLER_40_719
*1727 FILLER_40_727
*1728 FILLER_40_729
*1729 FILLER_40_741
*1730 FILLER_40_753
*1731 FILLER_40_765
*1732 FILLER_40_777
*1733 FILLER_40_781
*1734 FILLER_40_783
*1735 FILLER_40_785
*1736 FILLER_40_797
*1737 FILLER_41_729
*1738 FILLER_41_741
*1739 FILLER_41_753
*1740 FILLER_41_755
*1741 FILLER_41_757
*1742 FILLER_41_769
*1743 FILLER_41_781
*1744 FILLER_41_793
*1745 FILLER_42_719
*1746 FILLER_42_727
*1747 FILLER_42_729
*1748 FILLER_42_741
*1749 FILLER_42_753
*1750 FILLER_42_765
*1751 FILLER_42_777
*1752 FILLER_42_781
*1753 FILLER_42_783
*1754 FILLER_42_785
*1755 FILLER_42_797
*1756 FILLER_43_713
*1757 FILLER_43_725
*1758 FILLER_43_737
*1759 FILLER_43_749
*1760 FILLER_43_753
*1761 FILLER_43_755
*1762 FILLER_43_757
*1763 FILLER_43_769
*1764 FILLER_43_781
*1765 FILLER_43_793
*1766 FILLER_44_713
*1767 FILLER_44_725
*1768 FILLER_44_727
*1769 FILLER_44_729
*1770 FILLER_44_741
*1771 FILLER_44_753
*1772 FILLER_44_765
*1773 FILLER_44_777
*1774 FILLER_44_781
*1775 FILLER_44_783
*1776 FILLER_44_785
*1777 FILLER_44_797
*1778 FILLER_45_703
*1779 FILLER_45_715
*1780 FILLER_45_727
*1781 FILLER_45_739
*1782 FILLER_45_751
*1783 FILLER_45_755
*1784 FILLER_45_757
*1785 FILLER_45_769
*1786 FILLER_45_781
*1787 FILLER_45_793
*1788 FILLER_46_711
*1789 FILLER_46_723
*1790 FILLER_46_727
*1791 FILLER_46_729
*1792 FILLER_46_741
*1793 FILLER_46_753
*1794 FILLER_46_765
*1795 FILLER_46_777
*1796 FILLER_46_781
*1797 FILLER_46_783
*1798 FILLER_46_785
*1799 FILLER_46_797
*1800 FILLER_47_719
*1801 FILLER_47_731
*1802 FILLER_47_743
*1803 FILLER_47_755
*1804 FILLER_47_757
*1805 FILLER_47_769
*1806 FILLER_47_781
*1807 FILLER_47_793
*1808 FILLER_48_711
*1809 FILLER_48_723
*1810 FILLER_48_727
*1811 FILLER_48_729
*1812 FILLER_48_741
*1813 FILLER_48_753
*1814 FILLER_48_765
*1815 FILLER_48_777
*1816 FILLER_48_781
*1817 FILLER_48_783
*1818 FILLER_48_785
*1819 FILLER_48_797
*1820 FILLER_49_711
*1821 FILLER_49_723
*1822 FILLER_49_735
*1823 FILLER_49_747
*1824 FILLER_49_755
*1825 FILLER_49_757
*1826 FILLER_49_769
*1827 FILLER_49_781
*1828 FILLER_49_793
*1829 FILLER_4_109
*1830 FILLER_4_121
*1831 FILLER_4_133
*1832 FILLER_4_137
*1833 FILLER_4_139
*1834 FILLER_4_141
*1835 FILLER_4_15
*1836 FILLER_4_153
*1837 FILLER_4_165
*1838 FILLER_4_177
*1839 FILLER_4_189
*1840 FILLER_4_193
*1841 FILLER_4_195
*1842 FILLER_4_197
*1843 FILLER_4_209
*1844 FILLER_4_221
*1845 FILLER_4_233
*1846 FILLER_4_245
*1847 FILLER_4_249
*1848 FILLER_4_251
*1849 FILLER_4_253
*1850 FILLER_4_265
*1851 FILLER_4_27
*1852 FILLER_4_277
*1853 FILLER_4_281
*1854 FILLER_4_283
*1855 FILLER_4_29
*1856 FILLER_4_3
*1857 FILLER_4_309
*1858 FILLER_4_327
*1859 FILLER_4_336
*1860 FILLER_4_356
*1861 FILLER_4_360
*1862 FILLER_4_375
*1863 FILLER_4_391
*1864 FILLER_4_395
*1865 FILLER_4_397
*1866 FILLER_4_404
*1867 FILLER_4_41
*1868 FILLER_4_416
*1869 FILLER_4_421
*1870 FILLER_4_433
*1871 FILLER_4_443
*1872 FILLER_4_455
*1873 FILLER_4_467
*1874 FILLER_4_475
*1875 FILLER_4_477
*1876 FILLER_4_489
*1877 FILLER_4_501
*1878 FILLER_4_515
*1879 FILLER_4_527
*1880 FILLER_4_53
*1881 FILLER_4_531
*1882 FILLER_4_533
*1883 FILLER_4_545
*1884 FILLER_4_557
*1885 FILLER_4_569
*1886 FILLER_4_583
*1887 FILLER_4_587
*1888 FILLER_4_589
*1889 FILLER_4_601
*1890 FILLER_4_613
*1891 FILLER_4_619
*1892 FILLER_4_639
*1893 FILLER_4_643
*1894 FILLER_4_645
*1895 FILLER_4_65
*1896 FILLER_4_657
*1897 FILLER_4_661
*1898 FILLER_4_665
*1899 FILLER_4_677
*1900 FILLER_4_681
*1901 FILLER_4_699
*1902 FILLER_4_701
*1903 FILLER_4_709
*1904 FILLER_4_713
*1905 FILLER_4_725
*1906 FILLER_4_737
*1907 FILLER_4_743
*1908 FILLER_4_755
*1909 FILLER_4_757
*1910 FILLER_4_769
*1911 FILLER_4_77
*1912 FILLER_4_781
*1913 FILLER_4_793
*1914 FILLER_4_81
*1915 FILLER_4_83
*1916 FILLER_4_85
*1917 FILLER_4_97
*1918 FILLER_50_723
*1919 FILLER_50_727
*1920 FILLER_50_729
*1921 FILLER_50_741
*1922 FILLER_50_753
*1923 FILLER_50_765
*1924 FILLER_50_777
*1925 FILLER_50_781
*1926 FILLER_50_783
*1927 FILLER_50_785
*1928 FILLER_50_797
*1929 FILLER_51_703
*1930 FILLER_51_715
*1931 FILLER_51_727
*1932 FILLER_51_739
*1933 FILLER_51_751
*1934 FILLER_51_755
*1935 FILLER_51_757
*1936 FILLER_51_769
*1937 FILLER_51_781
*1938 FILLER_51_793
*1939 FILLER_52_711
*1940 FILLER_52_723
*1941 FILLER_52_727
*1942 FILLER_52_729
*1943 FILLER_52_741
*1944 FILLER_52_753
*1945 FILLER_52_765
*1946 FILLER_52_777
*1947 FILLER_52_781
*1948 FILLER_52_783
*1949 FILLER_52_785
*1950 FILLER_52_797
*1951 FILLER_53_703
*1952 FILLER_53_715
*1953 FILLER_53_727
*1954 FILLER_53_739
*1955 FILLER_53_751
*1956 FILLER_53_755
*1957 FILLER_53_757
*1958 FILLER_53_769
*1959 FILLER_53_781
*1960 FILLER_53_793
*1961 FILLER_54_711
*1962 FILLER_54_723
*1963 FILLER_54_727
*1964 FILLER_54_729
*1965 FILLER_54_741
*1966 FILLER_54_753
*1967 FILLER_54_765
*1968 FILLER_54_777
*1969 FILLER_54_781
*1970 FILLER_54_783
*1971 FILLER_54_785
*1972 FILLER_54_797
*1973 FILLER_55_703
*1974 FILLER_55_715
*1975 FILLER_55_727
*1976 FILLER_55_739
*1977 FILLER_55_751
*1978 FILLER_55_755
*1979 FILLER_55_757
*1980 FILLER_55_769
*1981 FILLER_55_781
*1982 FILLER_55_793
*1983 FILLER_56_711
*1984 FILLER_56_723
*1985 FILLER_56_727
*1986 FILLER_56_729
*1987 FILLER_56_741
*1988 FILLER_56_753
*1989 FILLER_56_765
*1990 FILLER_56_777
*1991 FILLER_56_781
*1992 FILLER_56_783
*1993 FILLER_56_785
*1994 FILLER_56_797
*1995 FILLER_57_703
*1996 FILLER_57_715
*1997 FILLER_57_727
*1998 FILLER_57_739
*1999 FILLER_57_751
*2000 FILLER_57_755
*2001 FILLER_57_757
*2002 FILLER_57_769
*2003 FILLER_57_781
*2004 FILLER_57_793
*2005 FILLER_58_711
*2006 FILLER_58_723
*2007 FILLER_58_727
*2008 FILLER_58_729
*2009 FILLER_58_741
*2010 FILLER_58_753
*2011 FILLER_58_765
*2012 FILLER_58_777
*2013 FILLER_58_781
*2014 FILLER_58_783
*2015 FILLER_58_785
*2016 FILLER_58_797
*2017 FILLER_59_703
*2018 FILLER_59_715
*2019 FILLER_59_727
*2020 FILLER_59_739
*2021 FILLER_59_751
*2022 FILLER_59_755
*2023 FILLER_59_757
*2024 FILLER_59_769
*2025 FILLER_59_781
*2026 FILLER_59_793
*2027 FILLER_5_105
*2028 FILLER_5_109
*2029 FILLER_5_111
*2030 FILLER_5_113
*2031 FILLER_5_125
*2032 FILLER_5_137
*2033 FILLER_5_149
*2034 FILLER_5_15
*2035 FILLER_5_161
*2036 FILLER_5_165
*2037 FILLER_5_167
*2038 FILLER_5_169
*2039 FILLER_5_181
*2040 FILLER_5_193
*2041 FILLER_5_205
*2042 FILLER_5_217
*2043 FILLER_5_221
*2044 FILLER_5_223
*2045 FILLER_5_225
*2046 FILLER_5_237
*2047 FILLER_5_249
*2048 FILLER_5_261
*2049 FILLER_5_27
*2050 FILLER_5_273
*2051 FILLER_5_277
*2052 FILLER_5_279
*2053 FILLER_5_281
*2054 FILLER_5_283
*2055 FILLER_5_298
*2056 FILLER_5_3
*2057 FILLER_5_337
*2058 FILLER_5_388
*2059 FILLER_5_39
*2060 FILLER_5_393
*2061 FILLER_5_405
*2062 FILLER_5_417
*2063 FILLER_5_425
*2064 FILLER_5_433
*2065 FILLER_5_445
*2066 FILLER_5_447
*2067 FILLER_5_449
*2068 FILLER_5_461
*2069 FILLER_5_473
*2070 FILLER_5_485
*2071 FILLER_5_493
*2072 FILLER_5_505
*2073 FILLER_5_509
*2074 FILLER_5_51
*2075 FILLER_5_521
*2076 FILLER_5_525
*2077 FILLER_5_527
*2078 FILLER_5_538
*2079 FILLER_5_542
*2080 FILLER_5_544
*2081 FILLER_5_55
*2082 FILLER_5_555
*2083 FILLER_5_559
*2084 FILLER_5_561
*2085 FILLER_5_57
*2086 FILLER_5_572
*2087 FILLER_5_580
*2088 FILLER_5_589
*2089 FILLER_5_593
*2090 FILLER_5_595
*2091 FILLER_5_606
*2092 FILLER_5_614
*2093 FILLER_5_625
*2094 FILLER_5_629
*2095 FILLER_5_639
*2096 FILLER_5_655
*2097 FILLER_5_665
*2098 FILLER_5_669
*2099 FILLER_5_671
*2100 FILLER_5_673
*2101 FILLER_5_677
*2102 FILLER_5_687
*2103 FILLER_5_69
*2104 FILLER_5_699
*2105 FILLER_5_703
*2106 FILLER_5_713
*2107 FILLER_5_725
*2108 FILLER_5_729
*2109 FILLER_5_743
*2110 FILLER_5_755
*2111 FILLER_5_767
*2112 FILLER_5_779
*2113 FILLER_5_783
*2114 FILLER_5_785
*2115 FILLER_5_797
*2116 FILLER_5_81
*2117 FILLER_5_93
*2118 FILLER_60_711
*2119 FILLER_60_723
*2120 FILLER_60_727
*2121 FILLER_60_729
*2122 FILLER_60_741
*2123 FILLER_60_753
*2124 FILLER_60_765
*2125 FILLER_60_777
*2126 FILLER_60_781
*2127 FILLER_60_783
*2128 FILLER_60_785
*2129 FILLER_60_797
*2130 FILLER_61_711
*2131 FILLER_61_723
*2132 FILLER_61_735
*2133 FILLER_61_747
*2134 FILLER_61_755
*2135 FILLER_61_757
*2136 FILLER_61_769
*2137 FILLER_61_781
*2138 FILLER_61_793
*2139 FILLER_62_719
*2140 FILLER_62_727
*2141 FILLER_62_729
*2142 FILLER_62_741
*2143 FILLER_62_753
*2144 FILLER_62_765
*2145 FILLER_62_777
*2146 FILLER_62_781
*2147 FILLER_62_783
*2148 FILLER_62_785
*2149 FILLER_62_797
*2150 FILLER_63_723
*2151 FILLER_63_735
*2152 FILLER_63_747
*2153 FILLER_63_755
*2154 FILLER_63_757
*2155 FILLER_63_769
*2156 FILLER_63_781
*2157 FILLER_63_793
*2158 FILLER_64_711
*2159 FILLER_64_723
*2160 FILLER_64_727
*2161 FILLER_64_729
*2162 FILLER_64_741
*2163 FILLER_64_753
*2164 FILLER_64_765
*2165 FILLER_64_777
*2166 FILLER_64_781
*2167 FILLER_64_783
*2168 FILLER_64_785
*2169 FILLER_64_797
*2170 FILLER_65_703
*2171 FILLER_65_715
*2172 FILLER_65_727
*2173 FILLER_65_739
*2174 FILLER_65_751
*2175 FILLER_65_755
*2176 FILLER_65_757
*2177 FILLER_65_769
*2178 FILLER_65_781
*2179 FILLER_65_793
*2180 FILLER_66_703
*2181 FILLER_66_715
*2182 FILLER_66_727
*2183 FILLER_66_729
*2184 FILLER_66_741
*2185 FILLER_66_753
*2186 FILLER_66_765
*2187 FILLER_66_777
*2188 FILLER_66_781
*2189 FILLER_66_783
*2190 FILLER_66_785
*2191 FILLER_66_797
*2192 FILLER_67_711
*2193 FILLER_67_723
*2194 FILLER_67_735
*2195 FILLER_67_747
*2196 FILLER_67_755
*2197 FILLER_67_757
*2198 FILLER_67_769
*2199 FILLER_67_781
*2200 FILLER_67_793
*2201 FILLER_68_711
*2202 FILLER_68_723
*2203 FILLER_68_727
*2204 FILLER_68_729
*2205 FILLER_68_741
*2206 FILLER_68_753
*2207 FILLER_68_765
*2208 FILLER_68_777
*2209 FILLER_68_781
*2210 FILLER_68_783
*2211 FILLER_68_785
*2212 FILLER_68_797
*2213 FILLER_69_703
*2214 FILLER_69_715
*2215 FILLER_69_727
*2216 FILLER_69_739
*2217 FILLER_69_751
*2218 FILLER_69_755
*2219 FILLER_69_757
*2220 FILLER_69_769
*2221 FILLER_69_781
*2222 FILLER_69_793
*2223 FILLER_6_109
*2224 FILLER_6_121
*2225 FILLER_6_133
*2226 FILLER_6_137
*2227 FILLER_6_139
*2228 FILLER_6_141
*2229 FILLER_6_15
*2230 FILLER_6_153
*2231 FILLER_6_165
*2232 FILLER_6_177
*2233 FILLER_6_189
*2234 FILLER_6_193
*2235 FILLER_6_195
*2236 FILLER_6_197
*2237 FILLER_6_209
*2238 FILLER_6_221
*2239 FILLER_6_233
*2240 FILLER_6_245
*2241 FILLER_6_249
*2242 FILLER_6_251
*2243 FILLER_6_253
*2244 FILLER_6_265
*2245 FILLER_6_27
*2246 FILLER_6_277
*2247 FILLER_6_289
*2248 FILLER_6_29
*2249 FILLER_6_297
*2250 FILLER_6_3
*2251 FILLER_6_309
*2252 FILLER_6_311
*2253 FILLER_6_333
*2254 FILLER_6_335
*2255 FILLER_6_344
*2256 FILLER_6_356
*2257 FILLER_6_375
*2258 FILLER_6_387
*2259 FILLER_6_399
*2260 FILLER_6_41
*2261 FILLER_6_411
*2262 FILLER_6_419
*2263 FILLER_6_421
*2264 FILLER_6_433
*2265 FILLER_6_445
*2266 FILLER_6_457
*2267 FILLER_6_469
*2268 FILLER_6_473
*2269 FILLER_6_475
*2270 FILLER_6_477
*2271 FILLER_6_481
*2272 FILLER_6_483
*2273 FILLER_6_500
*2274 FILLER_6_504
*2275 FILLER_6_521
*2276 FILLER_6_529
*2277 FILLER_6_53
*2278 FILLER_6_531
*2279 FILLER_6_533
*2280 FILLER_6_545
*2281 FILLER_6_557
*2282 FILLER_6_569
*2283 FILLER_6_581
*2284 FILLER_6_585
*2285 FILLER_6_587
*2286 FILLER_6_589
*2287 FILLER_6_601
*2288 FILLER_6_613
*2289 FILLER_6_625
*2290 FILLER_6_629
*2291 FILLER_6_633
*2292 FILLER_6_641
*2293 FILLER_6_643
*2294 FILLER_6_645
*2295 FILLER_6_65
*2296 FILLER_6_657
*2297 FILLER_6_661
*2298 FILLER_6_671
*2299 FILLER_6_681
*2300 FILLER_6_693
*2301 FILLER_6_697
*2302 FILLER_6_699
*2303 FILLER_6_709
*2304 FILLER_6_719
*2305 FILLER_6_723
*2306 FILLER_6_725
*2307 FILLER_6_734
*2308 FILLER_6_738
*2309 FILLER_6_740
*2310 FILLER_6_749
*2311 FILLER_6_753
*2312 FILLER_6_755
*2313 FILLER_6_757
*2314 FILLER_6_769
*2315 FILLER_6_77
*2316 FILLER_6_781
*2317 FILLER_6_793
*2318 FILLER_6_81
*2319 FILLER_6_83
*2320 FILLER_6_85
*2321 FILLER_6_97
*2322 FILLER_70_711
*2323 FILLER_70_723
*2324 FILLER_70_727
*2325 FILLER_70_729
*2326 FILLER_70_741
*2327 FILLER_70_753
*2328 FILLER_70_765
*2329 FILLER_70_777
*2330 FILLER_70_781
*2331 FILLER_70_783
*2332 FILLER_70_785
*2333 FILLER_70_797
*2334 FILLER_71_703
*2335 FILLER_71_715
*2336 FILLER_71_727
*2337 FILLER_71_739
*2338 FILLER_71_751
*2339 FILLER_71_755
*2340 FILLER_71_757
*2341 FILLER_71_769
*2342 FILLER_71_781
*2343 FILLER_71_793
*2344 FILLER_72_703
*2345 FILLER_72_719
*2346 FILLER_72_727
*2347 FILLER_72_729
*2348 FILLER_72_741
*2349 FILLER_72_753
*2350 FILLER_72_765
*2351 FILLER_72_777
*2352 FILLER_72_781
*2353 FILLER_72_783
*2354 FILLER_72_785
*2355 FILLER_72_797
*2356 FILLER_73_703
*2357 FILLER_73_715
*2358 FILLER_73_727
*2359 FILLER_73_739
*2360 FILLER_73_751
*2361 FILLER_73_755
*2362 FILLER_73_757
*2363 FILLER_73_769
*2364 FILLER_73_781
*2365 FILLER_73_793
*2366 FILLER_74_703
*2367 FILLER_74_711
*2368 FILLER_74_713
*2369 FILLER_74_722
*2370 FILLER_74_726
*2371 FILLER_74_729
*2372 FILLER_74_741
*2373 FILLER_74_753
*2374 FILLER_74_765
*2375 FILLER_74_777
*2376 FILLER_74_781
*2377 FILLER_74_783
*2378 FILLER_74_785
*2379 FILLER_74_797
*2380 FILLER_75_703
*2381 FILLER_75_715
*2382 FILLER_75_727
*2383 FILLER_75_739
*2384 FILLER_75_751
*2385 FILLER_75_755
*2386 FILLER_75_757
*2387 FILLER_75_769
*2388 FILLER_75_781
*2389 FILLER_75_793
*2390 FILLER_76_706
*2391 FILLER_76_718
*2392 FILLER_76_726
*2393 FILLER_76_737
*2394 FILLER_76_749
*2395 FILLER_76_761
*2396 FILLER_76_773
*2397 FILLER_76_781
*2398 FILLER_76_783
*2399 FILLER_76_785
*2400 FILLER_76_797
*2401 FILLER_77_703
*2402 FILLER_77_715
*2403 FILLER_77_727
*2404 FILLER_77_739
*2405 FILLER_77_751
*2406 FILLER_77_755
*2407 FILLER_77_757
*2408 FILLER_77_769
*2409 FILLER_77_781
*2410 FILLER_77_793
*2411 FILLER_78_706
*2412 FILLER_78_718
*2413 FILLER_78_726
*2414 FILLER_78_729
*2415 FILLER_78_741
*2416 FILLER_78_753
*2417 FILLER_78_765
*2418 FILLER_78_777
*2419 FILLER_78_781
*2420 FILLER_78_783
*2421 FILLER_78_785
*2422 FILLER_78_797
*2423 FILLER_79_703
*2424 FILLER_79_715
*2425 FILLER_79_727
*2426 FILLER_79_739
*2427 FILLER_79_751
*2428 FILLER_79_755
*2429 FILLER_79_757
*2430 FILLER_79_769
*2431 FILLER_79_781
*2432 FILLER_79_793
*2433 FILLER_7_105
*2434 FILLER_7_109
*2435 FILLER_7_111
*2436 FILLER_7_113
*2437 FILLER_7_125
*2438 FILLER_7_137
*2439 FILLER_7_149
*2440 FILLER_7_15
*2441 FILLER_7_161
*2442 FILLER_7_165
*2443 FILLER_7_167
*2444 FILLER_7_169
*2445 FILLER_7_181
*2446 FILLER_7_193
*2447 FILLER_7_205
*2448 FILLER_7_217
*2449 FILLER_7_221
*2450 FILLER_7_223
*2451 FILLER_7_225
*2452 FILLER_7_237
*2453 FILLER_7_249
*2454 FILLER_7_261
*2455 FILLER_7_27
*2456 FILLER_7_273
*2457 FILLER_7_277
*2458 FILLER_7_279
*2459 FILLER_7_281
*2460 FILLER_7_293
*2461 FILLER_7_3
*2462 FILLER_7_305
*2463 FILLER_7_313
*2464 FILLER_7_324
*2465 FILLER_7_327
*2466 FILLER_7_343
*2467 FILLER_7_355
*2468 FILLER_7_367
*2469 FILLER_7_369
*2470 FILLER_7_372
*2471 FILLER_7_384
*2472 FILLER_7_39
*2473 FILLER_7_393
*2474 FILLER_7_405
*2475 FILLER_7_417
*2476 FILLER_7_429
*2477 FILLER_7_441
*2478 FILLER_7_445
*2479 FILLER_7_447
*2480 FILLER_7_449
*2481 FILLER_7_461
*2482 FILLER_7_473
*2483 FILLER_7_51
*2484 FILLER_7_523
*2485 FILLER_7_535
*2486 FILLER_7_537
*2487 FILLER_7_546
*2488 FILLER_7_55
*2489 FILLER_7_558
*2490 FILLER_7_561
*2491 FILLER_7_57
*2492 FILLER_7_573
*2493 FILLER_7_577
*2494 FILLER_7_587
*2495 FILLER_7_599
*2496 FILLER_7_611
*2497 FILLER_7_615
*2498 FILLER_7_617
*2499 FILLER_7_629
*2500 FILLER_7_633
*2501 FILLER_7_645
*2502 FILLER_7_657
*2503 FILLER_7_661
*2504 FILLER_7_665
*2505 FILLER_7_669
*2506 FILLER_7_671
*2507 FILLER_7_673
*2508 FILLER_7_677
*2509 FILLER_7_681
*2510 FILLER_7_69
*2511 FILLER_7_693
*2512 FILLER_7_705
*2513 FILLER_7_709
*2514 FILLER_7_713
*2515 FILLER_7_725
*2516 FILLER_7_727
*2517 FILLER_7_729
*2518 FILLER_7_743
*2519 FILLER_7_755
*2520 FILLER_7_767
*2521 FILLER_7_779
*2522 FILLER_7_783
*2523 FILLER_7_785
*2524 FILLER_7_797
*2525 FILLER_7_81
*2526 FILLER_7_93
*2527 FILLER_80_703
*2528 FILLER_80_715
*2529 FILLER_80_727
*2530 FILLER_80_729
*2531 FILLER_80_741
*2532 FILLER_80_753
*2533 FILLER_80_765
*2534 FILLER_80_777
*2535 FILLER_80_781
*2536 FILLER_80_783
*2537 FILLER_80_785
*2538 FILLER_80_797
*2539 FILLER_81_703
*2540 FILLER_81_715
*2541 FILLER_81_727
*2542 FILLER_81_739
*2543 FILLER_81_751
*2544 FILLER_81_755
*2545 FILLER_81_757
*2546 FILLER_81_769
*2547 FILLER_81_781
*2548 FILLER_81_793
*2549 FILLER_82_703
*2550 FILLER_82_715
*2551 FILLER_82_727
*2552 FILLER_82_729
*2553 FILLER_82_741
*2554 FILLER_82_753
*2555 FILLER_82_765
*2556 FILLER_82_777
*2557 FILLER_82_781
*2558 FILLER_82_783
*2559 FILLER_82_785
*2560 FILLER_82_797
*2561 FILLER_83_703
*2562 FILLER_83_715
*2563 FILLER_83_727
*2564 FILLER_83_739
*2565 FILLER_83_751
*2566 FILLER_83_755
*2567 FILLER_83_757
*2568 FILLER_83_769
*2569 FILLER_83_781
*2570 FILLER_83_793
*2571 FILLER_84_709
*2572 FILLER_84_721
*2573 FILLER_84_725
*2574 FILLER_84_727
*2575 FILLER_84_729
*2576 FILLER_84_741
*2577 FILLER_84_753
*2578 FILLER_84_765
*2579 FILLER_84_777
*2580 FILLER_84_781
*2581 FILLER_84_783
*2582 FILLER_84_785
*2583 FILLER_84_797
*2584 FILLER_85_703
*2585 FILLER_85_715
*2586 FILLER_85_727
*2587 FILLER_85_739
*2588 FILLER_85_751
*2589 FILLER_85_755
*2590 FILLER_85_757
*2591 FILLER_85_769
*2592 FILLER_85_781
*2593 FILLER_85_793
*2594 FILLER_86_703
*2595 FILLER_86_715
*2596 FILLER_86_727
*2597 FILLER_86_729
*2598 FILLER_86_741
*2599 FILLER_86_753
*2600 FILLER_86_765
*2601 FILLER_86_777
*2602 FILLER_86_781
*2603 FILLER_86_783
*2604 FILLER_86_785
*2605 FILLER_86_797
*2606 FILLER_87_703
*2607 FILLER_87_715
*2608 FILLER_87_727
*2609 FILLER_87_739
*2610 FILLER_87_751
*2611 FILLER_87_755
*2612 FILLER_87_757
*2613 FILLER_87_769
*2614 FILLER_87_781
*2615 FILLER_87_793
*2616 FILLER_88_706
*2617 FILLER_88_718
*2618 FILLER_88_726
*2619 FILLER_88_729
*2620 FILLER_88_741
*2621 FILLER_88_753
*2622 FILLER_88_765
*2623 FILLER_88_777
*2624 FILLER_88_781
*2625 FILLER_88_783
*2626 FILLER_88_785
*2627 FILLER_88_797
*2628 FILLER_89_706
*2629 FILLER_89_718
*2630 FILLER_89_730
*2631 FILLER_89_742
*2632 FILLER_89_754
*2633 FILLER_89_757
*2634 FILLER_89_769
*2635 FILLER_89_781
*2636 FILLER_89_793
*2637 FILLER_8_109
*2638 FILLER_8_111
*2639 FILLER_8_113
*2640 FILLER_8_125
*2641 FILLER_8_137
*2642 FILLER_8_139
*2643 FILLER_8_141
*2644 FILLER_8_15
*2645 FILLER_8_153
*2646 FILLER_8_165
*2647 FILLER_8_167
*2648 FILLER_8_169
*2649 FILLER_8_181
*2650 FILLER_8_193
*2651 FILLER_8_195
*2652 FILLER_8_197
*2653 FILLER_8_209
*2654 FILLER_8_221
*2655 FILLER_8_223
*2656 FILLER_8_225
*2657 FILLER_8_237
*2658 FILLER_8_249
*2659 FILLER_8_251
*2660 FILLER_8_253
*2661 FILLER_8_265
*2662 FILLER_8_27
*2663 FILLER_8_277
*2664 FILLER_8_279
*2665 FILLER_8_281
*2666 FILLER_8_29
*2667 FILLER_8_293
*2668 FILLER_8_3
*2669 FILLER_8_305
*2670 FILLER_8_307
*2671 FILLER_8_309
*2672 FILLER_8_321
*2673 FILLER_8_333
*2674 FILLER_8_335
*2675 FILLER_8_337
*2676 FILLER_8_349
*2677 FILLER_8_361
*2678 FILLER_8_363
*2679 FILLER_8_365
*2680 FILLER_8_377
*2681 FILLER_8_389
*2682 FILLER_8_391
*2683 FILLER_8_393
*2684 FILLER_8_405
*2685 FILLER_8_41
*2686 FILLER_8_417
*2687 FILLER_8_419
*2688 FILLER_8_421
*2689 FILLER_8_433
*2690 FILLER_8_445
*2691 FILLER_8_447
*2692 FILLER_8_449
*2693 FILLER_8_457
*2694 FILLER_8_465
*2695 FILLER_8_467
*2696 FILLER_8_477
*2697 FILLER_8_479
*2698 FILLER_8_505
*2699 FILLER_8_517
*2700 FILLER_8_529
*2701 FILLER_8_53
*2702 FILLER_8_531
*2703 FILLER_8_55
*2704 FILLER_8_557
*2705 FILLER_8_559
*2706 FILLER_8_57
*2707 FILLER_8_585
*2708 FILLER_8_587
*2709 FILLER_8_613
*2710 FILLER_8_615
*2711 FILLER_8_617
*2712 FILLER_8_629
*2713 FILLER_8_637
*2714 FILLER_8_641
*2715 FILLER_8_643
*2716 FILLER_8_645
*2717 FILLER_8_657
*2718 FILLER_8_661
*2719 FILLER_8_671
*2720 FILLER_8_673
*2721 FILLER_8_677
*2722 FILLER_8_685
*2723 FILLER_8_69
*2724 FILLER_8_697
*2725 FILLER_8_699
*2726 FILLER_8_701
*2727 FILLER_8_709
*2728 FILLER_8_713
*2729 FILLER_8_725
*2730 FILLER_8_727
*2731 FILLER_8_729
*2732 FILLER_8_743
*2733 FILLER_8_755
*2734 FILLER_8_757
*2735 FILLER_8_769
*2736 FILLER_8_781
*2737 FILLER_8_783
*2738 FILLER_8_785
*2739 FILLER_8_797
*2740 FILLER_8_81
*2741 FILLER_8_83
*2742 FILLER_8_85
*2743 FILLER_8_97
*2744 FILLER_90_706
*2745 FILLER_90_718
*2746 FILLER_90_726
*2747 FILLER_90_729
*2748 FILLER_90_741
*2749 FILLER_90_753
*2750 FILLER_90_765
*2751 FILLER_90_777
*2752 FILLER_90_781
*2753 FILLER_90_783
*2754 FILLER_90_785
*2755 FILLER_90_797
*2756 FILLER_91_703
*2757 FILLER_91_715
*2758 FILLER_91_727
*2759 FILLER_91_739
*2760 FILLER_91_751
*2761 FILLER_91_755
*2762 FILLER_91_757
*2763 FILLER_91_769
*2764 FILLER_91_781
*2765 FILLER_91_793
*2766 FILLER_92_703
*2767 FILLER_92_715
*2768 FILLER_92_727
*2769 FILLER_92_729
*2770 FILLER_92_741
*2771 FILLER_92_753
*2772 FILLER_92_765
*2773 FILLER_92_777
*2774 FILLER_92_781
*2775 FILLER_92_783
*2776 FILLER_92_785
*2777 FILLER_92_797
*2778 FILLER_93_703
*2779 FILLER_93_715
*2780 FILLER_93_727
*2781 FILLER_93_739
*2782 FILLER_93_751
*2783 FILLER_93_755
*2784 FILLER_93_757
*2785 FILLER_93_769
*2786 FILLER_93_781
*2787 FILLER_93_793
*2788 FILLER_94_709
*2789 FILLER_94_721
*2790 FILLER_94_725
*2791 FILLER_94_727
*2792 FILLER_94_729
*2793 FILLER_94_741
*2794 FILLER_94_753
*2795 FILLER_94_765
*2796 FILLER_94_777
*2797 FILLER_94_781
*2798 FILLER_94_783
*2799 FILLER_94_785
*2800 FILLER_94_797
*2801 FILLER_95_703
*2802 FILLER_95_715
*2803 FILLER_95_727
*2804 FILLER_95_739
*2805 FILLER_95_751
*2806 FILLER_95_755
*2807 FILLER_95_757
*2808 FILLER_95_769
*2809 FILLER_95_781
*2810 FILLER_95_793
*2811 FILLER_96_703
*2812 FILLER_96_715
*2813 FILLER_96_727
*2814 FILLER_96_729
*2815 FILLER_96_741
*2816 FILLER_96_753
*2817 FILLER_96_765
*2818 FILLER_96_777
*2819 FILLER_96_781
*2820 FILLER_96_783
*2821 FILLER_96_785
*2822 FILLER_96_797
*2823 FILLER_97_703
*2824 FILLER_97_715
*2825 FILLER_97_727
*2826 FILLER_97_739
*2827 FILLER_97_751
*2828 FILLER_97_755
*2829 FILLER_97_757
*2830 FILLER_97_769
*2831 FILLER_97_781
*2832 FILLER_97_793
*2833 FILLER_98_703
*2834 FILLER_98_715
*2835 FILLER_98_727
*2836 FILLER_98_729
*2837 FILLER_98_741
*2838 FILLER_98_753
*2839 FILLER_98_765
*2840 FILLER_98_777
*2841 FILLER_98_781
*2842 FILLER_98_783
*2843 FILLER_98_785
*2844 FILLER_98_797
*2845 FILLER_99_703
*2846 FILLER_99_715
*2847 FILLER_99_727
*2848 FILLER_99_739
*2849 FILLER_99_751
*2850 FILLER_99_755
*2851 FILLER_99_757
*2852 FILLER_99_769
*2853 FILLER_99_781
*2854 FILLER_99_793
*2855 FILLER_9_703
*2856 FILLER_9_713
*2857 FILLER_9_725
*2858 FILLER_9_737
*2859 FILLER_9_743
*2860 FILLER_9_755
*2861 FILLER_9_757
*2862 FILLER_9_769
*2863 FILLER_9_781
*2864 FILLER_9_793
*2865 PHY_EDGE_ROW_0_Left_0
*2866 PHY_EDGE_ROW_0_Right_9
*2867 PHY_EDGE_ROW_100_2_Left_255
*2868 PHY_EDGE_ROW_100_2_Right_108
*2869 PHY_EDGE_ROW_101_2_Left_256
*2870 PHY_EDGE_ROW_101_2_Right_109
*2871 PHY_EDGE_ROW_102_2_Left_257
*2872 PHY_EDGE_ROW_102_2_Right_110
*2873 PHY_EDGE_ROW_103_2_Left_258
*2874 PHY_EDGE_ROW_103_2_Right_111
*2875 PHY_EDGE_ROW_104_2_Left_259
*2876 PHY_EDGE_ROW_104_2_Right_112
*2877 PHY_EDGE_ROW_105_2_Left_260
*2878 PHY_EDGE_ROW_105_2_Right_113
*2879 PHY_EDGE_ROW_106_2_Left_261
*2880 PHY_EDGE_ROW_106_2_Right_114
*2881 PHY_EDGE_ROW_107_2_Left_262
*2882 PHY_EDGE_ROW_107_2_Right_115
*2883 PHY_EDGE_ROW_108_2_Left_263
*2884 PHY_EDGE_ROW_108_2_Right_116
*2885 PHY_EDGE_ROW_109_2_Left_264
*2886 PHY_EDGE_ROW_109_2_Right_117
*2887 PHY_EDGE_ROW_10_2_Left_165
*2888 PHY_EDGE_ROW_10_2_Right_18
*2889 PHY_EDGE_ROW_110_2_Left_265
*2890 PHY_EDGE_ROW_110_2_Right_118
*2891 PHY_EDGE_ROW_111_2_Left_266
*2892 PHY_EDGE_ROW_111_2_Right_119
*2893 PHY_EDGE_ROW_112_2_Left_267
*2894 PHY_EDGE_ROW_112_2_Right_120
*2895 PHY_EDGE_ROW_113_2_Left_268
*2896 PHY_EDGE_ROW_113_2_Right_121
*2897 PHY_EDGE_ROW_114_2_Left_269
*2898 PHY_EDGE_ROW_114_2_Right_122
*2899 PHY_EDGE_ROW_115_2_Left_270
*2900 PHY_EDGE_ROW_115_2_Right_123
*2901 PHY_EDGE_ROW_116_2_Left_271
*2902 PHY_EDGE_ROW_116_2_Right_124
*2903 PHY_EDGE_ROW_117_2_Left_272
*2904 PHY_EDGE_ROW_117_2_Right_125
*2905 PHY_EDGE_ROW_118_2_Left_273
*2906 PHY_EDGE_ROW_118_2_Right_126
*2907 PHY_EDGE_ROW_119_2_Left_274
*2908 PHY_EDGE_ROW_119_2_Right_127
*2909 PHY_EDGE_ROW_11_2_Left_166
*2910 PHY_EDGE_ROW_11_2_Right_19
*2911 PHY_EDGE_ROW_120_2_Left_275
*2912 PHY_EDGE_ROW_120_2_Right_128
*2913 PHY_EDGE_ROW_121_2_Left_276
*2914 PHY_EDGE_ROW_121_2_Right_129
*2915 PHY_EDGE_ROW_122_2_Left_277
*2916 PHY_EDGE_ROW_122_2_Right_130
*2917 PHY_EDGE_ROW_123_2_Left_278
*2918 PHY_EDGE_ROW_123_2_Right_131
*2919 PHY_EDGE_ROW_124_2_Left_279
*2920 PHY_EDGE_ROW_124_2_Right_132
*2921 PHY_EDGE_ROW_125_2_Left_280
*2922 PHY_EDGE_ROW_125_2_Right_133
*2923 PHY_EDGE_ROW_126_2_Left_281
*2924 PHY_EDGE_ROW_126_2_Right_134
*2925 PHY_EDGE_ROW_127_2_Left_282
*2926 PHY_EDGE_ROW_127_2_Right_135
*2927 PHY_EDGE_ROW_128_2_Left_283
*2928 PHY_EDGE_ROW_128_2_Right_136
*2929 PHY_EDGE_ROW_129_2_Left_284
*2930 PHY_EDGE_ROW_129_2_Right_137
*2931 PHY_EDGE_ROW_12_2_Left_167
*2932 PHY_EDGE_ROW_12_2_Right_20
*2933 PHY_EDGE_ROW_130_2_Left_285
*2934 PHY_EDGE_ROW_130_2_Right_138
*2935 PHY_EDGE_ROW_131_2_Left_286
*2936 PHY_EDGE_ROW_131_2_Right_139
*2937 PHY_EDGE_ROW_132_2_Left_287
*2938 PHY_EDGE_ROW_132_2_Right_140
*2939 PHY_EDGE_ROW_133_2_Left_288
*2940 PHY_EDGE_ROW_133_2_Right_141
*2941 PHY_EDGE_ROW_134_2_Left_289
*2942 PHY_EDGE_ROW_134_2_Right_142
*2943 PHY_EDGE_ROW_135_2_Left_290
*2944 PHY_EDGE_ROW_135_2_Right_143
*2945 PHY_EDGE_ROW_136_2_Left_291
*2946 PHY_EDGE_ROW_136_2_Right_144
*2947 PHY_EDGE_ROW_137_2_Left_292
*2948 PHY_EDGE_ROW_137_2_Right_145
*2949 PHY_EDGE_ROW_138_2_Left_293
*2950 PHY_EDGE_ROW_138_2_Right_146
*2951 PHY_EDGE_ROW_139_2_Left_294
*2952 PHY_EDGE_ROW_139_2_Right_147
*2953 PHY_EDGE_ROW_13_2_Left_168
*2954 PHY_EDGE_ROW_13_2_Right_21
*2955 PHY_EDGE_ROW_140_2_Left_295
*2956 PHY_EDGE_ROW_140_2_Right_148
*2957 PHY_EDGE_ROW_141_2_Left_296
*2958 PHY_EDGE_ROW_141_2_Right_149
*2959 PHY_EDGE_ROW_142_2_Left_297
*2960 PHY_EDGE_ROW_142_2_Right_150
*2961 PHY_EDGE_ROW_143_2_Left_298
*2962 PHY_EDGE_ROW_143_2_Right_151
*2963 PHY_EDGE_ROW_144_2_Left_299
*2964 PHY_EDGE_ROW_144_2_Right_152
*2965 PHY_EDGE_ROW_145_2_Left_300
*2966 PHY_EDGE_ROW_145_2_Right_153
*2967 PHY_EDGE_ROW_146_2_Left_301
*2968 PHY_EDGE_ROW_146_2_Right_154
*2969 PHY_EDGE_ROW_147_2_Left_302
*2970 PHY_EDGE_ROW_147_2_Right_155
*2971 PHY_EDGE_ROW_148_2_Left_303
*2972 PHY_EDGE_ROW_148_2_Right_156
*2973 PHY_EDGE_ROW_149_2_Left_304
*2974 PHY_EDGE_ROW_149_2_Right_157
*2975 PHY_EDGE_ROW_14_2_Left_169
*2976 PHY_EDGE_ROW_14_2_Right_22
*2977 PHY_EDGE_ROW_150_2_Left_305
*2978 PHY_EDGE_ROW_150_2_Right_158
*2979 PHY_EDGE_ROW_151_2_Left_306
*2980 PHY_EDGE_ROW_151_2_Right_159
*2981 PHY_EDGE_ROW_152_2_Left_307
*2982 PHY_EDGE_ROW_152_2_Right_160
*2983 PHY_EDGE_ROW_153_2_Left_308
*2984 PHY_EDGE_ROW_153_2_Right_161
*2985 PHY_EDGE_ROW_154_2_Left_309
*2986 PHY_EDGE_ROW_154_2_Right_162
*2987 PHY_EDGE_ROW_155_2_Left_310
*2988 PHY_EDGE_ROW_155_2_Right_163
*2989 PHY_EDGE_ROW_15_2_Left_170
*2990 PHY_EDGE_ROW_15_2_Right_23
*2991 PHY_EDGE_ROW_16_2_Left_171
*2992 PHY_EDGE_ROW_16_2_Right_24
*2993 PHY_EDGE_ROW_17_2_Left_172
*2994 PHY_EDGE_ROW_17_2_Right_25
*2995 PHY_EDGE_ROW_18_2_Left_173
*2996 PHY_EDGE_ROW_18_2_Right_26
*2997 PHY_EDGE_ROW_19_2_Left_174
*2998 PHY_EDGE_ROW_19_2_Right_27
*2999 PHY_EDGE_ROW_1_Left_1
*3000 PHY_EDGE_ROW_1_Right_10
*3001 PHY_EDGE_ROW_20_2_Left_175
*3002 PHY_EDGE_ROW_20_2_Right_28
*3003 PHY_EDGE_ROW_21_2_Left_176
*3004 PHY_EDGE_ROW_21_2_Right_29
*3005 PHY_EDGE_ROW_22_2_Left_177
*3006 PHY_EDGE_ROW_22_2_Right_30
*3007 PHY_EDGE_ROW_23_2_Left_178
*3008 PHY_EDGE_ROW_23_2_Right_31
*3009 PHY_EDGE_ROW_24_2_Left_179
*3010 PHY_EDGE_ROW_24_2_Right_32
*3011 PHY_EDGE_ROW_25_2_Left_180
*3012 PHY_EDGE_ROW_25_2_Right_33
*3013 PHY_EDGE_ROW_26_2_Left_181
*3014 PHY_EDGE_ROW_26_2_Right_34
*3015 PHY_EDGE_ROW_27_2_Left_182
*3016 PHY_EDGE_ROW_27_2_Right_35
*3017 PHY_EDGE_ROW_28_2_Left_183
*3018 PHY_EDGE_ROW_28_2_Right_36
*3019 PHY_EDGE_ROW_29_2_Left_184
*3020 PHY_EDGE_ROW_29_2_Right_37
*3021 PHY_EDGE_ROW_2_Left_2
*3022 PHY_EDGE_ROW_2_Right_11
*3023 PHY_EDGE_ROW_30_2_Left_185
*3024 PHY_EDGE_ROW_30_2_Right_38
*3025 PHY_EDGE_ROW_31_2_Left_186
*3026 PHY_EDGE_ROW_31_2_Right_39
*3027 PHY_EDGE_ROW_32_2_Left_187
*3028 PHY_EDGE_ROW_32_2_Right_40
*3029 PHY_EDGE_ROW_33_2_Left_188
*3030 PHY_EDGE_ROW_33_2_Right_41
*3031 PHY_EDGE_ROW_34_2_Left_189
*3032 PHY_EDGE_ROW_34_2_Right_42
*3033 PHY_EDGE_ROW_35_2_Left_190
*3034 PHY_EDGE_ROW_35_2_Right_43
*3035 PHY_EDGE_ROW_36_2_Left_191
*3036 PHY_EDGE_ROW_36_2_Right_44
*3037 PHY_EDGE_ROW_37_2_Left_192
*3038 PHY_EDGE_ROW_37_2_Right_45
*3039 PHY_EDGE_ROW_38_2_Left_193
*3040 PHY_EDGE_ROW_38_2_Right_46
*3041 PHY_EDGE_ROW_39_2_Left_194
*3042 PHY_EDGE_ROW_39_2_Right_47
*3043 PHY_EDGE_ROW_3_Left_3
*3044 PHY_EDGE_ROW_3_Right_12
*3045 PHY_EDGE_ROW_40_2_Left_195
*3046 PHY_EDGE_ROW_40_2_Right_48
*3047 PHY_EDGE_ROW_41_2_Left_196
*3048 PHY_EDGE_ROW_41_2_Right_49
*3049 PHY_EDGE_ROW_42_2_Left_197
*3050 PHY_EDGE_ROW_42_2_Right_50
*3051 PHY_EDGE_ROW_43_2_Left_198
*3052 PHY_EDGE_ROW_43_2_Right_51
*3053 PHY_EDGE_ROW_44_2_Left_199
*3054 PHY_EDGE_ROW_44_2_Right_52
*3055 PHY_EDGE_ROW_45_2_Left_200
*3056 PHY_EDGE_ROW_45_2_Right_53
*3057 PHY_EDGE_ROW_46_2_Left_201
*3058 PHY_EDGE_ROW_46_2_Right_54
*3059 PHY_EDGE_ROW_47_2_Left_202
*3060 PHY_EDGE_ROW_47_2_Right_55
*3061 PHY_EDGE_ROW_48_2_Left_203
*3062 PHY_EDGE_ROW_48_2_Right_56
*3063 PHY_EDGE_ROW_49_2_Left_204
*3064 PHY_EDGE_ROW_49_2_Right_57
*3065 PHY_EDGE_ROW_4_Left_4
*3066 PHY_EDGE_ROW_4_Right_13
*3067 PHY_EDGE_ROW_50_2_Left_205
*3068 PHY_EDGE_ROW_50_2_Right_58
*3069 PHY_EDGE_ROW_51_2_Left_206
*3070 PHY_EDGE_ROW_51_2_Right_59
*3071 PHY_EDGE_ROW_52_2_Left_207
*3072 PHY_EDGE_ROW_52_2_Right_60
*3073 PHY_EDGE_ROW_53_2_Left_208
*3074 PHY_EDGE_ROW_53_2_Right_61
*3075 PHY_EDGE_ROW_54_2_Left_209
*3076 PHY_EDGE_ROW_54_2_Right_62
*3077 PHY_EDGE_ROW_55_2_Left_210
*3078 PHY_EDGE_ROW_55_2_Right_63
*3079 PHY_EDGE_ROW_56_2_Left_211
*3080 PHY_EDGE_ROW_56_2_Right_64
*3081 PHY_EDGE_ROW_57_2_Left_212
*3082 PHY_EDGE_ROW_57_2_Right_65
*3083 PHY_EDGE_ROW_58_2_Left_213
*3084 PHY_EDGE_ROW_58_2_Right_66
*3085 PHY_EDGE_ROW_59_2_Left_214
*3086 PHY_EDGE_ROW_59_2_Right_67
*3087 PHY_EDGE_ROW_5_Left_5
*3088 PHY_EDGE_ROW_5_Right_14
*3089 PHY_EDGE_ROW_60_2_Left_215
*3090 PHY_EDGE_ROW_60_2_Right_68
*3091 PHY_EDGE_ROW_61_2_Left_216
*3092 PHY_EDGE_ROW_61_2_Right_69
*3093 PHY_EDGE_ROW_62_2_Left_217
*3094 PHY_EDGE_ROW_62_2_Right_70
*3095 PHY_EDGE_ROW_63_2_Left_218
*3096 PHY_EDGE_ROW_63_2_Right_71
*3097 PHY_EDGE_ROW_64_2_Left_219
*3098 PHY_EDGE_ROW_64_2_Right_72
*3099 PHY_EDGE_ROW_65_2_Left_220
*3100 PHY_EDGE_ROW_65_2_Right_73
*3101 PHY_EDGE_ROW_66_2_Left_221
*3102 PHY_EDGE_ROW_66_2_Right_74
*3103 PHY_EDGE_ROW_67_2_Left_222
*3104 PHY_EDGE_ROW_67_2_Right_75
*3105 PHY_EDGE_ROW_68_2_Left_223
*3106 PHY_EDGE_ROW_68_2_Right_76
*3107 PHY_EDGE_ROW_69_2_Left_224
*3108 PHY_EDGE_ROW_69_2_Right_77
*3109 PHY_EDGE_ROW_6_Left_6
*3110 PHY_EDGE_ROW_6_Right_15
*3111 PHY_EDGE_ROW_70_2_Left_225
*3112 PHY_EDGE_ROW_70_2_Right_78
*3113 PHY_EDGE_ROW_71_2_Left_226
*3114 PHY_EDGE_ROW_71_2_Right_79
*3115 PHY_EDGE_ROW_72_2_Left_227
*3116 PHY_EDGE_ROW_72_2_Right_80
*3117 PHY_EDGE_ROW_73_2_Left_228
*3118 PHY_EDGE_ROW_73_2_Right_81
*3119 PHY_EDGE_ROW_74_2_Left_229
*3120 PHY_EDGE_ROW_74_2_Right_82
*3121 PHY_EDGE_ROW_75_2_Left_230
*3122 PHY_EDGE_ROW_75_2_Right_83
*3123 PHY_EDGE_ROW_76_2_Left_231
*3124 PHY_EDGE_ROW_76_2_Right_84
*3125 PHY_EDGE_ROW_77_2_Left_232
*3126 PHY_EDGE_ROW_77_2_Right_85
*3127 PHY_EDGE_ROW_78_2_Left_233
*3128 PHY_EDGE_ROW_78_2_Right_86
*3129 PHY_EDGE_ROW_79_2_Left_234
*3130 PHY_EDGE_ROW_79_2_Right_87
*3131 PHY_EDGE_ROW_7_Left_7
*3132 PHY_EDGE_ROW_7_Right_16
*3133 PHY_EDGE_ROW_80_2_Left_235
*3134 PHY_EDGE_ROW_80_2_Right_88
*3135 PHY_EDGE_ROW_81_2_Left_236
*3136 PHY_EDGE_ROW_81_2_Right_89
*3137 PHY_EDGE_ROW_82_2_Left_237
*3138 PHY_EDGE_ROW_82_2_Right_90
*3139 PHY_EDGE_ROW_83_2_Left_238
*3140 PHY_EDGE_ROW_83_2_Right_91
*3141 PHY_EDGE_ROW_84_2_Left_239
*3142 PHY_EDGE_ROW_84_2_Right_92
*3143 PHY_EDGE_ROW_85_2_Left_240
*3144 PHY_EDGE_ROW_85_2_Right_93
*3145 PHY_EDGE_ROW_86_2_Left_241
*3146 PHY_EDGE_ROW_86_2_Right_94
*3147 PHY_EDGE_ROW_87_2_Left_242
*3148 PHY_EDGE_ROW_87_2_Right_95
*3149 PHY_EDGE_ROW_88_2_Left_243
*3150 PHY_EDGE_ROW_88_2_Right_96
*3151 PHY_EDGE_ROW_89_2_Left_244
*3152 PHY_EDGE_ROW_89_2_Right_97
*3153 PHY_EDGE_ROW_8_Left_8
*3154 PHY_EDGE_ROW_8_Right_17
*3155 PHY_EDGE_ROW_90_2_Left_245
*3156 PHY_EDGE_ROW_90_2_Right_98
*3157 PHY_EDGE_ROW_91_2_Left_246
*3158 PHY_EDGE_ROW_91_2_Right_99
*3159 PHY_EDGE_ROW_92_2_Left_247
*3160 PHY_EDGE_ROW_92_2_Right_100
*3161 PHY_EDGE_ROW_93_2_Left_248
*3162 PHY_EDGE_ROW_93_2_Right_101
*3163 PHY_EDGE_ROW_94_2_Left_249
*3164 PHY_EDGE_ROW_94_2_Right_102
*3165 PHY_EDGE_ROW_95_2_Left_250
*3166 PHY_EDGE_ROW_95_2_Right_103
*3167 PHY_EDGE_ROW_96_2_Left_251
*3168 PHY_EDGE_ROW_96_2_Right_104
*3169 PHY_EDGE_ROW_97_2_Left_252
*3170 PHY_EDGE_ROW_97_2_Right_105
*3171 PHY_EDGE_ROW_98_2_Left_253
*3172 PHY_EDGE_ROW_98_2_Right_106
*3173 PHY_EDGE_ROW_99_2_Left_254
*3174 PHY_EDGE_ROW_99_2_Right_107
*3175 PHY_EDGE_ROW_9_2_Left_311
*3176 PHY_EDGE_ROW_9_2_Right_164
*3177 TAP_TAPCELL_ROW_0_312
*3178 TAP_TAPCELL_ROW_0_313
*3179 TAP_TAPCELL_ROW_0_314
*3180 TAP_TAPCELL_ROW_0_315
*3181 TAP_TAPCELL_ROW_0_316
*3182 TAP_TAPCELL_ROW_0_317
*3183 TAP_TAPCELL_ROW_0_318
*3184 TAP_TAPCELL_ROW_0_319
*3185 TAP_TAPCELL_ROW_0_320
*3186 TAP_TAPCELL_ROW_0_321
*3187 TAP_TAPCELL_ROW_0_322
*3188 TAP_TAPCELL_ROW_0_323
*3189 TAP_TAPCELL_ROW_0_324
*3190 TAP_TAPCELL_ROW_0_325
*3191 TAP_TAPCELL_ROW_0_326
*3192 TAP_TAPCELL_ROW_0_327
*3193 TAP_TAPCELL_ROW_0_328
*3194 TAP_TAPCELL_ROW_0_329
*3195 TAP_TAPCELL_ROW_0_330
*3196 TAP_TAPCELL_ROW_0_331
*3197 TAP_TAPCELL_ROW_0_332
*3198 TAP_TAPCELL_ROW_0_333
*3199 TAP_TAPCELL_ROW_0_334
*3200 TAP_TAPCELL_ROW_0_335
*3201 TAP_TAPCELL_ROW_0_336
*3202 TAP_TAPCELL_ROW_0_337
*3203 TAP_TAPCELL_ROW_0_338
*3204 TAP_TAPCELL_ROW_0_339
*3205 TAP_TAPCELL_ROW_100_2_601
*3206 TAP_TAPCELL_ROW_100_2_602
*3207 TAP_TAPCELL_ROW_101_2_603
*3208 TAP_TAPCELL_ROW_102_2_604
*3209 TAP_TAPCELL_ROW_102_2_605
*3210 TAP_TAPCELL_ROW_103_2_606
*3211 TAP_TAPCELL_ROW_104_2_607
*3212 TAP_TAPCELL_ROW_104_2_608
*3213 TAP_TAPCELL_ROW_105_2_609
*3214 TAP_TAPCELL_ROW_106_2_610
*3215 TAP_TAPCELL_ROW_106_2_611
*3216 TAP_TAPCELL_ROW_107_2_612
*3217 TAP_TAPCELL_ROW_108_2_613
*3218 TAP_TAPCELL_ROW_108_2_614
*3219 TAP_TAPCELL_ROW_109_2_615
*3220 TAP_TAPCELL_ROW_10_2_466
*3221 TAP_TAPCELL_ROW_10_2_467
*3222 TAP_TAPCELL_ROW_110_2_616
*3223 TAP_TAPCELL_ROW_110_2_617
*3224 TAP_TAPCELL_ROW_111_2_618
*3225 TAP_TAPCELL_ROW_112_2_619
*3226 TAP_TAPCELL_ROW_112_2_620
*3227 TAP_TAPCELL_ROW_113_2_621
*3228 TAP_TAPCELL_ROW_114_2_622
*3229 TAP_TAPCELL_ROW_114_2_623
*3230 TAP_TAPCELL_ROW_115_2_624
*3231 TAP_TAPCELL_ROW_116_2_625
*3232 TAP_TAPCELL_ROW_116_2_626
*3233 TAP_TAPCELL_ROW_117_2_627
*3234 TAP_TAPCELL_ROW_118_2_628
*3235 TAP_TAPCELL_ROW_118_2_629
*3236 TAP_TAPCELL_ROW_119_2_630
*3237 TAP_TAPCELL_ROW_11_2_468
*3238 TAP_TAPCELL_ROW_120_2_631
*3239 TAP_TAPCELL_ROW_120_2_632
*3240 TAP_TAPCELL_ROW_121_2_633
*3241 TAP_TAPCELL_ROW_122_2_634
*3242 TAP_TAPCELL_ROW_122_2_635
*3243 TAP_TAPCELL_ROW_123_2_636
*3244 TAP_TAPCELL_ROW_124_2_637
*3245 TAP_TAPCELL_ROW_124_2_638
*3246 TAP_TAPCELL_ROW_125_2_639
*3247 TAP_TAPCELL_ROW_126_2_640
*3248 TAP_TAPCELL_ROW_126_2_641
*3249 TAP_TAPCELL_ROW_127_2_642
*3250 TAP_TAPCELL_ROW_128_2_643
*3251 TAP_TAPCELL_ROW_128_2_644
*3252 TAP_TAPCELL_ROW_129_2_645
*3253 TAP_TAPCELL_ROW_12_2_469
*3254 TAP_TAPCELL_ROW_12_2_470
*3255 TAP_TAPCELL_ROW_130_2_646
*3256 TAP_TAPCELL_ROW_130_2_647
*3257 TAP_TAPCELL_ROW_131_2_648
*3258 TAP_TAPCELL_ROW_132_2_649
*3259 TAP_TAPCELL_ROW_132_2_650
*3260 TAP_TAPCELL_ROW_133_2_651
*3261 TAP_TAPCELL_ROW_134_2_652
*3262 TAP_TAPCELL_ROW_134_2_653
*3263 TAP_TAPCELL_ROW_135_2_654
*3264 TAP_TAPCELL_ROW_136_2_655
*3265 TAP_TAPCELL_ROW_136_2_656
*3266 TAP_TAPCELL_ROW_137_2_657
*3267 TAP_TAPCELL_ROW_138_2_658
*3268 TAP_TAPCELL_ROW_138_2_659
*3269 TAP_TAPCELL_ROW_139_2_660
*3270 TAP_TAPCELL_ROW_13_2_471
*3271 TAP_TAPCELL_ROW_140_2_661
*3272 TAP_TAPCELL_ROW_140_2_662
*3273 TAP_TAPCELL_ROW_141_2_663
*3274 TAP_TAPCELL_ROW_142_2_664
*3275 TAP_TAPCELL_ROW_142_2_665
*3276 TAP_TAPCELL_ROW_143_2_666
*3277 TAP_TAPCELL_ROW_144_2_667
*3278 TAP_TAPCELL_ROW_144_2_668
*3279 TAP_TAPCELL_ROW_145_2_669
*3280 TAP_TAPCELL_ROW_146_2_670
*3281 TAP_TAPCELL_ROW_146_2_671
*3282 TAP_TAPCELL_ROW_147_2_672
*3283 TAP_TAPCELL_ROW_148_2_673
*3284 TAP_TAPCELL_ROW_148_2_674
*3285 TAP_TAPCELL_ROW_149_2_675
*3286 TAP_TAPCELL_ROW_14_2_472
*3287 TAP_TAPCELL_ROW_14_2_473
*3288 TAP_TAPCELL_ROW_150_2_676
*3289 TAP_TAPCELL_ROW_150_2_677
*3290 TAP_TAPCELL_ROW_151_2_678
*3291 TAP_TAPCELL_ROW_152_2_679
*3292 TAP_TAPCELL_ROW_152_2_680
*3293 TAP_TAPCELL_ROW_153_2_681
*3294 TAP_TAPCELL_ROW_154_2_682
*3295 TAP_TAPCELL_ROW_154_2_683
*3296 TAP_TAPCELL_ROW_155_2_684
*3297 TAP_TAPCELL_ROW_155_2_685
*3298 TAP_TAPCELL_ROW_155_2_686
*3299 TAP_TAPCELL_ROW_15_2_474
*3300 TAP_TAPCELL_ROW_16_2_475
*3301 TAP_TAPCELL_ROW_16_2_476
*3302 TAP_TAPCELL_ROW_17_2_477
*3303 TAP_TAPCELL_ROW_18_2_478
*3304 TAP_TAPCELL_ROW_18_2_479
*3305 TAP_TAPCELL_ROW_19_2_480
*3306 TAP_TAPCELL_ROW_1_340
*3307 TAP_TAPCELL_ROW_1_341
*3308 TAP_TAPCELL_ROW_1_342
*3309 TAP_TAPCELL_ROW_1_343
*3310 TAP_TAPCELL_ROW_1_344
*3311 TAP_TAPCELL_ROW_1_345
*3312 TAP_TAPCELL_ROW_1_346
*3313 TAP_TAPCELL_ROW_1_347
*3314 TAP_TAPCELL_ROW_1_348
*3315 TAP_TAPCELL_ROW_1_349
*3316 TAP_TAPCELL_ROW_1_350
*3317 TAP_TAPCELL_ROW_1_351
*3318 TAP_TAPCELL_ROW_1_352
*3319 TAP_TAPCELL_ROW_1_353
*3320 TAP_TAPCELL_ROW_20_2_481
*3321 TAP_TAPCELL_ROW_20_2_482
*3322 TAP_TAPCELL_ROW_21_2_483
*3323 TAP_TAPCELL_ROW_22_2_484
*3324 TAP_TAPCELL_ROW_22_2_485
*3325 TAP_TAPCELL_ROW_23_2_486
*3326 TAP_TAPCELL_ROW_24_2_487
*3327 TAP_TAPCELL_ROW_24_2_488
*3328 TAP_TAPCELL_ROW_25_2_489
*3329 TAP_TAPCELL_ROW_26_2_490
*3330 TAP_TAPCELL_ROW_26_2_491
*3331 TAP_TAPCELL_ROW_27_2_492
*3332 TAP_TAPCELL_ROW_28_2_493
*3333 TAP_TAPCELL_ROW_28_2_494
*3334 TAP_TAPCELL_ROW_29_2_495
*3335 TAP_TAPCELL_ROW_2_354
*3336 TAP_TAPCELL_ROW_2_355
*3337 TAP_TAPCELL_ROW_2_356
*3338 TAP_TAPCELL_ROW_2_357
*3339 TAP_TAPCELL_ROW_2_358
*3340 TAP_TAPCELL_ROW_2_359
*3341 TAP_TAPCELL_ROW_2_360
*3342 TAP_TAPCELL_ROW_2_361
*3343 TAP_TAPCELL_ROW_2_362
*3344 TAP_TAPCELL_ROW_2_363
*3345 TAP_TAPCELL_ROW_2_364
*3346 TAP_TAPCELL_ROW_2_365
*3347 TAP_TAPCELL_ROW_2_366
*3348 TAP_TAPCELL_ROW_2_367
*3349 TAP_TAPCELL_ROW_30_2_496
*3350 TAP_TAPCELL_ROW_30_2_497
*3351 TAP_TAPCELL_ROW_31_2_498
*3352 TAP_TAPCELL_ROW_32_2_499
*3353 TAP_TAPCELL_ROW_32_2_500
*3354 TAP_TAPCELL_ROW_33_2_501
*3355 TAP_TAPCELL_ROW_34_2_502
*3356 TAP_TAPCELL_ROW_34_2_503
*3357 TAP_TAPCELL_ROW_35_2_504
*3358 TAP_TAPCELL_ROW_36_2_505
*3359 TAP_TAPCELL_ROW_36_2_506
*3360 TAP_TAPCELL_ROW_37_2_507
*3361 TAP_TAPCELL_ROW_38_2_508
*3362 TAP_TAPCELL_ROW_38_2_509
*3363 TAP_TAPCELL_ROW_39_2_510
*3364 TAP_TAPCELL_ROW_3_368
*3365 TAP_TAPCELL_ROW_3_369
*3366 TAP_TAPCELL_ROW_3_370
*3367 TAP_TAPCELL_ROW_3_371
*3368 TAP_TAPCELL_ROW_3_372
*3369 TAP_TAPCELL_ROW_3_373
*3370 TAP_TAPCELL_ROW_3_374
*3371 TAP_TAPCELL_ROW_3_375
*3372 TAP_TAPCELL_ROW_3_376
*3373 TAP_TAPCELL_ROW_3_377
*3374 TAP_TAPCELL_ROW_3_378
*3375 TAP_TAPCELL_ROW_3_379
*3376 TAP_TAPCELL_ROW_3_380
*3377 TAP_TAPCELL_ROW_3_381
*3378 TAP_TAPCELL_ROW_40_2_511
*3379 TAP_TAPCELL_ROW_40_2_512
*3380 TAP_TAPCELL_ROW_41_2_513
*3381 TAP_TAPCELL_ROW_42_2_514
*3382 TAP_TAPCELL_ROW_42_2_515
*3383 TAP_TAPCELL_ROW_43_2_516
*3384 TAP_TAPCELL_ROW_44_2_517
*3385 TAP_TAPCELL_ROW_44_2_518
*3386 TAP_TAPCELL_ROW_45_2_519
*3387 TAP_TAPCELL_ROW_46_2_520
*3388 TAP_TAPCELL_ROW_46_2_521
*3389 TAP_TAPCELL_ROW_47_2_522
*3390 TAP_TAPCELL_ROW_48_2_523
*3391 TAP_TAPCELL_ROW_48_2_524
*3392 TAP_TAPCELL_ROW_49_2_525
*3393 TAP_TAPCELL_ROW_4_382
*3394 TAP_TAPCELL_ROW_4_383
*3395 TAP_TAPCELL_ROW_4_384
*3396 TAP_TAPCELL_ROW_4_385
*3397 TAP_TAPCELL_ROW_4_386
*3398 TAP_TAPCELL_ROW_4_387
*3399 TAP_TAPCELL_ROW_4_388
*3400 TAP_TAPCELL_ROW_4_389
*3401 TAP_TAPCELL_ROW_4_390
*3402 TAP_TAPCELL_ROW_4_391
*3403 TAP_TAPCELL_ROW_4_392
*3404 TAP_TAPCELL_ROW_4_393
*3405 TAP_TAPCELL_ROW_4_394
*3406 TAP_TAPCELL_ROW_4_395
*3407 TAP_TAPCELL_ROW_50_2_526
*3408 TAP_TAPCELL_ROW_50_2_527
*3409 TAP_TAPCELL_ROW_51_2_528
*3410 TAP_TAPCELL_ROW_52_2_529
*3411 TAP_TAPCELL_ROW_52_2_530
*3412 TAP_TAPCELL_ROW_53_2_531
*3413 TAP_TAPCELL_ROW_54_2_532
*3414 TAP_TAPCELL_ROW_54_2_533
*3415 TAP_TAPCELL_ROW_55_2_534
*3416 TAP_TAPCELL_ROW_56_2_535
*3417 TAP_TAPCELL_ROW_56_2_536
*3418 TAP_TAPCELL_ROW_57_2_537
*3419 TAP_TAPCELL_ROW_58_2_538
*3420 TAP_TAPCELL_ROW_58_2_539
*3421 TAP_TAPCELL_ROW_59_2_540
*3422 TAP_TAPCELL_ROW_5_396
*3423 TAP_TAPCELL_ROW_5_397
*3424 TAP_TAPCELL_ROW_5_398
*3425 TAP_TAPCELL_ROW_5_399
*3426 TAP_TAPCELL_ROW_5_400
*3427 TAP_TAPCELL_ROW_5_401
*3428 TAP_TAPCELL_ROW_5_402
*3429 TAP_TAPCELL_ROW_5_403
*3430 TAP_TAPCELL_ROW_5_404
*3431 TAP_TAPCELL_ROW_5_405
*3432 TAP_TAPCELL_ROW_5_406
*3433 TAP_TAPCELL_ROW_5_407
*3434 TAP_TAPCELL_ROW_5_408
*3435 TAP_TAPCELL_ROW_5_409
*3436 TAP_TAPCELL_ROW_60_2_541
*3437 TAP_TAPCELL_ROW_60_2_542
*3438 TAP_TAPCELL_ROW_61_2_543
*3439 TAP_TAPCELL_ROW_62_2_544
*3440 TAP_TAPCELL_ROW_62_2_545
*3441 TAP_TAPCELL_ROW_63_2_546
*3442 TAP_TAPCELL_ROW_64_2_547
*3443 TAP_TAPCELL_ROW_64_2_548
*3444 TAP_TAPCELL_ROW_65_2_549
*3445 TAP_TAPCELL_ROW_66_2_550
*3446 TAP_TAPCELL_ROW_66_2_551
*3447 TAP_TAPCELL_ROW_67_2_552
*3448 TAP_TAPCELL_ROW_68_2_553
*3449 TAP_TAPCELL_ROW_68_2_554
*3450 TAP_TAPCELL_ROW_69_2_555
*3451 TAP_TAPCELL_ROW_6_410
*3452 TAP_TAPCELL_ROW_6_411
*3453 TAP_TAPCELL_ROW_6_412
*3454 TAP_TAPCELL_ROW_6_413
*3455 TAP_TAPCELL_ROW_6_414
*3456 TAP_TAPCELL_ROW_6_415
*3457 TAP_TAPCELL_ROW_6_416
*3458 TAP_TAPCELL_ROW_6_417
*3459 TAP_TAPCELL_ROW_6_418
*3460 TAP_TAPCELL_ROW_6_419
*3461 TAP_TAPCELL_ROW_6_420
*3462 TAP_TAPCELL_ROW_6_421
*3463 TAP_TAPCELL_ROW_6_422
*3464 TAP_TAPCELL_ROW_6_423
*3465 TAP_TAPCELL_ROW_70_2_556
*3466 TAP_TAPCELL_ROW_70_2_557
*3467 TAP_TAPCELL_ROW_71_2_558
*3468 TAP_TAPCELL_ROW_72_2_559
*3469 TAP_TAPCELL_ROW_72_2_560
*3470 TAP_TAPCELL_ROW_73_2_561
*3471 TAP_TAPCELL_ROW_74_2_562
*3472 TAP_TAPCELL_ROW_74_2_563
*3473 TAP_TAPCELL_ROW_75_2_564
*3474 TAP_TAPCELL_ROW_76_2_565
*3475 TAP_TAPCELL_ROW_76_2_566
*3476 TAP_TAPCELL_ROW_77_2_567
*3477 TAP_TAPCELL_ROW_78_2_568
*3478 TAP_TAPCELL_ROW_78_2_569
*3479 TAP_TAPCELL_ROW_79_2_570
*3480 TAP_TAPCELL_ROW_7_424
*3481 TAP_TAPCELL_ROW_7_425
*3482 TAP_TAPCELL_ROW_7_426
*3483 TAP_TAPCELL_ROW_7_427
*3484 TAP_TAPCELL_ROW_7_428
*3485 TAP_TAPCELL_ROW_7_429
*3486 TAP_TAPCELL_ROW_7_430
*3487 TAP_TAPCELL_ROW_7_431
*3488 TAP_TAPCELL_ROW_7_432
*3489 TAP_TAPCELL_ROW_7_433
*3490 TAP_TAPCELL_ROW_7_434
*3491 TAP_TAPCELL_ROW_7_435
*3492 TAP_TAPCELL_ROW_7_436
*3493 TAP_TAPCELL_ROW_7_437
*3494 TAP_TAPCELL_ROW_80_2_571
*3495 TAP_TAPCELL_ROW_80_2_572
*3496 TAP_TAPCELL_ROW_81_2_573
*3497 TAP_TAPCELL_ROW_82_2_574
*3498 TAP_TAPCELL_ROW_82_2_575
*3499 TAP_TAPCELL_ROW_83_2_576
*3500 TAP_TAPCELL_ROW_84_2_577
*3501 TAP_TAPCELL_ROW_84_2_578
*3502 TAP_TAPCELL_ROW_85_2_579
*3503 TAP_TAPCELL_ROW_86_2_580
*3504 TAP_TAPCELL_ROW_86_2_581
*3505 TAP_TAPCELL_ROW_87_2_582
*3506 TAP_TAPCELL_ROW_88_2_583
*3507 TAP_TAPCELL_ROW_88_2_584
*3508 TAP_TAPCELL_ROW_89_2_585
*3509 TAP_TAPCELL_ROW_8_438
*3510 TAP_TAPCELL_ROW_8_439
*3511 TAP_TAPCELL_ROW_8_440
*3512 TAP_TAPCELL_ROW_8_441
*3513 TAP_TAPCELL_ROW_8_442
*3514 TAP_TAPCELL_ROW_8_443
*3515 TAP_TAPCELL_ROW_8_444
*3516 TAP_TAPCELL_ROW_8_445
*3517 TAP_TAPCELL_ROW_8_446
*3518 TAP_TAPCELL_ROW_8_447
*3519 TAP_TAPCELL_ROW_8_448
*3520 TAP_TAPCELL_ROW_8_449
*3521 TAP_TAPCELL_ROW_8_450
*3522 TAP_TAPCELL_ROW_8_451
*3523 TAP_TAPCELL_ROW_8_452
*3524 TAP_TAPCELL_ROW_8_453
*3525 TAP_TAPCELL_ROW_8_454
*3526 TAP_TAPCELL_ROW_8_455
*3527 TAP_TAPCELL_ROW_8_456
*3528 TAP_TAPCELL_ROW_8_457
*3529 TAP_TAPCELL_ROW_8_458
*3530 TAP_TAPCELL_ROW_8_459
*3531 TAP_TAPCELL_ROW_8_460
*3532 TAP_TAPCELL_ROW_8_461
*3533 TAP_TAPCELL_ROW_8_462
*3534 TAP_TAPCELL_ROW_8_463
*3535 TAP_TAPCELL_ROW_8_464
*3536 TAP_TAPCELL_ROW_8_465
*3537 TAP_TAPCELL_ROW_90_2_586
*3538 TAP_TAPCELL_ROW_90_2_587
*3539 TAP_TAPCELL_ROW_91_2_588
*3540 TAP_TAPCELL_ROW_92_2_589
*3541 TAP_TAPCELL_ROW_92_2_590
*3542 TAP_TAPCELL_ROW_93_2_591
*3543 TAP_TAPCELL_ROW_94_2_592
*3544 TAP_TAPCELL_ROW_94_2_593
*3545 TAP_TAPCELL_ROW_95_2_594
*3546 TAP_TAPCELL_ROW_96_2_595
*3547 TAP_TAPCELL_ROW_96_2_596
*3548 TAP_TAPCELL_ROW_97_2_597
*3549 TAP_TAPCELL_ROW_98_2_598
*3550 TAP_TAPCELL_ROW_98_2_599
*3551 TAP_TAPCELL_ROW_99_2_600
*3552 TAP_TAPCELL_ROW_9_2_687
*3553 _10_
*3554 _11_
*3555 _12_
*3556 _13_
*3557 _14_
*3558 _15_
*3559 _16_
*3560 _17_
*3561 _18_
*3562 _19_
*3563 _20_
*3564 _21_
*3565 _22_
*3566 _23_
*3567 _24_
*3568 _25_
*3569 _26_
*3570 _27_
*3571 _28_
*3572 _29_
*3573 _30_
*3574 _31_
*3575 _32_
*3576 _33_
*3577 _34_
*3578 _35_
*3579 _36_
*3580 _37_
*3581 _38_
*3582 _39_
*3583 _40_
*3584 _41_
*3585 _42_
*3586 _43_
*3587 _44_
*3588 _45_
*3589 clkbuf_0_wb_clk_i
*3590 clkbuf_1_0__f_wb_clk_i
*3591 clkbuf_1_1__f_wb_clk_i
*3592 clkload0
*3593 fanout84
*3594 fanout85
*3595 fanout86
*3596 fanout87
*3597 fanout88
*3598 fanout89
*3599 hold1
*3600 hold10
*3601 hold100
*3602 hold101
*3603 hold102
*3604 hold103
*3605 hold104
*3606 hold105
*3607 hold106
*3608 hold107
*3609 hold108
*3610 hold109
*3611 hold11
*3612 hold110
*3613 hold111
*3614 hold112
*3615 hold113
*3616 hold114
*3617 hold115
*3618 hold116
*3619 hold117
*3620 hold118
*3621 hold119
*3622 hold12
*3623 hold120
*3624 hold121
*3625 hold122
*3626 hold123
*3627 hold124
*3628 hold125
*3629 hold126
*3630 hold127
*3631 hold128
*3632 hold129
*3633 hold13
*3634 hold130
*3635 hold131
*3636 hold132
*3637 hold133
*3638 hold134
*3639 hold135
*3640 hold136
*3641 hold137
*3642 hold138
*3643 hold14
*3644 hold15
*3645 hold16
*3646 hold17
*3647 hold18
*3648 hold19
*3649 hold2
*3650 hold20
*3651 hold21
*3652 hold22
*3653 hold23
*3654 hold24
*3655 hold25
*3656 hold26
*3657 hold27
*3658 hold28
*3659 hold29
*3660 hold3
*3661 hold30
*3662 hold31
*3663 hold32
*3664 hold33
*3665 hold34
*3666 hold35
*3667 hold36
*3668 hold37
*3669 hold38
*3670 hold39
*3671 hold4
*3672 hold40
*3673 hold41
*3674 hold42
*3675 hold43
*3676 hold44
*3677 hold45
*3678 hold46
*3679 hold47
*3680 hold48
*3681 hold49
*3682 hold5
*3683 hold50
*3684 hold51
*3685 hold52
*3686 hold53
*3687 hold54
*3688 hold55
*3689 hold56
*3690 hold57
*3691 hold58
*3692 hold59
*3693 hold6
*3694 hold60
*3695 hold61
*3696 hold62
*3697 hold63
*3698 hold64
*3699 hold65
*3700 hold66
*3701 hold67
*3702 hold68
*3703 hold69
*3704 hold7
*3705 hold70
*3706 hold71
*3707 hold72
*3708 hold73
*3709 hold74
*3710 hold75
*3711 hold76
*3712 hold77
*3713 hold78
*3714 hold79
*3715 hold8
*3716 hold80
*3717 hold81
*3718 hold82
*3719 hold83
*3720 hold84
*3721 hold85
*3722 hold86
*3723 hold87
*3724 hold88
*3725 hold89
*3726 hold9
*3727 hold90
*3728 hold91
*3729 hold92
*3730 hold93
*3731 hold94
*3732 hold95
*3733 hold96
*3734 hold97
*3735 hold98
*3736 hold99
*3737 i_sram
*3738 i_sram_90
*3739 i_sram_91
*3740 i_sram_92
*3741 i_sram_93
*3742 i_sram_94
*3743 i_sram_95
*3744 i_sram_96
*3745 i_sram_97
*3746 i_sram_98
*3747 input1
*3748 input10
*3749 input11
*3750 input12
*3751 input13
*3752 input14
*3753 input15
*3754 input16
*3755 input17
*3756 input18
*3757 input19
*3758 input2
*3759 input20
*3760 input21
*3761 input22
*3762 input23
*3763 input24
*3764 input25
*3765 input26
*3766 input27
*3767 input28
*3768 input29
*3769 input3
*3770 input30
*3771 input31
*3772 input32
*3773 input33
*3774 input34
*3775 input35
*3776 input36
*3777 input37
*3778 input38
*3779 input39
*3780 input4
*3781 input40
*3782 input41
*3783 input42
*3784 input43
*3785 input44
*3786 input45
*3787 input46
*3788 input47
*3789 input48
*3790 input49
*3791 input5
*3792 input50
*3793 input6
*3794 input7
*3795 input8
*3796 input9
*3797 output51
*3798 output52
*3799 output53
*3800 output54
*3801 output55
*3802 output56
*3803 output57
*3804 output58
*3805 output59
*3806 output60
*3807 output61
*3808 output62
*3809 output63
*3810 output64
*3811 output65
*3812 output66
*3813 output67
*3814 output68
*3815 output69
*3816 output70
*3817 output71
*3818 output72
*3819 output73
*3820 output74
*3821 output75
*3822 output76
*3823 output77
*3824 output78
*3825 output79
*3826 output80
*3827 output81
*3828 output82
*3829 output83

*PORTS
wb_clk_i I
wb_rst_i I
wbs_ack_o O
wbs_adr_i[0] I
wbs_adr_i[10] I
wbs_adr_i[11] I
wbs_adr_i[12] I
wbs_adr_i[13] I
wbs_adr_i[14] I
wbs_adr_i[15] I
wbs_adr_i[16] I
wbs_adr_i[17] I
wbs_adr_i[18] I
wbs_adr_i[19] I
wbs_adr_i[1] I
wbs_adr_i[20] I
wbs_adr_i[21] I
wbs_adr_i[22] I
wbs_adr_i[23] I
wbs_adr_i[24] I
wbs_adr_i[25] I
wbs_adr_i[26] I
wbs_adr_i[27] I
wbs_adr_i[28] I
wbs_adr_i[29] I
wbs_adr_i[2] I
wbs_adr_i[30] I
wbs_adr_i[31] I
wbs_adr_i[3] I
wbs_adr_i[4] I
wbs_adr_i[5] I
wbs_adr_i[6] I
wbs_adr_i[7] I
wbs_adr_i[8] I
wbs_adr_i[9] I
wbs_cyc_i I
wbs_dat_i[0] I
wbs_dat_i[10] I
wbs_dat_i[11] I
wbs_dat_i[12] I
wbs_dat_i[13] I
wbs_dat_i[14] I
wbs_dat_i[15] I
wbs_dat_i[16] I
wbs_dat_i[17] I
wbs_dat_i[18] I
wbs_dat_i[19] I
wbs_dat_i[1] I
wbs_dat_i[20] I
wbs_dat_i[21] I
wbs_dat_i[22] I
wbs_dat_i[23] I
wbs_dat_i[24] I
wbs_dat_i[25] I
wbs_dat_i[26] I
wbs_dat_i[27] I
wbs_dat_i[28] I
wbs_dat_i[29] I
wbs_dat_i[2] I
wbs_dat_i[30] I
wbs_dat_i[31] I
wbs_dat_i[3] I
wbs_dat_i[4] I
wbs_dat_i[5] I
wbs_dat_i[6] I
wbs_dat_i[7] I
wbs_dat_i[8] I
wbs_dat_i[9] I
wbs_dat_o[0] O
wbs_dat_o[10] O
wbs_dat_o[11] O
wbs_dat_o[12] O
wbs_dat_o[13] O
wbs_dat_o[14] O
wbs_dat_o[15] O
wbs_dat_o[16] O
wbs_dat_o[17] O
wbs_dat_o[18] O
wbs_dat_o[19] O
wbs_dat_o[1] O
wbs_dat_o[20] O
wbs_dat_o[21] O
wbs_dat_o[22] O
wbs_dat_o[23] O
wbs_dat_o[24] O
wbs_dat_o[25] O
wbs_dat_o[26] O
wbs_dat_o[27] O
wbs_dat_o[28] O
wbs_dat_o[29] O
wbs_dat_o[2] O
wbs_dat_o[30] O
wbs_dat_o[31] O
wbs_dat_o[3] O
wbs_dat_o[4] O
wbs_dat_o[5] O
wbs_dat_o[6] O
wbs_dat_o[7] O
wbs_dat_o[8] O
wbs_dat_o[9] O
wbs_sel_i[0] I
wbs_sel_i[1] I
wbs_sel_i[2] I
wbs_sel_i[3] I
wbs_stb_i I
wbs_we_i I

*D_NET *3 0.0419269
*CONN
*P wb_clk_i I
*I *3589:A I *D sky130_fd_sc_hd__clkbuf_16
*CAP
1 wb_clk_i 0.000207079
2 *3589:A 0
3 *3:17 0.0027927
4 *3:15 0.0027927
5 *3:13 0.00926961
6 *3:11 0.00947669
7 *3:13 *334:38 0
8 *3:13 *335:14 0
9 *3:13 *365:28 0
10 *3:17 wbs_dat_o[27] 0.000295455
11 *3:17 *3591:A 1.71013e-05
12 *3:17 *3624:A 0
13 *3:17 *3704:A 0.000133451
14 *3:17 *3716:A 0.000223727
15 *3:17 *3817:A 0.000133266
16 *3:17 *110:10 0.000256398
17 *3:17 *170:85 0.00019824
18 *3:17 *232:10 5.53036e-05
19 *3:17 *237:12 0.000976175
20 *3:17 *239:8 0.000125626
21 *3:17 *258:28 6.89918e-05
22 *3:17 *258:30 0.000208088
23 *3:17 *317:50 0.00168119
24 *3:17 *325:34 0
25 *3:17 *325:36 0.0077996
26 *3:17 *326:24 0.00148938
27 *3:17 *327:65 1.07797e-05
28 *3:17 *327:69 1.1071e-05
29 *3:17 *339:52 4.60262e-05
30 *3:17 *339:54 0.00365821
*RES
1 wb_clk_i *3:11 6.05 
2 *3:11 *3:13 159.84 
3 *3:13 *3:15 2 
4 *3:15 *3:17 106.44 
5 *3:17 *3589:A 3.6 
*END

*D_NET *4 0.000337895
*CONN
*P wb_rst_i I
*I *3747:A I *D sky130_fd_sc_hd__buf_1
*CAP
1 wb_rst_i 0.000168947
2 *3747:A 0.000168947
3 *3747:A wbs_ack_o 0
*RES
1 wb_rst_i *3747:A 6.27 
*END

*D_NET *5 0.000676415
*CONN
*P wbs_ack_o O
*I *3797:X O *D sky130_fd_sc_hd__buf_12
*CAP
1 wbs_ack_o 0.000298305
2 *3797:X 0.000298305
3 wbs_ack_o *3554:A 7.98062e-05
4 wbs_ack_o *3750:A 0
5 *3747:A wbs_ack_o 0
*RES
1 *3797:X wbs_ack_o 8.25 
*END

*D_NET *7 0.00274906
*CONN
*P wbs_adr_i[10] I
*I *3634:A I *D sky130_fd_sc_hd__dlygate4sd3_1
*CAP
1 wbs_adr_i[10] 0.000473181
2 *3634:A 0.000473181
3 *3634:A wbs_dat_o[11] 6.49421e-05
4 *3634:A *3603:A 0
5 *3634:A *3829:A 0.000419386
6 *3634:A *115:41 0.000107324
7 *3634:A *325:14 1.08758e-05
8 *3634:A *325:26 0.000101493
9 *3634:A *334:38 7.82537e-05
10 *3634:A *335:16 0.00102042
*RES
1 wbs_adr_i[10] *3634:A 21.175 
*END

*D_NET *8 0.00144965
*CONN
*P wbs_adr_i[11] I
*I *3632:A I *D sky130_fd_sc_hd__dlygate4sd3_1
*CAP
1 wbs_adr_i[11] 0.00038119
2 *3632:A 0.00038119
3 *3632:A wbs_dat_o[10] 0
4 *3632:A wbs_dat_o[11] 0
5 *3632:A *3602:A 0
6 *3632:A *3686:A 0.000341386
7 *3632:A *3800:A 0.000127796
8 *3632:A *3829:A 0
9 *3632:A *159:8 0.000158072
10 *3632:A *324:16 6.00111e-05
*RES
1 wbs_adr_i[11] *3632:A 11.385 
*END

*D_NET *28 0.00484622
*CONN
*P wbs_adr_i[2] I
*I *3642:A I *D sky130_fd_sc_hd__dlygate4sd3_1
*CAP
1 wbs_adr_i[2] 0.00148611
2 *3642:A 0.00148611
3 *3642:A *3620:A 0
4 *3642:A *3638:A 0
5 *3642:A *3644:A 8.37038e-05
6 *3642:A *3717:A 0.000636943
7 *3642:A *3731:A 0.000339313
8 *3642:A *3775:A 6.77517e-06
9 *3642:A *170:28 6.20842e-05
10 *3642:A *329:26 0.00074518
*RES
1 wbs_adr_i[2] *3642:A 25.29 
*END

*D_NET *31 0.00267045
*CONN
*P wbs_adr_i[3] I
*I *3641:A I *D sky130_fd_sc_hd__dlygate4sd3_1
*CAP
1 wbs_adr_i[3] 0.000665584
2 *3641:A 0.000665584
3 *3641:A wbs_dat_o[2] 0
4 *3641:A *428:DIODE 2.99955e-05
5 *3641:A *3561:D 0
6 *3641:A *3588:RESET_B 0.000832257
7 *3641:A *3706:A 0.000144458
8 *3641:A *3730:A 0
9 *3641:A *3731:A 0.000235573
10 *3641:A *3789:A 0
11 *3641:A *115:49 5.86746e-05
12 *3641:A *329:26 3.83194e-05
13 *3641:A *336:36 0
*RES
1 wbs_adr_i[3] *3641:A 17.85 
*END

*D_NET *32 0.00122917
*CONN
*P wbs_adr_i[4] I
*I *3640:A I *D sky130_fd_sc_hd__dlygate4sd3_1
*CAP
1 wbs_adr_i[4] 0.000217764
2 *3640:A 0.000217764
3 *3640:A *3789:A 0.000157959
4 *3640:A *3797:A 0.00013521
5 *3640:A *115:41 6.19997e-05
6 *3640:A *325:14 0.000424519
7 *3640:A *365:28 1.39502e-05
*RES
1 wbs_adr_i[4] *3640:A 9.825 
*END

*D_NET *33 0.00448361
*CONN
*P wbs_adr_i[5] I
*I *3638:A I *D sky130_fd_sc_hd__dlygate4sd3_1
*CAP
1 wbs_adr_i[5] 0.000738482
2 *3638:A 0.000738482
3 *3638:A wbs_dat_o[4] 0
4 *3638:A *3609:A 0
5 *3638:A *3620:A 0.000136884
6 *3638:A *3733:A 0.00116948
7 *3638:A *3797:A 0.00139585
8 *3638:A *335:14 0.000304433
9 *3642:A *3638:A 0
*RES
1 wbs_adr_i[5] *3638:A 27.625 
*END

*D_NET *34 0.00207113
*CONN
*P wbs_adr_i[6] I
*I *3639:A I *D sky130_fd_sc_hd__dlygate4sd3_1
*CAP
1 wbs_adr_i[6] 0.000592707
2 *3639:A 0.000592707
3 *3639:A wbs_dat_o[5] 8.95982e-05
4 *3639:A wbs_dat_o[6] 0
5 *3639:A *3607:A 0
6 *3639:A *3664:A 2.97004e-06
7 *3639:A *3712:A 0.000114492
8 *3639:A *3781:A 8.07863e-05
9 *3639:A *3782:A 0
10 *3639:A *3794:A 0
11 *3639:A *3798:A 0
12 *3639:A *3825:A 0
13 *3639:A *3827:A 4.9968e-05
14 *3639:A *323:18 8.70354e-05
15 *3639:A *333:32 0.000230435
16 *3639:A *350:26 0.000230435
*RES
1 wbs_adr_i[6] *3639:A 14.67 
*END

*D_NET *35 0.00121996
*CONN
*P wbs_adr_i[7] I
*I *3637:A I *D sky130_fd_sc_hd__dlygate4sd3_1
*CAP
1 wbs_adr_i[7] 0.000353268
2 *3637:A 0.000353268
3 *3637:A wbs_dat_o[6] 0.000197269
4 *3637:A *3606:A 0
5 *3637:A *3803:A 0.000207887
6 *3637:A *3827:A 0.000108267
*RES
1 wbs_adr_i[7] *3637:A 11.07 
*END

*D_NET *36 0.00130621
*CONN
*P wbs_adr_i[8] I
*I *3636:A I *D sky130_fd_sc_hd__dlygate4sd3_1
*CAP
1 wbs_adr_i[8] 0.000279032
2 *3636:A 0.000279032
3 *3636:A wbs_dat_o[7] 0.000161893
4 *3636:A *3605:A 0
5 *3636:A *3827:A 0.000272943
6 *3636:A *115:41 0.00030383
7 *3636:A *325:14 9.47972e-06
*RES
1 wbs_adr_i[8] *3636:A 10.995 
*END

*D_NET *37 0.00179367
*CONN
*P wbs_adr_i[9] I
*I *3635:A I *D sky130_fd_sc_hd__dlygate4sd3_1
*CAP
1 wbs_adr_i[9] 0.0002893
2 *3635:A 0.0002893
3 *3635:A wbs_dat_o[8] 0.000275037
4 *3635:A wbs_dat_o[9] 0.000349885
5 *3635:A *3604:A 0
6 *3635:A *3828:A 2.99518e-06
7 *3635:A *115:41 0.000427444
8 *3635:A *325:14 5.8322e-05
9 *3635:A *326:24 0.000101386
*RES
1 wbs_adr_i[9] *3635:A 12.48 
*END

*D_NET *38 0.00112004
*CONN
*P wbs_cyc_i I
*I *3750:A I *D sky130_fd_sc_hd__buf_2
*CAP
1 wbs_cyc_i 0.000447144
2 *3750:A 0.000447144
3 *3750:A *3790:A 0.00014341
4 *3750:A *170:28 8.23457e-05
5 wbs_ack_o *3750:A 0
*RES
1 wbs_cyc_i *3750:A 10.5 
*END

*D_NET *39 0.000960487
*CONN
*P wbs_dat_i[0] I
*I *3628:A I *D sky130_fd_sc_hd__dlygate4sd3_1
*CAP
1 wbs_dat_i[0] 0.00031862
2 *3628:A 0.00031862
3 *3628:A *3625:A 0.000161623
4 *3628:A *3792:A 0.000161623
*RES
1 wbs_dat_i[0] *3628:A 9.345 
*END

*D_NET *40 0.0020425
*CONN
*P wbs_dat_i[10] I
*I *3603:A I *D sky130_fd_sc_hd__dlygate4sd3_1
*CAP
1 wbs_dat_i[10] 0.000775688
2 *3603:A 0.000775688
3 *3603:A wbs_dat_o[10] 0.000356272
4 *3603:A *3682:A 0
5 *3603:A *3686:A 0
6 *3603:A *3693:A 2.75229e-05
7 *3603:A *3752:A 0.000107325
8 *3603:A *3800:A 0
9 *3634:A *3603:A 0
*RES
1 wbs_dat_i[10] *3603:A 15.21 
*END

*D_NET *41 0.00277023
*CONN
*P wbs_dat_i[11] I
*I *3602:A I *D sky130_fd_sc_hd__dlygate4sd3_1
*CAP
1 wbs_dat_i[11] 0.000533845
2 *3602:A 0.000533845
3 *3602:A wbs_dat_o[11] 0.000268138
4 *3602:A *3800:A 0.000110259
5 *3602:A *3803:A 0.000293994
6 *3602:A *321:16 0.00103015
7 *3632:A *3602:A 0
*RES
1 wbs_dat_i[11] *3602:A 18.18 
*END

*D_NET *42 0.00260152
*CONN
*P wbs_dat_i[12] I
*I *3601:A I *D sky130_fd_sc_hd__dlygate4sd3_1
*CAP
1 wbs_dat_i[12] 0.000366686
2 *3601:A 0.000366686
3 *3601:A wbs_dat_o[12] 0.00039855
4 *3601:A wbs_dat_o[13] 0.000308594
5 *3601:A *115:39 0.000714492
6 *3601:A *115:41 0.000251461
7 *3601:A *325:26 0.000195047
*RES
1 wbs_dat_i[12] *3601:A 16.515 
*END

*D_NET *43 0.000786214
*CONN
*P wbs_dat_i[13] I
*I *3736:A I *D sky130_fd_sc_hd__dlygate4sd3_1
*CAP
1 wbs_dat_i[13] 0.000319526
2 *3736:A 0.000319526
3 *3736:A wbs_dat_o[13] 0
4 *3736:A *3657:A 0
5 *3736:A *3803:A 7.35813e-05
6 *3736:A *321:16 7.35813e-05
7 *3736:A *334:38 0
*RES
1 wbs_dat_i[13] *3736:A 9 
*END

*D_NET *44 0.00104578
*CONN
*P wbs_dat_i[14] I
*I *3735:A I *D sky130_fd_sc_hd__dlygate4sd3_1
*CAP
1 wbs_dat_i[14] 0.000367374
2 *3735:A 0.000367374
3 *3735:A wbs_dat_o[13] 0
4 *3735:A *3756:A 0
5 *3735:A *3802:A 0.00010901
6 *3735:A *3804:A 0.000153727
7 *3735:A *159:12 4.82919e-05
*RES
1 wbs_dat_i[14] *3735:A 10.35 
*END

*D_NET *45 0.00152248
*CONN
*P wbs_dat_i[15] I
*I *3734:A I *D sky130_fd_sc_hd__dlygate4sd3_1
*CAP
1 wbs_dat_i[15] 0.00037245
2 *3734:A 0.00037245
3 *3734:A wbs_dat_o[14] 0
4 *3734:A wbs_dat_o[15] 0
5 *3734:A *3646:A 0
6 *3734:A *225:10 0.000505051
7 *3734:A *236:20 0.000272527
*RES
1 wbs_dat_i[15] *3734:A 12.45 
*END

*D_NET *46 0.000935433
*CONN
*P wbs_dat_i[16] I
*I *3615:A I *D sky130_fd_sc_hd__dlygate4sd3_1
*CAP
1 wbs_dat_i[16] 0.0003889
2 *3615:A 0.0003889
3 *3615:A wbs_dat_o[15] 0
4 *3615:A *3599:A 0
5 *3615:A *3759:A 0
6 *3615:A *3804:A 0.000132862
7 *3615:A *3805:A 0
8 *3615:A *259:14 2.47705e-05
*RES
1 wbs_dat_i[16] *3615:A 9.9 
*END

*D_NET *47 0.00204192
*CONN
*P wbs_dat_i[17] I
*I *3612:A I *D sky130_fd_sc_hd__dlygate4sd3_1
*CAP
1 wbs_dat_i[17] 0.000381055
2 *3612:A 0.000381055
3 *3612:A wbs_dat_o[16] 0
4 *3612:A wbs_dat_o[17] 0
5 *3612:A *3681:A 0
6 *3612:A *3806:A 9.97089e-05
7 *3612:A *3807:A 4.89295e-05
8 *3612:A *225:10 0.000678787
9 *3612:A *236:20 0.000360276
10 *3612:A *325:26 9.21068e-05
*RES
1 wbs_dat_i[17] *3612:A 14.175 
*END

*D_NET *48 0.00180754
*CONN
*P wbs_dat_i[18] I
*I *3608:A I *D sky130_fd_sc_hd__dlygate4sd3_1
*CAP
1 wbs_dat_i[18] 0.000662792
2 *3608:A 0.000662792
3 *3608:A wbs_dat_o[17] 0.000272389
4 *3608:A *3670:A 0.000122155
5 *3608:A *115:29 8.7414e-05
*RES
1 wbs_dat_i[18] *3608:A 12.585 
*END

*D_NET *49 0.00135481
*CONN
*P wbs_dat_i[19] I
*I *3613:A I *D sky130_fd_sc_hd__dlygate4sd3_1
*CAP
1 wbs_dat_i[19] 0.000468575
2 *3613:A 0.000468575
3 *3613:A wbs_dat_o[18] 0
4 *3613:A wbs_dat_o[19] 9.12496e-05
5 *3613:A *3808:A 0
6 *3613:A *3810:A 0.000163204
7 *3613:A *225:10 0.000163204
*RES
1 wbs_dat_i[19] *3613:A 11.82 
*END

*D_NET *50 0.00208414
*CONN
*P wbs_dat_i[1] I
*I *3625:A I *D sky130_fd_sc_hd__dlygate4sd3_1
*CAP
1 wbs_dat_i[1] 0.000734464
2 *3625:A 0.000734464
3 *3625:A wbs_dat_o[1] 0
4 *3625:A *3554:A 0
5 *3625:A *3723:A 0
6 *3625:A *3727:A 0
7 *3625:A *3792:A 0.000130245
8 *3625:A *3798:A 3.09164e-05
9 *3625:A *170:28 0.000292432
10 *3628:A *3625:A 0.000161623
*RES
1 wbs_dat_i[1] *3625:A 16.005 
*END

*D_NET *51 0.00159593
*CONN
*P wbs_dat_i[20] I
*I *3610:A I *D sky130_fd_sc_hd__dlygate4sd3_1
*CAP
1 wbs_dat_i[20] 0.000592102
2 *3610:A 0.000592102
3 *3610:A wbs_dat_o[19] 0.000196669
4 *3610:A *3684:A 9.74299e-05
5 *3610:A *115:29 0.000117633
*RES
1 wbs_dat_i[20] *3610:A 11.895 
*END

*D_NET *52 0.00119909
*CONN
*P wbs_dat_i[21] I
*I *3616:A I *D sky130_fd_sc_hd__dlygate4sd3_1
*CAP
1 wbs_dat_i[21] 0.000393321
2 *3616:A 0.000393321
3 *3616:A wbs_dat_o[20] 0
4 *3616:A wbs_dat_o[21] 0.0001249
5 *3616:A *3684:A 0
6 *3616:A *3811:A 0.000176264
7 *3616:A *292:10 0.000111285
*RES
1 wbs_dat_i[21] *3616:A 10.98 
*END

*D_NET *53 0.00180625
*CONN
*P wbs_dat_i[22] I
*I *3614:A I *D sky130_fd_sc_hd__dlygate4sd3_1
*CAP
1 wbs_dat_i[22] 0.000536381
2 *3614:A 0.000536381
3 *3614:A wbs_dat_o[21] 0
4 *3614:A wbs_dat_o[22] 0
5 *3614:A *3688:A 0.000135923
6 *3614:A *3813:A 0
7 *3614:A *159:36 0
8 *3614:A *281:26 0.000119246
9 *3614:A *301:32 0.000174273
10 *3614:A *302:8 0.000304052
*RES
1 wbs_dat_i[22] *3614:A 13.575 
*END

*D_NET *54 0.00140144
*CONN
*P wbs_dat_i[23] I
*I *3618:A I *D sky130_fd_sc_hd__dlygate4sd3_1
*CAP
1 wbs_dat_i[23] 0.000391939
2 *3618:A 0.000391939
3 *3618:A wbs_dat_o[22] 0
4 *3618:A wbs_dat_o[23] 0
5 *3618:A *3765:A 0
6 *3618:A *270:28 0.000382776
7 *3618:A *292:10 0.000234786
*RES
1 wbs_dat_i[23] *3618:A 11.67 
*END

*D_NET *55 0.00100613
*CONN
*P wbs_dat_i[24] I
*I *3619:A I *D sky130_fd_sc_hd__dlygate4sd3_1
*CAP
1 wbs_dat_i[24] 0.000428586
2 *3619:A 0.000428586
3 *3619:A wbs_dat_o[23] 0
4 *3619:A wbs_dat_o[24] 0
5 *3619:A *3692:A 5.23794e-05
6 *3619:A *159:36 0
7 *3619:A *281:26 4.82919e-05
8 *3619:A *301:32 4.82919e-05
*RES
1 wbs_dat_i[24] *3619:A 10.35 
*END

*D_NET *56 0.00341776
*CONN
*P wbs_dat_i[25] I
*I *3623:A I *D sky130_fd_sc_hd__dlygate4sd3_1
*CAP
1 wbs_dat_i[25] 0.00114132
2 *3623:A 0.00114132
3 *3623:A wbs_dat_o[24] 0.000834195
4 *3623:A wbs_dat_o[25] 0
5 *3623:A *3708:A 0.000212193
6 *3623:A *115:29 8.87364e-05
*RES
1 wbs_dat_i[25] *3623:A 19.14 
*END

*D_NET *57 0.00140625
*CONN
*P wbs_dat_i[26] I
*I *3627:A I *D sky130_fd_sc_hd__dlygate4sd3_1
*CAP
1 wbs_dat_i[26] 0.000397123
2 *3627:A 0.000397123
3 *3627:A wbs_dat_o[25] 0
4 *3627:A wbs_dat_o[26] 0
5 *3627:A *3708:A 0.000179711
6 *3627:A *132:49 0
7 *3627:A *281:26 6.14776e-05
8 *3627:A *292:10 0.000370812
*RES
1 wbs_dat_i[26] *3627:A 11.94 
*END

*D_NET *58 0.00195732
*CONN
*P wbs_dat_i[27] I
*I *3624:A I *D sky130_fd_sc_hd__dlygate4sd3_1
*CAP
1 wbs_dat_i[27] 0.000455454
2 *3624:A 0.000455454
3 *3624:A wbs_dat_o[28] 5.83121e-06
4 *3624:A *3704:A 0.000130453
5 *3624:A *3772:A 0.000348699
6 *3624:A *305:8 0.00041713
7 *3624:A *325:34 0.000144294
8 *3:17 *3624:A 0
*RES
1 wbs_dat_i[27] *3624:A 14.865 
*END

*D_NET *59 0.000565471
*CONN
*P wbs_dat_i[28] I
*I *3626:A I *D sky130_fd_sc_hd__dlygate4sd3_1
*CAP
1 wbs_dat_i[28] 0.000157835
2 *3626:A 0.000157835
3 *3626:A wbs_dat_o[27] 0
4 *3626:A wbs_dat_o[28] 0
5 *3626:A *3770:A 0.0001249
6 *3626:A *115:29 0.0001249
*RES
1 wbs_dat_i[28] *3626:A 6.96 
*END

*D_NET *60 0.00141768
*CONN
*P wbs_dat_i[29] I
*I *3629:A I *D sky130_fd_sc_hd__dlygate4sd3_1
*CAP
1 wbs_dat_i[29] 0.000631099
2 *3629:A 0.000631099
3 *3629:A wbs_dat_o[28] 0
4 *3629:A wbs_dat_o[30] 8.65961e-05
5 *3629:A *3648:A 2.11084e-05
6 *3629:A *3770:A 4.77757e-05
*RES
1 wbs_dat_i[29] *3629:A 13.515 
*END

*D_NET *61 0.0022548
*CONN
*P wbs_dat_i[2] I
*I *3620:A I *D sky130_fd_sc_hd__dlygate4sd3_1
*CAP
1 wbs_dat_i[2] 0.000578686
2 *3620:A 0.000578686
3 *3620:A wbs_dat_o[2] 0
4 *3620:A *3563:A_N 0.000158066
5 *3620:A *3563:B 4.82863e-05
6 *3620:A *170:28 0.000142593
7 *3620:A *317:30 0.000126904
8 *3620:A *327:22 0.000114492
9 *3620:A *329:26 0.000370204
10 *3620:A *335:14 0
11 *3638:A *3620:A 0.000136884
12 *3642:A *3620:A 0
*RES
1 wbs_dat_i[2] *3620:A 16.5 
*END

*D_NET *62 0.00134392
*CONN
*P wbs_dat_i[30] I
*I *3630:A I *D sky130_fd_sc_hd__dlygate4sd3_1
*CAP
1 wbs_dat_i[30] 0.00032278
2 *3630:A 0.00032278
3 *3630:A wbs_dat_o[28] 0.000350486
4 *3630:A wbs_dat_o[29] 0
5 *3630:A wbs_dat_o[30] 0
6 *3630:A *456:DIODE 4.94326e-05
7 *3630:A *3648:A 9.30717e-05
8 *3630:A *3818:A 0.000205372
*RES
1 wbs_dat_i[30] *3630:A 11.73 
*END

*D_NET *63 0.00107345
*CONN
*P wbs_dat_i[31] I
*I *3631:A I *D sky130_fd_sc_hd__dlygate4sd3_1
*CAP
1 wbs_dat_i[31] 0.000473841
2 *3631:A 0.000473841
3 *3631:A wbs_dat_o[30] 0.000122801
4 *3631:A *3821:A 2.97004e-06
*RES
1 wbs_dat_i[31] *3631:A 10.755 
*END

*D_NET *64 0.00352375
*CONN
*P wbs_dat_i[3] I
*I *3621:A I *D sky130_fd_sc_hd__dlygate4sd3_1
*CAP
1 wbs_dat_i[3] 0.0011529
2 *3621:A 0.0011529
3 *3621:A wbs_dat_o[3] 0.000342757
4 *3621:A *462:DIODE 0.000119022
5 *3621:A *3564:D 5.98468e-05
6 *3621:A *3714:A 0
7 *3621:A *3779:A 8.09985e-05
8 *3621:A *3793:A 1.7635e-05
9 *3621:A *3828:A 1.47759e-05
10 *3621:A *315:20 6.13669e-05
11 *3621:A *316:18 0.000295891
12 *3621:A *328:16 8.4841e-05
13 *3621:A *335:14 0.000121643
14 *3621:A *369:28 1.91597e-05
15 *3621:A *370:103 0
*RES
1 wbs_dat_i[3] *3621:A 26.83 
*END

*D_NET *65 0.00194752
*CONN
*P wbs_dat_i[4] I
*I *3617:A I *D sky130_fd_sc_hd__dlygate4sd3_1
*CAP
1 wbs_dat_i[4] 0.000386712
2 *3617:A 0.000386712
3 *3617:A wbs_dat_o[4] 0
4 *3617:A *3679:A 4.66108e-05
5 *3617:A *3781:A 0.000126575
6 *3617:A *3794:A 4.78537e-05
7 *3617:A *3823:A 0.000190051
8 *3617:A *324:16 0.000197264
9 *3617:A *326:24 0
10 *3617:A *334:32 0.000565741
*RES
1 wbs_dat_i[4] *3617:A 13.29 
*END

*D_NET *66 0.00172427
*CONN
*P wbs_dat_i[5] I
*I *3609:A I *D sky130_fd_sc_hd__dlygate4sd3_1
*CAP
1 wbs_dat_i[5] 0.000377368
2 *3609:A 0.000377368
3 *3609:A wbs_dat_o[4] 0
4 *3609:A wbs_dat_o[5] 0
5 *3609:A *3781:A 0.000272189
6 *3609:A *3820:A 1.20526e-05
7 *3609:A *3824:A 0.000147792
8 *3609:A *3825:A 0.000335941
9 *3609:A *324:16 0.000156934
10 *3609:A *336:36 4.46271e-05
11 *3638:A *3609:A 0
*RES
1 wbs_dat_i[5] *3609:A 12.42 
*END

*D_NET *67 0.00165541
*CONN
*P wbs_dat_i[6] I
*I *3607:A I *D sky130_fd_sc_hd__dlygate4sd3_1
*CAP
1 wbs_dat_i[6] 0.000314889
2 *3607:A 0.000314889
3 *3607:A wbs_dat_o[5] 0.000273878
4 *3607:A wbs_dat_o[6] 0
5 *3607:A *3825:A 0.000201081
6 *3607:A *115:41 0.000223355
7 *3607:A *325:14 0.000327314
8 *3639:A *3607:A 0
*RES
1 wbs_dat_i[6] *3607:A 12.27 
*END

*D_NET *68 0.00135199
*CONN
*P wbs_dat_i[7] I
*I *3606:A I *D sky130_fd_sc_hd__dlygate4sd3_1
*CAP
1 wbs_dat_i[7] 0.000519131
2 *3606:A 0.000519131
3 *3606:A wbs_dat_o[7] 0
4 *3606:A *3826:A 0
5 *3606:A *3827:A 0
6 *3606:A *323:28 0.000154864
7 *3606:A *324:16 0.000158861
8 *3637:A *3606:A 0
*RES
1 wbs_dat_i[7] *3606:A 12.42 
*END

*D_NET *69 0.00165666
*CONN
*P wbs_dat_i[8] I
*I *3605:A I *D sky130_fd_sc_hd__dlygate4sd3_1
*CAP
1 wbs_dat_i[8] 0.000397956
2 *3605:A 0.000397956
3 *3605:A wbs_dat_o[8] 0
4 *3605:A *3653:A 4.99619e-05
5 *3605:A *3701:A 0
6 *3605:A *3784:A 2.75229e-05
7 *3605:A *3803:A 0.000201274
8 *3605:A *3828:A 0
9 *3605:A *321:16 0.000581986
10 *3636:A *3605:A 0
*RES
1 wbs_dat_i[8] *3605:A 13.245 
*END

*D_NET *70 0.00187768
*CONN
*P wbs_dat_i[9] I
*I *3604:A I *D sky130_fd_sc_hd__dlygate4sd3_1
*CAP
1 wbs_dat_i[9] 0.000486063
2 *3604:A 0.000486063
3 *3604:A wbs_dat_o[9] 0
4 *3604:A *3695:A 0
5 *3604:A *3799:A 0.000313699
6 *3604:A *3803:A 0.000563492
7 *3604:A *3828:A 0
8 *3604:A *321:16 2.83649e-05
9 *3635:A *3604:A 0
*RES
1 wbs_dat_i[9] *3604:A 13.95 
*END

*D_NET *71 0.00118575
*CONN
*P wbs_dat_o[0] O
*I *3798:X O *D sky130_fd_sc_hd__buf_12
*CAP
1 wbs_dat_o[0] 0.000408419
2 *3798:X 0.000408419
3 wbs_dat_o[0] *3644:A 0
4 wbs_dat_o[0] *3660:A 0.000123225
5 wbs_dat_o[0] *3717:A 0.000123225
6 wbs_dat_o[0] *3727:A 0
7 wbs_dat_o[0] *3728:A 0.000122463
*RES
1 *3798:X wbs_dat_o[0] 11.04 
*END

*D_NET *72 0.00124617
*CONN
*P wbs_dat_o[10] O
*I *3799:X O *D sky130_fd_sc_hd__buf_12
*CAP
1 wbs_dat_o[10] 0.000223402
2 *3799:X 0.000223402
3 wbs_dat_o[10] *3686:A 0
4 wbs_dat_o[10] *3799:A 4.82919e-05
5 wbs_dat_o[10] *3803:A 0.000107415
6 wbs_dat_o[10] *3829:A 0.000152449
7 wbs_dat_o[10] *321:16 0.000134938
8 *3603:A wbs_dat_o[10] 0.000356272
9 *3632:A wbs_dat_o[10] 0
*RES
1 *3799:X wbs_dat_o[10] 10.035 
*END

*D_NET *73 0.001201
*CONN
*P wbs_dat_o[11] O
*I *3800:X O *D sky130_fd_sc_hd__buf_12
*CAP
1 wbs_dat_o[11] 0.000340078
2 *3800:X 0.000340078
3 wbs_dat_o[11] *3800:A 8.52883e-05
4 wbs_dat_o[11] *3803:A 0.000102473
5 *3602:A wbs_dat_o[11] 0.000268138
6 *3632:A wbs_dat_o[11] 0
7 *3634:A wbs_dat_o[11] 6.49421e-05
*RES
1 *3800:X wbs_dat_o[11] 10.38 
*END

*D_NET *74 0.00130758
*CONN
*P wbs_dat_o[12] O
*I *3801:X O *D sky130_fd_sc_hd__buf_12
*CAP
1 wbs_dat_o[12] 0.000158529
2 *3801:X 0.000158529
3 wbs_dat_o[12] *325:26 0.0004262
4 wbs_dat_o[12] *334:38 0.000165773
5 *3601:A wbs_dat_o[12] 0.00039855
*RES
1 *3801:X wbs_dat_o[12] 9.465 
*END

*D_NET *75 0.00204809
*CONN
*P wbs_dat_o[13] O
*I *3802:X O *D sky130_fd_sc_hd__buf_12
*CAP
1 wbs_dat_o[13] 0.000272501
2 *3802:X 0.000272501
3 wbs_dat_o[13] *3756:A 0.000274659
4 wbs_dat_o[13] *3804:A 0
5 wbs_dat_o[13] *115:39 0.000122053
6 wbs_dat_o[13] *325:26 0.000797786
7 *3601:A wbs_dat_o[13] 0.000308594
8 *3735:A wbs_dat_o[13] 0
9 *3736:A wbs_dat_o[13] 0
*RES
1 *3802:X wbs_dat_o[13] 12.915 
*END

*D_NET *76 0.00111396
*CONN
*P wbs_dat_o[14] O
*I *3803:X O *D sky130_fd_sc_hd__buf_12
*CAP
1 wbs_dat_o[14] 0.000295184
2 *3803:X 0.000295184
3 wbs_dat_o[14] *3646:A 0
4 wbs_dat_o[14] *3756:A 0.000182089
5 wbs_dat_o[14] *3802:A 0
6 wbs_dat_o[14] *3803:A 2.75229e-05
7 wbs_dat_o[14] *225:10 0.000237249
8 wbs_dat_o[14] *236:20 7.67345e-05
9 *3734:A wbs_dat_o[14] 0
*RES
1 *3803:X wbs_dat_o[14] 10.035 
*END

*D_NET *77 0.00149663
*CONN
*P wbs_dat_o[15] O
*I *3804:X O *D sky130_fd_sc_hd__buf_12
*CAP
1 wbs_dat_o[15] 0.000454467
2 *3804:X 0.000454467
3 wbs_dat_o[15] *3804:A 0
4 wbs_dat_o[15] *115:39 0.000539415
5 wbs_dat_o[15] *259:14 4.82863e-05
6 *3615:A wbs_dat_o[15] 0
7 *3734:A wbs_dat_o[15] 0
*RES
1 *3804:X wbs_dat_o[15] 11.625 
*END

*D_NET *78 0.00119463
*CONN
*P wbs_dat_o[16] O
*I *3805:X O *D sky130_fd_sc_hd__buf_12
*CAP
1 wbs_dat_o[16] 0.000252307
2 *3805:X 0.000252307
3 wbs_dat_o[16] *3681:A 9.45727e-05
4 wbs_dat_o[16] *3759:A 0.000219383
5 wbs_dat_o[16] *225:10 0.000237249
6 wbs_dat_o[16] *236:20 0.000138808
7 *3612:A wbs_dat_o[16] 0
*RES
1 *3805:X wbs_dat_o[16] 10.035 
*END

*D_NET *79 0.00145961
*CONN
*P wbs_dat_o[17] O
*I *3806:X O *D sky130_fd_sc_hd__buf_12
*CAP
1 wbs_dat_o[17] 0.000421978
2 *3806:X 0.000421978
3 wbs_dat_o[17] *3806:A 0.000124384
4 wbs_dat_o[17] *115:29 0.000218881
5 *3608:A wbs_dat_o[17] 0.000272389
6 *3612:A wbs_dat_o[17] 0
*RES
1 *3806:X wbs_dat_o[17] 12.975 
*END

*D_NET *80 0.00104972
*CONN
*P wbs_dat_o[18] O
*I *3807:X O *D sky130_fd_sc_hd__buf_12
*CAP
1 wbs_dat_o[18] 0.000310397
2 *3807:X 0.000310397
3 wbs_dat_o[18] *3670:A 6.66489e-05
4 wbs_dat_o[18] *3807:A 4.82919e-05
5 wbs_dat_o[18] *225:10 0.000237249
6 wbs_dat_o[18] *236:20 7.67345e-05
7 *3613:A wbs_dat_o[18] 0
*RES
1 *3807:X wbs_dat_o[18] 10.035 
*END

*D_NET *81 0.0013223
*CONN
*P wbs_dat_o[19] O
*I *3808:X O *D sky130_fd_sc_hd__buf_12
*CAP
1 wbs_dat_o[19] 0.00032897
2 *3808:X 0.00032897
3 wbs_dat_o[19] *3808:A 8.8266e-05
4 wbs_dat_o[19] *115:29 0.000288176
5 *3610:A wbs_dat_o[19] 0.000196669
6 *3613:A wbs_dat_o[19] 9.12496e-05
*RES
1 *3808:X wbs_dat_o[19] 10.845 
*END

*D_NET *82 0.000474342
*CONN
*P wbs_dat_o[1] O
*I *3809:X O *D sky130_fd_sc_hd__buf_12
*CAP
1 wbs_dat_o[1] 0.00015058
2 *3809:X 0.00015058
3 wbs_dat_o[1] *3730:A 8.65905e-05
4 wbs_dat_o[1] *3731:A 8.65905e-05
5 *3625:A wbs_dat_o[1] 0
*RES
1 *3809:X wbs_dat_o[1] 6.36 
*END

*D_NET *83 0.00107582
*CONN
*P wbs_dat_o[20] O
*I *3810:X O *D sky130_fd_sc_hd__buf_12
*CAP
1 wbs_dat_o[20] 0.000313164
2 *3810:X 0.000313164
3 wbs_dat_o[20] *3684:A 9.05814e-05
4 wbs_dat_o[20] *3810:A 4.77757e-05
5 wbs_dat_o[20] *3811:A 7.54609e-05
6 wbs_dat_o[20] *225:10 0
7 wbs_dat_o[20] *292:10 0.000235669
8 *3616:A wbs_dat_o[20] 0
*RES
1 *3810:X wbs_dat_o[20] 10.035 
*END

*D_NET *84 0.00260104
*CONN
*P wbs_dat_o[21] O
*I *3811:X O *D sky130_fd_sc_hd__buf_12
*CAP
1 wbs_dat_o[21] 0.000433446
2 *3811:X 0.000433446
3 wbs_dat_o[21] *3688:A 0
4 wbs_dat_o[21] *3811:A 0.000583165
5 wbs_dat_o[21] *270:28 0.000112783
6 wbs_dat_o[21] *292:10 0.000913297
7 *3614:A wbs_dat_o[21] 0
8 *3616:A wbs_dat_o[21] 0.0001249
*RES
1 *3811:X wbs_dat_o[21] 16.245 
*END

*D_NET *85 0.00229106
*CONN
*P wbs_dat_o[22] O
*I *3812:X O *D sky130_fd_sc_hd__buf_12
*CAP
1 wbs_dat_o[22] 0.000583823
2 *3812:X 0.000583823
3 wbs_dat_o[22] *403:DIODE 7.14241e-05
4 wbs_dat_o[22] *3765:A 0.000228583
5 wbs_dat_o[22] *3812:A 8.52883e-05
6 wbs_dat_o[22] *3813:A 2.36774e-05
7 wbs_dat_o[22] *120:42 8.79005e-05
8 wbs_dat_o[22] *129:48 9.09788e-06
9 wbs_dat_o[22] *129:50 0.000113572
10 wbs_dat_o[22] *129:52 0.000268205
11 wbs_dat_o[22] *350:54 0.000235668
12 *3614:A wbs_dat_o[22] 0
13 *3618:A wbs_dat_o[22] 0
*RES
1 *3812:X wbs_dat_o[22] 16.59 
*END

*D_NET *86 0.000949448
*CONN
*P wbs_dat_o[23] O
*I *3813:X O *D sky130_fd_sc_hd__buf_12
*CAP
1 wbs_dat_o[23] 0.000337362
2 *3813:X 0.000337362
3 wbs_dat_o[23] *3813:A 4.82919e-05
4 wbs_dat_o[23] *115:29 0.000226431
5 *3618:A wbs_dat_o[23] 0
6 *3619:A wbs_dat_o[23] 0
*RES
1 *3813:X wbs_dat_o[23] 9.465 
*END

*D_NET *87 0.00274565
*CONN
*P wbs_dat_o[24] O
*I *3814:X O *D sky130_fd_sc_hd__buf_12
*CAP
1 wbs_dat_o[24] 0.000500241
2 *3814:X 0.000500241
3 wbs_dat_o[24] *3708:A 0.000340475
4 wbs_dat_o[24] *3814:A 0.000164874
5 wbs_dat_o[24] *115:29 0.000405621
6 *3619:A wbs_dat_o[24] 0
7 *3623:A wbs_dat_o[24] 0.000834195
*RES
1 *3814:X wbs_dat_o[24] 16.71 
*END

*D_NET *88 0.00153183
*CONN
*P wbs_dat_o[25] O
*I *3815:X O *D sky130_fd_sc_hd__buf_12
*CAP
1 wbs_dat_o[25] 0.000440628
2 *3815:X 0.000440628
3 wbs_dat_o[25] *3814:A 1.44775e-05
4 wbs_dat_o[25] *3815:A 0.000124007
5 wbs_dat_o[25] *159:44 2.97004e-06
6 wbs_dat_o[25] *259:26 7.17811e-05
7 wbs_dat_o[25] *292:10 0.000416828
8 wbs_dat_o[25] *305:8 2.05056e-05
9 *3623:A wbs_dat_o[25] 0
10 *3627:A wbs_dat_o[25] 0
*RES
1 *3815:X wbs_dat_o[25] 12.105 
*END

*D_NET *89 0.00177966
*CONN
*P wbs_dat_o[26] O
*I *3816:X O *D sky130_fd_sc_hd__buf_12
*CAP
1 wbs_dat_o[26] 0.000689889
2 *3816:X 0.000689889
3 wbs_dat_o[26] *3710:A 5.71481e-05
4 wbs_dat_o[26] *3771:A 0.000112279
5 wbs_dat_o[26] *113:29 6.5172e-05
6 wbs_dat_o[26] *121:32 0.000119246
7 wbs_dat_o[26] *301:32 4.6037e-05
8 wbs_dat_o[26] *325:34 0
9 *3627:A wbs_dat_o[26] 0
*RES
1 *3816:X wbs_dat_o[26] 15.9 
*END

*D_NET *90 0.00204018
*CONN
*P wbs_dat_o[27] O
*I *3817:X O *D sky130_fd_sc_hd__buf_12
*CAP
1 wbs_dat_o[27] 0.000585502
2 *3817:X 0.000585502
3 wbs_dat_o[27] *3704:A 0.000132106
4 wbs_dat_o[27] *3770:A 1.28182e-05
5 wbs_dat_o[27] *3817:A 0.000306469
6 wbs_dat_o[27] *134:43 0
7 wbs_dat_o[27] *302:8 0.000122331
8 *3626:A wbs_dat_o[27] 0
9 *3:17 wbs_dat_o[27] 0.000295455
*RES
1 *3817:X wbs_dat_o[27] 15.3 
*END

*D_NET *91 0.00274168
*CONN
*P wbs_dat_o[28] O
*I *3818:X O *D sky130_fd_sc_hd__buf_12
*CAP
1 wbs_dat_o[28] 0.00105004
2 *3818:X 0.00105004
3 wbs_dat_o[28] *3611:A 0
4 wbs_dat_o[28] *3655:A 5.06547e-05
5 wbs_dat_o[28] *3770:A 0
6 wbs_dat_o[28] *3772:A 3.09179e-05
7 wbs_dat_o[28] *3818:A 0.000133708
8 wbs_dat_o[28] *115:27 4.76503e-05
9 wbs_dat_o[28] *305:10 8.53113e-06
10 wbs_dat_o[28] *309:8 9.77048e-06
11 wbs_dat_o[28] *311:8 4.05674e-06
12 *3624:A wbs_dat_o[28] 5.83121e-06
13 *3626:A wbs_dat_o[28] 0
14 *3629:A wbs_dat_o[28] 0
15 *3630:A wbs_dat_o[28] 0.000350486
*RES
1 *3818:X wbs_dat_o[28] 18.075 
*END

*D_NET *92 0.00231605
*CONN
*P wbs_dat_o[29] O
*I *3819:X O *D sky130_fd_sc_hd__buf_12
*CAP
1 wbs_dat_o[29] 0.000620962
2 *3819:X 0.000620962
3 wbs_dat_o[29] *456:DIODE 0
4 wbs_dat_o[29] *3819:A 0.000352161
5 wbs_dat_o[29] *121:32 0.000536868
6 wbs_dat_o[29] *137:44 0
7 wbs_dat_o[29] *137:46 0
8 wbs_dat_o[29] *307:8 9.93544e-05
9 wbs_dat_o[29] *310:8 8.57469e-05
10 *3630:A wbs_dat_o[29] 0
*RES
1 *3819:X wbs_dat_o[29] 16.875 
*END

*D_NET *93 0.00103604
*CONN
*P wbs_dat_o[2] O
*I *3820:X O *D sky130_fd_sc_hd__buf_12
*CAP
1 wbs_dat_o[2] 0.000235553
2 *3820:X 0.000235553
3 wbs_dat_o[2] *3730:A 0
4 wbs_dat_o[2] *3788:A 0.000183043
5 wbs_dat_o[2] *3789:A 0.000159957
6 wbs_dat_o[2] *3798:A 4.66826e-05
7 wbs_dat_o[2] *324:12 4.66826e-05
8 wbs_dat_o[2] *335:14 0.000128569
9 *3620:A wbs_dat_o[2] 0
10 *3641:A wbs_dat_o[2] 0
*RES
1 *3820:X wbs_dat_o[2] 9.21 
*END

*D_NET *94 0.00107745
*CONN
*P wbs_dat_o[30] O
*I *3821:X O *D sky130_fd_sc_hd__buf_12
*CAP
1 wbs_dat_o[30] 0.000410136
2 *3821:X 0.000410136
3 wbs_dat_o[30] *3821:A 4.77757e-05
4 *3629:A wbs_dat_o[30] 8.65961e-05
5 *3630:A wbs_dat_o[30] 0
6 *3631:A wbs_dat_o[30] 0.000122801
*RES
1 *3821:X wbs_dat_o[30] 10.665 
*END

*D_NET *95 0.000851933
*CONN
*P wbs_dat_o[31] O
*I *3822:X O *D sky130_fd_sc_hd__buf_12
*CAP
1 wbs_dat_o[31] 0.000425966
2 *3822:X 0.000425966
3 wbs_dat_o[31] *3821:A 0
*RES
1 *3822:X wbs_dat_o[31] 10.035 
*END

*D_NET *96 0.001207
*CONN
*P wbs_dat_o[3] O
*I *3823:X O *D sky130_fd_sc_hd__buf_12
*CAP
1 wbs_dat_o[3] 0.000336098
2 *3823:X 0.000336098
3 wbs_dat_o[3] *3798:A 6.97118e-05
4 wbs_dat_o[3] *3820:A 0.000122331
5 *3621:A wbs_dat_o[3] 0.000342757
*RES
1 *3823:X wbs_dat_o[3] 9 
*END

*D_NET *97 0.00120812
*CONN
*P wbs_dat_o[4] O
*I *3824:X O *D sky130_fd_sc_hd__buf_12
*CAP
1 wbs_dat_o[4] 0.000403576
2 *3824:X 0.000403576
3 wbs_dat_o[4] *3820:A 0.00022645
4 wbs_dat_o[4] *3824:A 0.000119246
5 wbs_dat_o[4] *323:18 3.59784e-05
6 wbs_dat_o[4] *326:24 1.92979e-05
7 *3609:A wbs_dat_o[4] 0
8 *3617:A wbs_dat_o[4] 0
9 *3638:A wbs_dat_o[4] 0
*RES
1 *3824:X wbs_dat_o[4] 10.035 
*END

*D_NET *98 0.0012357
*CONN
*P wbs_dat_o[5] O
*I *3825:X O *D sky130_fd_sc_hd__buf_12
*CAP
1 wbs_dat_o[5] 0.0002731
2 *3825:X 0.0002731
3 wbs_dat_o[5] *115:41 1.47347e-05
4 wbs_dat_o[5] *325:14 0.000311294
5 *3607:A wbs_dat_o[5] 0.000273878
6 *3609:A wbs_dat_o[5] 0
7 *3639:A wbs_dat_o[5] 8.95982e-05
*RES
1 *3825:X wbs_dat_o[5] 10.905 
*END

*D_NET *99 0.00121162
*CONN
*P wbs_dat_o[6] O
*I *3826:X O *D sky130_fd_sc_hd__buf_12
*CAP
1 wbs_dat_o[6] 0.000441487
2 *3826:X 0.000441487
3 wbs_dat_o[6] *3803:A 6.1718e-05
4 wbs_dat_o[6] *3827:A 6.96631e-05
5 *3607:A wbs_dat_o[6] 0
6 *3637:A wbs_dat_o[6] 0.000197269
7 *3639:A wbs_dat_o[6] 0
*RES
1 *3826:X wbs_dat_o[6] 11.175 
*END

*D_NET *100 0.0010888
*CONN
*P wbs_dat_o[7] O
*I *3827:X O *D sky130_fd_sc_hd__buf_12
*CAP
1 wbs_dat_o[7] 0.000249663
2 *3827:X 0.000249663
3 wbs_dat_o[7] *115:41 7.67345e-05
4 wbs_dat_o[7] *325:14 0.00035085
5 *3606:A wbs_dat_o[7] 0
6 *3636:A wbs_dat_o[7] 0.000161893
*RES
1 *3827:X wbs_dat_o[7] 9.225 
*END

*D_NET *101 0.00125096
*CONN
*P wbs_dat_o[8] O
*I *3828:X O *D sky130_fd_sc_hd__buf_12
*CAP
1 wbs_dat_o[8] 0.000217596
2 *3828:X 0.000217596
3 wbs_dat_o[8] *115:41 7.67345e-05
4 wbs_dat_o[8] *325:14 0.000463994
5 *3605:A wbs_dat_o[8] 0
6 *3635:A wbs_dat_o[8] 0.000275037
*RES
1 *3828:X wbs_dat_o[8] 9.81 
*END

*D_NET *102 0.00234547
*CONN
*P wbs_dat_o[9] O
*I *3829:X O *D sky130_fd_sc_hd__buf_12
*CAP
1 wbs_dat_o[9] 0.00034629
2 *3829:X 0.00034629
3 wbs_dat_o[9] *3686:A 0.000237243
4 wbs_dat_o[9] *115:41 0.000126125
5 wbs_dat_o[9] *325:14 0.00093964
6 *3604:A wbs_dat_o[9] 0
7 *3635:A wbs_dat_o[9] 0.000349885
*RES
1 *3829:X wbs_dat_o[9] 14.295 
*END

*D_NET *103 0.00206491
*CONN
*P wbs_sel_i[0] I
*I *3727:A I *D sky130_fd_sc_hd__dlygate4sd3_1
*CAP
1 wbs_sel_i[0] 0.000583394
2 *3727:A 0.000583394
3 *3727:A *3554:A 0
4 *3727:A *3660:A 0.000137209
5 *3727:A *3724:A 5.83121e-06
6 *3727:A *3728:A 0.000287534
7 *3727:A *3733:A 0.000115464
8 *3727:A *3786:A 0.000275988
9 *3727:A *317:30 7.60965e-05
10 wbs_dat_o[0] *3727:A 0
11 *3625:A *3727:A 0
*RES
1 wbs_sel_i[0] *3727:A 16.155 
*END

*D_NET *104 0.0032131
*CONN
*P wbs_sel_i[1] I
*I *3723:A I *D sky130_fd_sc_hd__dlygate4sd3_1
*CAP
1 wbs_sel_i[1] 0.000892549
2 *3723:A 0.000892549
3 *3723:A *3775:A 4.91849e-05
4 *3723:A *3787:A 0.000461515
5 *3723:A *3791:A 7.80915e-05
6 *3723:A *3809:A 0.000718186
7 *3723:A *312:22 0.000121027
8 *3625:A *3723:A 0
*RES
1 wbs_sel_i[1] *3723:A 20.58 
*END

*D_NET *105 0.00361804
*CONN
*P wbs_sel_i[2] I
*I *3730:A I *D sky130_fd_sc_hd__dlygate4sd3_1
*CAP
1 wbs_sel_i[2] 0.00109139
2 *3730:A 0.00109139
3 *3730:A *3554:A 0.000648797
4 *3730:A *3706:A 7.68414e-06
5 *3730:A *3728:A 0.0001249
6 *3730:A *3731:A 0.000445422
7 *3730:A *3788:A 4.82863e-05
8 *3730:A *3789:A 7.35729e-05
9 wbs_dat_o[1] *3730:A 8.65905e-05
10 wbs_dat_o[2] *3730:A 0
11 *3641:A *3730:A 0
*RES
1 wbs_sel_i[2] *3730:A 24.555 
*END

*D_NET *106 0.0051863
*CONN
*P wbs_sel_i[3] I
*I *3733:A I *D sky130_fd_sc_hd__dlygate4sd3_1
*CAP
1 wbs_sel_i[3] 0.0016401
2 *3733:A 0.0016401
3 *3733:A *3554:A 0
4 *3733:A *3797:A 0.000621156
5 *3638:A *3733:A 0.00116948
6 *3727:A *3733:A 0.000115464
*RES
1 wbs_sel_i[3] *3733:A 30.385 
*END

*D_NET *107 0.00117451
*CONN
*P wbs_stb_i I
*I *3790:A I *D sky130_fd_sc_hd__buf_2
*CAP
1 wbs_stb_i 0.00051555
2 *3790:A 0.00051555
3 *3790:A *3763:A 0
4 *3790:A *3792:A 0
5 *3750:A *3790:A 0.00014341
*RES
1 wbs_stb_i *3790:A 12.645 
*END

*D_NET *108 0.00183627
*CONN
*P wbs_we_i I
*I *3792:A I *D sky130_fd_sc_hd__buf_2
*CAP
1 wbs_we_i 0.000449297
2 *3792:A 0.000449297
3 *3792:A *3797:A 4.10827e-05
4 *3792:A *170:28 0.000604728
5 *3625:A *3792:A 0.000130245
6 *3628:A *3792:A 0.000161623
7 *3790:A *3792:A 0
*RES
1 wbs_we_i *3792:A 14.295 
*END

*D_NET *109 0.00444804
*CONN
*I *3588:RESET_B I *D sky130_fd_sc_hd__dfrtp_1
*I *3554:Y O *D sky130_fd_sc_hd__inv_2
*CAP
1 *3588:RESET_B 0.000984333
2 *3554:Y 0.000984333
3 *3588:RESET_B *460:DIODE 5.83121e-06
4 *3588:RESET_B *465:DIODE 0.000118379
5 *3588:RESET_B *3668:A 0.00020892
6 *3588:RESET_B *3714:A 0
7 *3588:RESET_B *3719:A 0.000382527
8 *3588:RESET_B *3781:A 5.30673e-05
9 *3588:RESET_B *3794:A 0.000385437
10 *3588:RESET_B *3797:A 6.28843e-05
11 *3588:RESET_B *115:49 5.03023e-05
12 *3588:RESET_B *329:26 0.000130125
13 *3588:RESET_B *333:32 0.00023142
14 *3588:RESET_B *365:28 1.82242e-05
15 *3641:A *3588:RESET_B 0.000832257
*RES
1 *3554:Y *3588:RESET_B 27.6875 
*END

*D_NET *110 0.0434891
*CONN
*I *3591:A I *D sky130_fd_sc_hd__clkbuf_16
*I *3590:A I *D sky130_fd_sc_hd__clkbuf_16
*I *3589:X O *D sky130_fd_sc_hd__clkbuf_16
*CAP
1 *3591:A 0.000834385
2 *3590:A 0.00031934
3 *3589:X 0.000587072
4 *110:14 0.00295237
5 *110:12 0.00263303
6 *110:10 0.0018916
7 *110:8 0.00331305
8 *3590:A *3671:A 2.56752e-06
9 *3590:A *315:40 6.7205e-05
10 *3590:A *318:16 0
11 *3590:A *321:16 0
12 *3590:A *329:61 6.68654e-05
13 *3591:A *195:16 0.00137856
14 *3591:A *217:10 0.000119985
15 *3591:A *237:12 0.00170922
16 *3591:A *326:24 0.000511245
17 *110:10 *133:21 2.62861e-05
18 *110:10 *133:23 0.00666843
19 *110:10 *195:16 0.000261073
20 *110:10 *325:36 0.00675732
21 *110:10 *326:24 0.00143543
22 *110:14 *114:19 0.000971679
23 *110:14 *144:15 0.00762606
24 *110:14 *149:14 0.00308288
25 *3:17 *3591:A 1.71013e-05
26 *3:17 *110:10 0.000256398
*RES
1 *3589:X *110:8 9.225 
2 *110:8 *110:10 83.49 
3 *110:10 *110:12 2 
4 *110:12 *110:14 69.795 
5 *110:14 *3590:A 10.7262 
6 *110:8 *3591:A 31.89 
*END

*D_NET *111 0.0101676
*CONN
*I *3592:A I *D sky130_fd_sc_hd__clkinv_16
*I *3588:CLK I *D sky130_fd_sc_hd__dfrtp_1
*I *3590:X O *D sky130_fd_sc_hd__clkbuf_16
*CAP
1 *3592:A 0.000178448
2 *3588:CLK 0
3 *3590:X 0
4 *111:14 0.00200013
5 *111:6 0.00217858
6 *3592:A *318:16 0
7 *3592:A *327:57 0
8 *111:14 *395:DIODE 4.66108e-05
9 *111:14 *3663:A 0.00173128
10 *111:14 *3693:A 7.07949e-05
11 *111:14 *3705:A 0.000111324
12 *111:14 *3722:A 0
13 *111:14 *3752:A 0.00015896
14 *111:14 *3753:A 8.97793e-05
15 *111:14 *3758:A 4.66108e-05
16 *111:14 *3826:A 0.000908247
17 *111:14 *3828:A 0.000467068
18 *111:14 *118:39 0
19 *111:14 *164:10 0
20 *111:14 *258:12 2.75145e-05
21 *111:14 *318:16 0
22 *111:14 *322:14 0
23 *111:14 *333:32 0.00188073
24 *111:14 *350:26 0.000108306
25 *111:14 *350:30 0.000163204
*RES
1 *3590:X *111:6 3.6 
2 *111:6 *111:14 49.73 
3 *111:14 *3588:CLK 1.6 
4 *111:6 *3592:A 4.655 
*END

*D_NET *112 0.0135828
*CONN
*I *3737:CLKin I *D CF_SRAM_1024x32
*I *3591:X O *D sky130_fd_sc_hd__clkbuf_16
*CAP
1 *3737:CLKin 0.00109693
2 *3591:X 0
3 *112:8 0.00268828
4 *112:6 0.00159135
5 *3737:CLKin *3737:BEN[17] 0
6 *3737:CLKin *3737:TM 0
7 *3737:CLKin *3737:DI[17] 0
8 *112:8 *134:11 0.00106029
9 *112:8 *175:8 0.000180574
10 *112:8 *179:16 0.00203314
11 *112:8 *221:10 0.00172764
12 *112:8 *223:10 0.00320459
*RES
1 *3591:X *112:6 3.6 
2 *112:6 *112:8 65.13 
3 *112:8 *3737:CLKin 17.045 
*END

*D_NET *113 0.0706246
*CONN
*I *384:DIODE I *D sky130_fd_sc_hd__diode_2
*I *406:DIODE I *D sky130_fd_sc_hd__diode_2
*I *3582:D I *D sky130_fd_sc_hd__and4b_1
*I *395:DIODE I *D sky130_fd_sc_hd__diode_2
*I *3737:DO[0] O *D CF_SRAM_1024x32
*CAP
1 *384:DIODE 0
2 *406:DIODE 0.000225035
3 *3582:D 1.17382e-05
4 *395:DIODE 0.00024632
5 *3737:DO[0] 0.00175808
6 *113:57 0.000286603
7 *113:55 0.000380378
8 *113:43 0.0010863
9 *113:31 0.00238327
10 *113:29 0.00316028
11 *113:11 0.00541727
12 *113:9 0.00543884
13 *395:DIODE *3582:B 3.59531e-06
14 *395:DIODE *3583:A_N 2.0851e-06
15 *395:DIODE *3794:A 8.30853e-06
16 *395:DIODE *3798:A 0.000154139
17 *395:DIODE *135:21 3.11004e-05
18 *395:DIODE *181:24 0.000165387
19 *395:DIODE *333:32 4.77757e-05
20 *406:DIODE *3582:B 4.07244e-05
21 *406:DIODE *135:21 1.33707e-05
22 *406:DIODE *327:43 2.20014e-05
23 *406:DIODE *328:16 2.33395e-05
24 *406:DIODE *329:53 4.77719e-05
25 *406:DIODE *332:38 8.53113e-06
26 *406:DIODE *337:18 9.89983e-05
27 *406:DIODE *367:25 5.78556e-05
28 *3582:D *118:39 5.79655e-05
29 *3582:D *366:151 5.79655e-05
30 *113:9 *3737:ScanInCC 0
31 *113:9 *3737:DI[0] 8.0431e-05
32 *113:11 *121:22 0
33 *113:11 *122:21 0.00272496
34 *113:11 *137:13 0.0116809
35 *113:11 *137:15 0.000189426
36 *113:11 *137:17 0.000187064
37 *113:11 *137:19 0.000185603
38 *113:11 *137:21 0.000189426
39 *113:11 *137:23 0.000260992
40 *113:11 *137:38 9.62267e-05
41 *113:11 *137:40 0.000179536
42 *113:11 *137:42 0.000189426
43 *113:11 *137:44 3.09233e-05
44 *113:11 *139:11 0.00994701
45 *113:11 *142:11 2.10676e-05
46 *113:11 *313:10 0
47 *113:11 *314:10 0
48 *113:29 *3611:A 0.000118606
49 *113:29 *3713:A 0.000831867
50 *113:29 *3819:A 0.000572703
51 *113:29 *121:32 0.000514989
52 *113:29 *122:29 0.000442632
53 *113:29 *281:26 0.000158847
54 *113:29 *292:10 4.19426e-05
55 *113:29 *339:48 8.41703e-06
56 *113:29 *350:54 9.82856e-06
57 *113:31 *3713:A 0.000341575
58 *113:31 *145:73 0.000110612
59 *113:31 *258:14 0.00826857
60 *113:31 *303:24 3.54025e-05
61 *113:31 *317:32 0.00713816
62 *113:31 *339:26 0.000113307
63 *113:31 *339:48 0.00080794
64 *113:43 *459:DIODE 0.000264677
65 *113:43 *3588:D 0.000837957
66 *113:43 *3702:A 6.56368e-05
67 *113:43 *3781:A 4.82863e-05
68 *113:43 *118:39 3.77036e-05
69 *113:43 *142:19 0.000143637
70 *113:43 *181:24 0.000996807
71 *113:43 *317:32 1.53053e-05
72 *113:43 *319:12 0.000130504
73 *113:43 *367:52 0.00020279
74 *113:43 *369:35 0.000666494
75 *113:55 *459:DIODE 4.66108e-05
76 *113:55 *3582:B 1.7635e-05
77 *113:55 *118:39 9.80943e-06
78 *113:55 *366:151 0.000119756
79 *113:55 *369:35 0.000172975
80 *113:57 *3582:B 1.30972e-05
81 *113:57 *3583:A_N 7.59573e-06
82 *113:57 *367:25 2.0851e-06
83 wbs_dat_o[26] *113:29 6.5172e-05
84 *111:14 *395:DIODE 4.66108e-05
*RES
1 *3737:DO[0] *113:9 25.0475 
2 *113:9 *113:11 150.3 
3 *113:11 *113:29 31.3749 
4 *113:29 *113:31 77.04 
5 *113:31 *113:43 26.215 
6 *113:43 *113:55 4.9775 
7 *113:55 *113:57 0.4875 
8 *113:57 *395:DIODE 8.535 
9 *113:57 *3582:D 4.14375 
10 *113:55 *406:DIODE 7.6875 
11 *113:43 *384:DIODE 1.6 
*END

*D_NET *114 0.0618077
*CONN
*I *417:DIODE I *D sky130_fd_sc_hd__diode_2
*I *3560:D I *D sky130_fd_sc_hd__and4b_1
*I *3737:DO[10] O *D CF_SRAM_1024x32
*CAP
1 *417:DIODE 0
2 *3560:D 0.000185345
3 *3737:DO[10] 0.00241573
4 *114:19 0.00947749
5 *114:11 0.0103544
6 *114:9 0.00347799
7 *3560:D *3560:A_N 8.7152e-06
8 *3560:D *117:21 0
9 *3560:D *143:27 1.73877e-05
10 *3560:D *143:31 5.99608e-05
11 *3560:D *327:43 3.35306e-05
12 *3560:D *328:16 0.000167946
13 *3560:D *369:12 3.54522e-05
14 *3560:D *369:28 0.000168923
15 *114:9 *3737:DI[10] 0
16 *114:11 *120:18 0.00498002
17 *114:11 *121:22 0.00498002
18 *114:19 *3665:A 0.000238834
19 *114:19 *3702:A 0
20 *114:19 *3737:DI[14] 0.000859849
21 *114:19 *116:15 0.00134492
22 *114:19 *117:15 0.00254433
23 *114:19 *117:21 0
24 *114:19 *119:15 0.000161545
25 *114:19 *138:19 0.0128795
26 *114:19 *140:15 0.000758675
27 *114:19 *143:23 0.000148924
28 *114:19 *143:27 0.000110082
29 *114:19 *144:15 0.00211244
30 *114:19 *146:26 0.00296368
31 *114:19 *149:14 0.000350294
32 *114:19 *328:36 0
33 *114:19 *329:26 0
34 *114:19 *329:77 0
35 *114:19 *332:38 0
36 *110:14 *114:19 0.000971679
*RES
1 *3737:DO[10] *114:9 27.9125 
2 *114:9 *114:11 56.8425 
3 *114:11 *114:19 29.0356 
4 *114:19 *3560:D 8.08875 
5 *114:19 *417:DIODE 3.6 
*END

*D_NET *115 0.0459748
*CONN
*I *439:DIODE I *D sky130_fd_sc_hd__diode_2
*I *428:DIODE I *D sky130_fd_sc_hd__diode_2
*I *3561:D I *D sky130_fd_sc_hd__and4b_1
*I *3737:DO[11] O *D CF_SRAM_1024x32
*CAP
1 *439:DIODE 0
2 *428:DIODE 6.75165e-05
3 *3561:D 0.000173264
4 *3737:DO[11] 0.00120391
5 *115:49 0.000703278
6 *115:41 0.00295917
7 *115:39 0.00319012
8 *115:29 0.00247674
9 *115:27 0.00289037
10 *115:17 0.00183576
11 *115:13 0.0019326
12 *3561:D *465:DIODE 0
13 *3561:D *3561:A_N 5.16418e-05
14 *3561:D *3561:C 4.66108e-05
15 *3561:D *3778:A 9.20563e-05
16 *3561:D *3793:A 0.000104132
17 *3561:D *336:36 0.000117006
18 *115:13 *3683:A 7.26551e-05
19 *115:13 *3720:A 0.00012369
20 *115:13 *3737:DI[11] 0.000524524
21 *115:13 *270:38 0.000690545
22 *115:13 *302:22 1.10631e-05
23 *115:17 *3713:A 0.000723134
24 *115:17 *186:28 0.00309716
25 *115:17 *270:38 1.10631e-05
26 *115:17 *302:20 2.3824e-05
27 *115:17 *302:22 0.00308279
28 *115:27 *442:DIODE 0
29 *115:27 *3579:D 1.88904e-05
30 *115:27 *3770:A 0
31 *115:27 *134:27 4.49939e-05
32 *115:27 *134:29 0.000110848
33 *115:27 *134:31 5.46239e-05
34 *115:27 *134:33 8.95312e-05
35 *115:27 *134:35 9.15864e-05
36 *115:27 *134:41 7.59769e-05
37 *115:27 *134:43 0
38 *115:27 *186:28 0.000597347
39 *115:27 *281:36 0.000456648
40 *115:27 *302:20 0.000235541
41 *115:27 *305:10 0.000330003
42 *115:29 *3670:A 0.000201508
43 *115:29 *3681:A 0.00053173
44 *115:29 *3684:A 0.000162415
45 *115:29 *3688:A 0.000570434
46 *115:29 *3708:A 0.00070862
47 *115:29 *3770:A 0.000111285
48 *115:29 *3806:A 0.000214321
49 *115:29 *3808:A 8.65961e-05
50 *115:29 *3813:A 0.000217861
51 *115:29 *3814:A 0.000163204
52 *115:29 *259:14 9.72552e-05
53 *115:29 *259:18 0.00498941
54 *115:29 *325:26 3.7712e-05
55 *115:29 *326:24 0.000341054
56 *115:39 *3646:A 0.000134314
57 *115:39 *3657:A 0.000282306
58 *115:39 *3756:A 0.000500245
59 *115:39 *259:14 8.34281e-06
60 *115:39 *325:26 0.000233667
61 *115:41 *3657:A 0.000145722
62 *115:41 *3664:A 8.8266e-05
63 *115:41 *3686:A 0.000267557
64 *115:41 *3701:A 0.000276898
65 *115:41 *3789:A 0.000452028
66 *115:41 *3825:A 0.000117586
67 *115:41 *3827:A 7.3681e-05
68 *115:41 *325:14 0.000349712
69 *115:41 *325:26 2.35435e-05
70 *115:41 *326:24 0.000102021
71 *115:41 *336:36 0.00126579
72 *115:49 *3706:A 0.000118956
73 wbs_dat_o[13] *115:39 0.000122053
74 wbs_dat_o[15] *115:39 0.000539415
75 wbs_dat_o[17] *115:29 0.000218881
76 wbs_dat_o[19] *115:29 0.000288176
77 wbs_dat_o[23] *115:29 0.000226431
78 wbs_dat_o[24] *115:29 0.000405621
79 wbs_dat_o[28] *115:27 4.76503e-05
80 wbs_dat_o[5] *115:41 1.47347e-05
81 wbs_dat_o[7] *115:41 7.67345e-05
82 wbs_dat_o[8] *115:41 7.67345e-05
83 wbs_dat_o[9] *115:41 0.000126125
84 *3588:RESET_B *115:49 5.03023e-05
85 *3601:A *115:39 0.000714492
86 *3601:A *115:41 0.000251461
87 *3607:A *115:41 0.000223355
88 *3608:A *115:29 8.7414e-05
89 *3610:A *115:29 0.000117633
90 *3623:A *115:29 8.87364e-05
91 *3626:A *115:29 0.0001249
92 *3634:A *115:41 0.000107324
93 *3635:A *115:41 0.000427444
94 *3636:A *115:41 0.00030383
95 *3640:A *115:41 6.19997e-05
96 *3641:A *428:DIODE 2.99955e-05
97 *3641:A *3561:D 0
98 *3641:A *115:49 5.86746e-05
*RES
1 *3737:DO[11] *115:13 22.775 
2 *115:13 *115:17 36.255 
3 *115:17 *115:27 26.8775 
4 *115:27 *115:29 61.515 
5 *115:29 *115:39 20.4375 
6 *115:39 *115:41 52.0275 
7 *115:41 *115:49 10.03 
8 *115:49 *3561:D 9.65375 
9 *115:49 *428:DIODE 2.395 
10 *115:49 *439:DIODE 1.6 
*END

*D_NET *116 0.0416667
*CONN
*I *450:DIODE I *D sky130_fd_sc_hd__diode_2
*I *3562:D I *D sky130_fd_sc_hd__and4b_2
*I *461:DIODE I *D sky130_fd_sc_hd__diode_2
*I *3737:DO[12] O *D CF_SRAM_1024x32
*CAP
1 *450:DIODE 1.38777e-05
2 *3562:D 0.000265871
3 *461:DIODE 0.000267596
4 *3737:DO[12] 0.00142779
5 *116:21 0.000550182
6 *116:19 0.000414147
7 *116:15 0.0032765
8 *116:13 0.00289294
9 *116:11 0.00142779
10 *450:DIODE *3564:D 8.49205e-05
11 *461:DIODE *3699:A 4.43682e-05
12 *461:DIODE *3778:A 4.92062e-05
13 *461:DIODE *117:21 5.4851e-05
14 *461:DIODE *329:26 0.000205794
15 *461:DIODE *335:14 4.75576e-05
16 *461:DIODE *336:36 1.7635e-05
17 *3562:D *3558:A_N 0
18 *3562:D *3564:D 2.32597e-05
19 *3562:D *366:43 9.14035e-05
20 *3562:D *366:103 0
21 *116:11 *3737:DI[12] 0.0014774
22 *116:11 *3737:DI[15] 5.3325e-05
23 *116:11 *3737:DI[13] 0.000166251
24 *116:11 *131:31 0.00124358
25 *116:11 *177:22 0.00155853
26 *116:11 *241:106 5.86521e-05
27 *116:11 *244:32 0.00010633
28 *116:11 *244:34 0.00159124
29 *116:15 *119:15 0.000272489
30 *116:15 *123:25 0.000321076
31 *116:15 *128:19 0.00263132
32 *116:15 *138:19 0.000416608
33 *116:15 *140:15 0.00256743
34 *116:15 *143:21 0.00022891
35 *116:15 *143:23 0.0135333
36 *116:15 *188:12 0.00193865
37 *116:19 *3565:D 0.000573247
38 *116:19 *117:21 7.60643e-05
39 *116:19 *312:22 0
40 *116:19 *327:22 1.08194e-05
41 *116:19 *329:26 4.48674e-05
42 *116:19 *370:8 0.000136781
43 *116:19 *370:12 0.000105903
44 *116:21 *117:21 2.72225e-05
45 *116:21 *329:26 2.60986e-05
46 *114:19 *116:15 0.00134492
*RES
1 *3737:DO[12] *116:11 48.9725 
2 *116:11 *116:13 2 
3 *116:13 *116:15 131.55 
4 *116:15 *116:19 11.285 
5 *116:19 *116:21 0.615 
6 *116:21 *461:DIODE 8.34 
7 *116:21 *3562:D 7.08 
8 *116:19 *450:DIODE 4.395 
*END

*D_NET *117 0.0475389
*CONN
*I *469:DIODE I *D sky130_fd_sc_hd__diode_2
*I *3563:D I *D sky130_fd_sc_hd__and4b_2
*I *3737:DO[13] O *D CF_SRAM_1024x32
*CAP
1 *469:DIODE 7.08675e-06
2 *3563:D 3.05271e-05
3 *3737:DO[13] 0.00171417
4 *117:21 0.000488947
5 *117:15 0.00269061
6 *117:13 0.00395344
7 *469:DIODE *3563:A_N 3.83041e-05
8 *469:DIODE *317:30 4.82919e-05
9 *3563:D *3563:A_N 8.96356e-05
10 *3563:D *317:30 0.000120655
11 *117:13 *3720:A 0.000481832
12 *117:13 *3737:DI[13] 0
13 *117:13 *134:23 0.000169126
14 *117:13 *134:25 5.16418e-05
15 *117:13 *186:28 0.00248338
16 *117:13 *219:40 1.89325e-05
17 *117:13 *219:42 7.33816e-05
18 *117:13 *270:38 0.00240169
19 *117:13 *302:20 9.33406e-05
20 *117:15 *119:15 0.0138414
21 *117:15 *143:21 0.000892849
22 *117:15 *143:23 5.68717e-05
23 *117:15 *144:15 0.0142646
24 *117:21 *3565:D 0.000550167
25 *117:21 *3699:A 0.000107932
26 *117:21 *327:43 0
27 *117:21 *337:18 2.05571e-05
28 *117:21 *366:32 0.000147088
29 *117:21 *369:12 0
30 *461:DIODE *117:21 5.4851e-05
31 *3560:D *117:21 0
32 *114:19 *117:15 0.00254433
33 *114:19 *117:21 0
34 *116:19 *117:21 7.60643e-05
35 *116:21 *117:21 2.72225e-05
*RES
1 *3737:DO[13] *117:13 48.0475 
2 *117:13 *117:15 135.345 
3 *117:15 *117:21 14.305 
4 *117:21 *3563:D 2.74 
5 *117:21 *469:DIODE 2.05 
*END

*D_NET *118 0.0451759
*CONN
*I *3564:D I *D sky130_fd_sc_hd__and4b_2
*I *3737:DO[14] O *D CF_SRAM_1024x32
*CAP
1 *3564:D 0.000925651
2 *3737:DO[14] 0.00233528
3 *118:39 0.00220733
4 *118:23 0.00210038
5 *118:19 0.00148658
6 *118:15 0.00300315
7 *3564:D *463:DIODE 0.000492549
8 *3564:D *3557:B 6.26433e-05
9 *3564:D *3557:D 2.05864e-05
10 *3564:D *3558:B 4.82919e-05
11 *3564:D *3558:D 3.66286e-05
12 *3564:D *3560:B 3.59531e-06
13 *3564:D *3564:B 4.66108e-05
14 *3564:D *3583:D 0.000153816
15 *3564:D *3585:D 2.20665e-05
16 *3564:D *3587:D 0.000116161
17 *3564:D *3809:A 0.00022786
18 *3564:D *3823:A 4.82863e-05
19 *3564:D *3827:A 0.000267846
20 *3564:D *3828:A 9.43385e-05
21 *3564:D *334:32 1.47256e-05
22 *3564:D *336:36 2.76356e-05
23 *3564:D *339:24 0
24 *3564:D *366:43 0.000158072
25 *3564:D *366:90 2.75229e-05
26 *3564:D *366:103 2.16833e-05
27 *3564:D *366:116 0.000192393
28 *3564:D *366:136 0.000196952
29 *3564:D *368:67 7.96104e-06
30 *3564:D *368:88 0.000265011
31 *3564:D *370:16 0.000108886
32 *3564:D *370:38 1.46744e-05
33 *3564:D *370:52 7.96104e-06
34 *118:15 *3737:DI[14] 7.3707e-05
35 *118:15 *3737:vpwrpc 0.000448035
36 *118:15 *126:25 0.000641042
37 *118:15 *162:24 0.00247396
38 *118:15 *171:16 0.000359513
39 *118:15 *177:22 0.000339465
40 *118:15 *219:42 0.00183548
41 *118:15 *241:84 4.66108e-05
42 *118:15 *258:30 0.00183548
43 *118:15 *328:36 0.00147135
44 *118:15 *350:64 1.37226e-05
45 *118:19 *393:DIODE 0
46 *118:19 *3813:A 0
47 *118:19 *128:19 0
48 *118:19 *162:24 0.000468155
49 *118:19 *171:16 0.00045897
50 *118:19 *177:12 7.5458e-05
51 *118:19 *317:42 0.00029391
52 *118:23 *3713:A 0.000354859
53 *118:23 *317:32 0.00507609
54 *118:23 *339:26 0.00507944
55 *118:39 *459:DIODE 0.000312964
56 *118:39 *3582:B 4.99619e-05
57 *118:39 *3583:A_N 4.77757e-05
58 *118:39 *3583:D 1.39533e-05
59 *118:39 *3588:D 0.00144737
60 *118:39 *3722:A 6.57051e-05
61 *118:39 *3798:A 4.77719e-05
62 *118:39 *142:19 0.000349496
63 *118:39 *318:16 0.00400484
64 *118:39 *366:151 0.000213897
65 *118:39 *367:56 2.05056e-05
66 *118:39 *369:35 6.09889e-05
67 *118:39 *369:44 8.12896e-06
68 *118:39 *371:51 0.00217065
69 *450:DIODE *3564:D 8.49205e-05
70 *3562:D *3564:D 2.32597e-05
71 *3582:D *118:39 5.79655e-05
72 *3621:A *3564:D 5.98468e-05
73 *111:14 *118:39 0
74 *113:43 *118:39 3.77036e-05
75 *113:55 *118:39 9.80943e-06
*RES
1 *3737:DO[14] *118:15 39.3609 
2 *118:15 *118:19 15.7475 
3 *118:19 *118:23 48.68 
4 *118:23 *118:39 49.865 
5 *118:39 *3564:D 23.1824 
*END

*D_NET *119 0.0387244
*CONN
*I *3565:D I *D sky130_fd_sc_hd__and4b_2
*I *3737:DO[15] O *D CF_SRAM_1024x32
*CAP
1 *3565:D 0.000164493
2 *3737:DO[15] 0.000613802
3 *119:15 0.00208186
4 *119:13 0.00253117
5 *119:13 *3737:DI[15] 0
6 *119:13 *124:11 0.000933437
7 *119:13 *126:25 0.000189028
8 *119:13 *131:31 0
9 *119:13 *146:26 7.39534e-05
10 *119:13 *151:40 5.83121e-06
11 *119:13 *199:22 0.00117643
12 *119:13 *339:48 0.000148766
13 *119:15 *138:19 0.0019857
14 *119:15 *143:23 0.013421
15 *114:19 *119:15 0.000161545
16 *116:15 *119:15 0.000272489
17 *116:19 *3565:D 0.000573247
18 *117:15 *119:15 0.0138414
19 *117:21 *3565:D 0.000550167
*RES
1 *3737:DO[15] *119:13 22.1275 
2 *119:13 *119:15 126.375 
3 *119:15 *3565:D 12.335 
*END

*D_NET *120 0.0528612
*CONN
*I *3566:D I *D sky130_fd_sc_hd__and4b_1
*I *472:DIODE I *D sky130_fd_sc_hd__diode_2
*I *3737:DO[16] O *D CF_SRAM_1024x32
*CAP
1 *3566:D 0.00011717
2 *472:DIODE 0
3 *3737:DO[16] 0.00160246
4 *120:46 0.00033719
5 *120:42 0.00160868
6 *120:40 0.00397107
7 *120:18 0.00993957
8 *120:16 0.00895488
9 *120:4 4.73185e-06
10 *3566:D *367:68 9.78493e-05
11 *3566:D *369:51 1.93752e-05
12 *3566:D *371:51 4.30166e-05
13 *3566:D *371:69 4.77757e-05
14 *120:16 *3737:ScanInDR 0.000560495
15 *120:16 *3737:DI[16] 0.00043934
16 *120:18 *3821:A 0
17 *120:18 *121:22 0.00575876
18 *120:40 *3577:A_N 0.000381088
19 *120:40 *3577:B 2.19562e-06
20 *120:40 *3577:D 1.19928e-05
21 *120:40 *3674:A 0.000698393
22 *120:40 *3713:A 0.00068056
23 *120:40 *3815:A 0.000342784
24 *120:40 *3817:A 0.000745941
25 *120:40 *131:56 7.9642e-06
26 *120:40 *131:58 0.000107028
27 *120:40 *131:60 0.000117031
28 *120:40 *139:29 0.000309035
29 *120:40 *159:44 0.000104331
30 *120:40 *281:36 0.00029619
31 *120:40 *304:14 7.78242e-05
32 *120:42 *3663:A 0.00163495
33 *120:42 *3705:A 0.000312626
34 *120:42 *3807:A 0.00078889
35 *120:42 *3812:A 0.00111121
36 *120:42 *121:40 0.0021259
37 *120:42 *350:30 0.00380035
38 *120:42 *350:54 0.000337676
39 *120:46 *3804:A 0
40 *120:46 *321:16 0.000296976
41 wbs_dat_o[22] *120:42 8.79005e-05
42 *114:11 *120:18 0.00498002
*RES
1 *3737:DO[16] *120:4 0.12 
2 *3737:DO[16] *120:16 28.445 
3 *120:16 *120:18 174.27 
4 *120:18 *120:40 40.9818 
5 *120:40 *120:42 53.925 
6 *120:42 *120:46 5.675 
7 *120:46 *472:DIODE 3.6 
8 *120:46 *3566:D 5.97375 
*END

*D_NET *121 0.0581077
*CONN
*I *3567:D I *D sky130_fd_sc_hd__and4b_1
*I *385:DIODE I *D sky130_fd_sc_hd__diode_2
*I *386:DIODE I *D sky130_fd_sc_hd__diode_2
*I *3737:DO[17] O *D CF_SRAM_1024x32
*CAP
1 *3567:D 6.43191e-05
2 *385:DIODE 5.74818e-05
3 *386:DIODE 0
4 *3737:DO[17] 0.00154459
5 *121:55 0.000279832
6 *121:46 0.00110731
7 *121:40 0.00269143
8 *121:32 0.0035925
9 *121:22 0.00688449
10 *121:20 0.00657093
11 *121:4 7.80379e-06
12 *385:DIODE *3805:A 8.65905e-05
13 *3567:D *3693:A 0
14 *3567:D *3805:A 0.000173613
15 *3567:D *145:73 0.000173613
16 *3567:D *367:68 8.68332e-06
17 *3567:D *367:84 7.9642e-06
18 *121:20 *3737:WLBI 0.000653173
19 *121:20 *3737:TM 0.000841761
20 *121:20 *3737:DI[17] 3.09088e-05
21 *121:22 *3821:A 0
22 *121:22 *137:13 0
23 *121:22 *311:10 0.0123355
24 *121:22 *314:10 0.000392193
25 *121:32 *410:DIODE 4.81056e-05
26 *121:32 *3611:A 0.000200713
27 *121:32 *3710:A 4.66108e-05
28 *121:32 *3773:A 0.000159156
29 *121:32 *3819:A 0.000145535
30 *121:32 *303:24 0.000355759
31 *121:40 *3649:A 1.81151e-05
32 *121:40 *3692:A 7.43094e-05
33 *121:40 *3705:A 0.000313417
34 *121:40 *3767:A 5.30673e-05
35 *121:40 *236:20 2.03475e-05
36 *121:40 *303:24 2.19562e-06
37 *121:40 *350:54 3.0276e-05
38 *121:46 *3693:A 0
39 *121:46 *3705:A 0.000248881
40 *121:46 *3806:A 0
41 *121:46 *203:14 2.01504e-05
42 *121:46 *322:14 0.00178164
43 *121:46 *350:30 0.00304598
44 *121:55 *3806:A 0
45 *121:55 *367:68 2.97004e-06
46 wbs_dat_o[26] *121:32 0.000119246
47 wbs_dat_o[29] *121:32 0.000536868
48 *113:11 *121:22 0
49 *113:29 *121:32 0.000514989
50 *114:11 *121:22 0.00498002
51 *120:18 *121:22 0.00575876
52 *120:42 *121:40 0.0021259
*RES
1 *3737:DO[17] *121:4 0.135 
2 *3737:DO[17] *121:20 28.22 
3 *121:20 *121:22 186.51 
4 *121:22 *121:32 33.455 
5 *121:32 *121:40 28.09 
6 *121:40 *121:46 31.685 
7 *121:46 *386:DIODE 3.6 
8 *121:46 *121:55 2.145 
9 *121:55 *385:DIODE 4.395 
10 *121:55 *3567:D 5.79375 
*END

*D_NET *122 0.0686193
*CONN
*I *3568:D I *D sky130_fd_sc_hd__and4b_1
*I *387:DIODE I *D sky130_fd_sc_hd__diode_2
*I *3737:DO[18] O *D CF_SRAM_1024x32
*CAP
1 *3568:D 0.000236727
2 *387:DIODE 0
3 *3737:DO[18] 0.0151124
4 *122:29 0.00427121
5 *122:21 0.0191469
6 *3568:D *3805:A 0.000196669
7 *3568:D *369:65 1.52766e-05
8 *122:21 *3737:DI[18] 8.65905e-05
9 *122:21 *137:13 0.00390061
10 *122:21 *139:11 0.00198845
11 *122:21 *142:11 0.000967339
12 *122:21 *144:11 0.00103174
13 *122:21 *145:79 0.00186471
14 *122:21 *182:16 0.00131766
15 *122:21 *188:16 0.00115881
16 *122:21 *248:39 1.79483e-05
17 *122:21 *313:10 0.00155282
18 *122:21 *314:10 0.0014939
19 *122:29 *3674:A 1.43776e-05
20 *122:29 *3693:A 0
21 *122:29 *3705:A 0
22 *122:29 *3713:A 0.00190625
23 *122:29 *142:19 0.0077637
24 *122:29 *145:73 0.00129975
25 *122:29 *367:172 0.000107826
26 *113:11 *122:21 0.00272496
27 *113:29 *122:29 0.000442632
*RES
1 *3737:DO[18] *122:21 41.1525 
2 *122:21 *122:29 15.0356 
3 *122:29 *387:DIODE 1.6 
4 *122:29 *3568:D 5.20375 
*END

*D_NET *123 0.0582613
*CONN
*I *3569:D I *D sky130_fd_sc_hd__and4b_1
*I *388:DIODE I *D sky130_fd_sc_hd__diode_2
*I *3737:DO[19] O *D CF_SRAM_1024x32
*CAP
1 *3569:D 1.6196e-05
2 *388:DIODE 5.30676e-05
3 *3737:DO[19] 0.0102837
4 *123:29 0.000823933
5 *123:25 0.0110384
6 *388:DIODE *367:103 4.99619e-05
7 *388:DIODE *367:113 0.00013219
8 *388:DIODE *371:88 0.000149599
9 *388:DIODE *371:99 1.60203e-05
10 *3569:D *367:113 2.57121e-05
11 *3569:D *371:99 5.63214e-05
12 *123:25 *3737:DI[8] 0.000246787
13 *123:25 *3737:DI[19] 2.77183e-05
14 *123:25 *125:25 0.022179
15 *123:25 *128:19 0.000350294
16 *123:25 *130:25 4.67438e-06
17 *123:25 *138:11 0.00177411
18 *123:25 *138:19 0.00527921
19 *123:25 *155:10 0.00124521
20 *123:25 *162:24 0.00121469
21 *123:25 *173:18 0.000999509
22 *123:25 *201:10 0.00186747
23 *123:25 *248:51 1.79483e-05
24 *123:25 *328:36 1.72962e-05
25 *123:29 *139:41 1.03833e-05
26 *123:29 *173:12 0
27 *123:29 *182:10 0
28 *123:29 *184:10 6.0745e-05
29 *116:15 *123:25 0.000321076
*RES
1 *3737:DO[19] *123:25 46.0484 
2 *123:25 *123:29 10.9025 
3 *123:29 *388:DIODE 4.255 
4 *123:29 *3569:D 2.14375 
*END

*D_NET *124 0.0604423
*CONN
*I *389:DIODE I *D sky130_fd_sc_hd__diode_2
*I *3583:D I *D sky130_fd_sc_hd__and4b_1
*I *3737:DO[1] O *D CF_SRAM_1024x32
*CAP
1 *389:DIODE 0
2 *3583:D 0.000290042
3 *3737:DO[1] 0.00020117
4 *124:23 0.00144632
5 *124:15 0.00280604
6 *124:13 0.00164976
7 *124:11 0.00204285
8 *124:9 0.00224402
9 *3583:D *457:DIODE 4.74937e-05
10 *3583:D *3825:A 0.000155491
11 *3583:D *138:19 2.0851e-06
12 *3583:D *366:136 8.23457e-05
13 *3583:D *366:151 9.74942e-05
14 *124:9 *3737:DI[1] 0
15 *124:11 *127:25 0.00224368
16 *124:11 *132:11 7.79678e-05
17 *124:11 *146:26 1.97442e-05
18 *124:11 *146:28 2.05661e-05
19 *124:11 *151:42 0.0093644
20 *124:11 *157:16 0.010939
21 *124:11 *195:26 0.000742374
22 *124:11 *199:22 2.05661e-05
23 *124:15 *127:25 0.000699044
24 *124:15 *135:13 0.0115423
25 *124:15 *141:15 0.0120276
26 *124:15 *157:12 9.96309e-05
27 *124:15 *173:16 6.03315e-05
28 *124:23 *3583:B 0.000209499
29 *124:23 *3588:D 7.9642e-06
30 *124:23 *3824:A 4.92144e-05
31 *124:23 *3825:A 7.26348e-05
32 *124:23 *138:19 0
33 *124:23 *371:23 7.95327e-05
34 *3564:D *3583:D 0.000153816
35 *118:39 *3583:D 1.39533e-05
36 *119:13 *124:11 0.000933437
*RES
1 *3737:DO[1] *124:9 5.0225 
2 *124:9 *124:11 125.055 
3 *124:11 *124:13 2 
4 *124:13 *124:15 110.16 
5 *124:15 *124:23 19.69 
6 *124:23 *3583:D 10.2013 
7 *124:23 *389:DIODE 1.6 
*END

*D_NET *125 0.065215
*CONN
*I *3570:D I *D sky130_fd_sc_hd__and4b_1
*I *390:DIODE I *D sky130_fd_sc_hd__diode_2
*I *3737:DO[20] O *D CF_SRAM_1024x32
*CAP
1 *3570:D 1.03979e-05
2 *390:DIODE 5.07957e-05
3 *3737:DO[20] 0.00505484
4 *125:29 0.000717257
5 *125:25 0.0057109
6 *390:DIODE *367:128 0.000198344
7 *390:DIODE *369:72 0.00019898
8 *390:DIODE *371:99 2.10152e-05
9 *3570:D *367:128 1.04087e-05
10 *125:25 *3737:DI[20] 0
11 *125:25 *126:25 0.00383334
12 *125:25 *127:25 0.0180735
13 *125:25 *130:25 1.51394e-05
14 *125:25 *132:11 0.00317192
15 *125:25 *133:11 0.00212994
16 *125:25 *140:15 0.000828035
17 *125:25 *146:26 0.000169048
18 *125:25 *182:12 0.000144557
19 *125:25 *184:16 0.00158731
20 *125:25 *188:12 0.000751988
21 *125:25 *199:12 0.000133263
22 *125:25 *248:63 1.79483e-05
23 *125:25 *328:36 5.44824e-05
24 *125:29 *203:14 0
25 *125:29 *241:26 4.78685e-05
26 *125:29 *369:86 0.000104672
27 *123:25 *125:25 0.022179
*RES
1 *3737:DO[20] *125:25 46.4974 
2 *125:25 *125:29 11.1575 
3 *125:29 *390:DIODE 3.775 
4 *125:29 *3570:D 1.79875 
*END

*D_NET *126 0.0635739
*CONN
*I *3571:D I *D sky130_fd_sc_hd__and4b_1
*I *391:DIODE I *D sky130_fd_sc_hd__diode_2
*I *3737:DO[21] O *D CF_SRAM_1024x32
*CAP
1 *3571:D 7.28897e-06
2 *391:DIODE 0.00026596
3 *3737:DO[21] 0.00514593
4 *126:27 0.00100047
5 *126:25 0.00587316
6 *391:DIODE *3808:A 0.000169201
7 *391:DIODE *339:26 0.000163199
8 *3571:D *367:137 2.05864e-05
9 *3571:D *371:125 1.10377e-05
10 *126:25 *3737:DI[21] 0
11 *126:25 *127:25 0.0188417
12 *126:25 *130:25 0.0190833
13 *126:25 *146:28 0.00286243
14 *126:25 *151:42 0.00212315
15 *126:25 *162:24 9.70043e-06
16 *126:25 *182:12 0.000623782
17 *126:25 *195:26 0.00119747
18 *126:25 *199:12 0.000680546
19 *126:25 *199:22 0.000169048
20 *126:25 *248:75 1.79483e-05
21 *126:25 *317:42 0.000203796
22 *126:25 *328:36 0.000302143
23 *126:27 *170:69 3.39151e-05
24 *126:27 *225:10 0
25 *126:27 *369:86 0.000104672
26 *118:15 *126:25 0.000641042
27 *119:13 *126:25 0.000189028
28 *125:25 *126:25 0.00383334
*RES
1 *3737:DO[21] *126:25 46.3477 
2 *126:25 *126:27 10.1775 
3 *126:27 *391:DIODE 7.74 
4 *126:27 *3571:D 3.79875 
*END

*D_NET *127 0.0613535
*CONN
*I *3572:D I *D sky130_fd_sc_hd__and4b_1
*I *392:DIODE I *D sky130_fd_sc_hd__diode_2
*I *3737:DO[22] O *D CF_SRAM_1024x32
*CAP
1 *3572:D 1.31965e-05
2 *392:DIODE 0.000183229
3 *3737:DO[22] 0.00520573
4 *127:27 0.00118076
5 *127:25 0.00619006
6 *392:DIODE *3812:A 2.0851e-06
7 *392:DIODE *367:137 4.77719e-05
8 *392:DIODE *367:146 0.00014828
9 *3572:D *367:146 5.87007e-05
10 *3572:D *371:132 3.37809e-05
11 *127:25 *3737:BEN[22] 1.79483e-05
12 *127:25 *3737:DI[22] 0
13 *127:25 *3737:vpwrpc 0.00181012
14 *127:25 *3737:vpwrac 8.43221e-05
15 *127:25 *130:25 0.000442644
16 *127:25 *135:13 0.000264343
17 *127:25 *141:15 0.000633757
18 *127:25 *157:12 0.00024369
19 *127:25 *157:16 0.00247761
20 *127:25 *162:24 0.000450415
21 *127:25 *173:16 0.000314132
22 *127:25 *184:12 0.000223099
23 *127:25 *241:48 0.00146987
24 *127:27 *3649:A 0
25 *127:27 *149:14 0
26 *124:11 *127:25 0.00224368
27 *124:15 *127:25 0.000699044
28 *125:25 *127:25 0.0180735
29 *126:25 *127:25 0.0188417
*RES
1 *3737:DO[22] *127:25 46.5248 
2 *127:25 *127:27 13.2375 
3 *127:27 *392:DIODE 6.045 
4 *127:27 *3572:D 4.14375 
*END

*D_NET *128 0.0527831
*CONN
*I *3573:D I *D sky130_fd_sc_hd__and4b_1
*I *393:DIODE I *D sky130_fd_sc_hd__diode_2
*I *3737:DO[23] O *D CF_SRAM_1024x32
*CAP
1 *3573:D 3.82672e-05
2 *393:DIODE 0.000271668
3 *3737:DO[23] 0.00039067
4 *128:19 0.00139402
5 *128:11 0.00542298
6 *128:9 0.00472957
7 *393:DIODE *3813:A 0
8 *393:DIODE *145:73 4.67939e-05
9 *393:DIODE *339:26 0.000124895
10 *3573:D *367:159 2.20665e-05
11 *3573:D *371:139 1.32668e-05
12 *128:9 *3737:BEN[23] 0
13 *128:9 *3737:DI[23] 0
14 *128:11 *3737:DI[8] 4.74383e-05
15 *128:11 *129:11 1.92353e-05
16 *128:11 *131:11 0.0171842
17 *128:11 *132:19 0.00131097
18 *128:11 *132:25 0.000294233
19 *128:11 *151:40 0.00131671
20 *128:11 *155:10 0.0020913
21 *128:11 *162:28 0.00409503
22 *128:11 *173:18 1.38481e-05
23 *128:11 *201:10 0.0012449
24 *128:11 *226:10 0.00687346
25 *128:19 *145:73 1.08723e-05
26 *128:19 *149:14 0
27 *128:19 *177:12 0.000215667
28 *128:19 *188:12 0.00262936
29 *116:15 *128:19 0.00263132
30 *118:19 *393:DIODE 0
31 *118:19 *128:19 0
32 *123:25 *128:19 0.000350294
*RES
1 *3737:DO[23] *128:9 8.18 
2 *128:9 *128:11 220.17 
3 *128:11 *128:19 37.795 
4 *128:19 *393:DIODE 7.395 
5 *128:19 *3573:D 4.24875 
*END

*D_NET *129 0.0549389
*CONN
*I *402:DIODE I *D sky130_fd_sc_hd__diode_2
*I *404:DIODE I *D sky130_fd_sc_hd__diode_2
*I *400:DIODE I *D sky130_fd_sc_hd__diode_2
*I *398:DIODE I *D sky130_fd_sc_hd__diode_2
*I *396:DIODE I *D sky130_fd_sc_hd__diode_2
*I *394:DIODE I *D sky130_fd_sc_hd__diode_2
*I *397:DIODE I *D sky130_fd_sc_hd__diode_2
*I *399:DIODE I *D sky130_fd_sc_hd__diode_2
*I *401:DIODE I *D sky130_fd_sc_hd__diode_2
*I *403:DIODE I *D sky130_fd_sc_hd__diode_2
*I *3574:D I *D sky130_fd_sc_hd__and4b_1
*I *3737:DO[24] O *D CF_SRAM_1024x32
*CAP
1 *402:DIODE 0
2 *404:DIODE 0
3 *400:DIODE 3.93193e-05
4 *398:DIODE 0
5 *396:DIODE 0
6 *394:DIODE 0
7 *397:DIODE 0
8 *399:DIODE 0
9 *401:DIODE 0
10 *403:DIODE 2.76788e-05
11 *3574:D 0.000214675
12 *3737:DO[24] 0.000295562
13 *129:105 7.24694e-05
14 *129:52 0.000168732
15 *129:50 0.000183702
16 *129:48 0.000224423
17 *129:42 0.00041697
18 *129:40 0.000372229
19 *129:36 0.000217634
20 *129:21 0.000455027
21 *129:19 0.000267292
22 *129:15 0.00164181
23 *129:11 0.00724989
24 *129:9 0.00597804
25 *400:DIODE *153:12 8.46717e-05
26 *403:DIODE *3813:A 3.79351e-05
27 *3574:D *241:48 0
28 *3574:D *339:48 0
29 *3574:D *369:113 2.99445e-05
30 *3574:D *371:153 2.61944e-05
31 *129:9 *3737:DI[24] 0.000241531
32 *129:11 *3737:BEN[8] 0.000676197
33 *129:11 *3737:DI[14] 1.79536e-05
34 *129:11 *3737:DI[15] 0.00124396
35 *129:11 *3737:DI[13] 4.0636e-05
36 *129:11 *131:11 0.0179522
37 *129:11 *132:19 0.0013205
38 *129:11 *132:25 0.00049665
39 *129:11 *197:10 0.00177815
40 *129:11 *204:10 0.000277238
41 *129:11 *212:10 0
42 *129:11 *234:10 0.00728358
43 *129:11 *241:84 0.000337061
44 *129:11 *241:94 0.000737773
45 *129:11 *241:106 0.000700911
46 *129:11 *241:134 4.94145e-05
47 *129:11 *241:146 0.000608983
48 *129:11 *244:34 0
49 *129:11 *350:54 0.000736812
50 *129:15 *409:DIODE 4.7003e-05
51 *129:15 *131:31 0.000172232
52 *129:15 *131:33 5.30673e-05
53 *129:15 *131:35 4.66826e-05
54 *129:15 *132:25 0.000162987
55 *129:15 *132:27 5.05437e-05
56 *129:15 *132:29 5.05521e-05
57 *129:15 *146:26 0.000184366
58 *129:15 *186:16 0.000503185
59 *129:15 *292:16 1.52352e-05
60 *129:19 *3737:DI[14] 3.59531e-06
61 *129:19 *241:48 0
62 *129:19 *317:42 0
63 *129:21 *151:32 3.55989e-05
64 *129:21 *170:85 0
65 *129:21 *241:48 0
66 *129:36 *170:85 0.000159947
67 *129:40 *317:42 0
68 *129:40 *329:77 2.0851e-06
69 *129:40 *371:153 4.55864e-06
70 *129:42 *3813:A 2.75588e-05
71 *129:42 *317:42 0
72 *129:42 *339:48 7.42989e-06
73 *129:42 *369:113 7.98007e-06
74 *129:42 *371:153 4.11336e-05
75 *129:48 *3766:A 0
76 *129:48 *3813:A 6.18658e-05
77 *129:48 *339:48 1.70139e-05
78 *129:50 *3813:A 5.46982e-05
79 *129:52 *3813:A 8.93992e-05
80 *129:52 *281:26 6.88421e-05
81 *129:105 *153:12 8.6076e-05
82 wbs_dat_o[22] *403:DIODE 7.14241e-05
83 wbs_dat_o[22] *129:48 9.09788e-06
84 wbs_dat_o[22] *129:50 0.000113572
85 wbs_dat_o[22] *129:52 0.000268205
86 *128:11 *129:11 1.92353e-05
*RES
1 *3737:DO[24] *129:9 8.12 
2 *129:9 *129:11 231.645 
3 *129:11 *129:15 21.77 
4 *129:15 *129:19 2.87 
5 *129:19 *129:21 2.4 
6 *129:21 *3574:D 7.21875 
7 *129:21 *129:36 3.485 
8 *129:36 *129:40 4.4 
9 *129:40 *129:42 3.42 
10 *129:42 *129:48 2.955 
11 *129:48 *129:50 1.38 
12 *129:50 *129:52 3.42 
13 *129:52 *403:DIODE 4.47 
14 *129:52 *401:DIODE 3.6 
15 *129:50 *399:DIODE 3.6 
16 *129:48 *397:DIODE 3.6 
17 *129:42 *394:DIODE 3.6 
18 *129:40 *396:DIODE 3.6 
19 *129:36 *398:DIODE 1.6 
20 *129:19 *129:105 2.795 
21 *129:105 *400:DIODE 2.395 
22 *129:105 *404:DIODE 1.6 
23 *129:15 *402:DIODE 1.6 
*END

*D_NET *130 0.0559947
*CONN
*I *3575:D I *D sky130_fd_sc_hd__and4b_1
*I *3737:DO[25] O *D CF_SRAM_1024x32
*CAP
1 *3575:D 0.000422457
2 *3737:DO[25] 0.0123632
3 *130:25 0.0127856
4 *3575:D *3576:A_N 0.000164402
5 *3575:D *3577:A_N 2.05864e-05
6 *3575:D *3814:A 1.32668e-05
7 *3575:D *139:29 6.59587e-06
8 *3575:D *219:36 0
9 *3575:D *350:54 0
10 *130:25 *3737:BEN[23] 0.000257946
11 *130:25 *3737:BEN[24] 0
12 *130:25 *3737:BEN[25] 1.79483e-05
13 *130:25 *3737:BEN[0] 0.000268513
14 *130:25 *3737:BEN[1] 0.000191478
15 *130:25 *3737:DI[14] 0.000348741
16 *130:25 *3737:DI[25] 0
17 *130:25 *135:9 0.00371297
18 *130:25 *141:11 0.00155778
19 *130:25 *146:26 0.0010531
20 *130:25 *199:24 0.00122408
21 *130:25 *241:48 0.000629682
22 *130:25 *241:134 0.000413848
23 *130:25 *244:106 0.000191478
24 *130:25 *329:77 0.000291215
25 *130:25 *350:54 0.000514069
26 *123:25 *130:25 4.67438e-06
27 *125:25 *130:25 1.51394e-05
28 *126:25 *130:25 0.0190833
29 *127:25 *130:25 0.000442644
*RES
1 *3737:DO[25] *130:25 48.5306 
2 *130:25 *3575:D 9.89625 
*END

*D_NET *131 0.0595246
*CONN
*I *411:DIODE I *D sky130_fd_sc_hd__diode_2
*I *413:DIODE I *D sky130_fd_sc_hd__diode_2
*I *415:DIODE I *D sky130_fd_sc_hd__diode_2
*I *409:DIODE I *D sky130_fd_sc_hd__diode_2
*I *407:DIODE I *D sky130_fd_sc_hd__diode_2
*I *405:DIODE I *D sky130_fd_sc_hd__diode_2
*I *408:DIODE I *D sky130_fd_sc_hd__diode_2
*I *410:DIODE I *D sky130_fd_sc_hd__diode_2
*I *412:DIODE I *D sky130_fd_sc_hd__diode_2
*I *414:DIODE I *D sky130_fd_sc_hd__diode_2
*I *416:DIODE I *D sky130_fd_sc_hd__diode_2
*I *3576:D I *D sky130_fd_sc_hd__and4b_1
*I *3737:DO[26] O *D CF_SRAM_1024x32
*CAP
1 *411:DIODE 0
2 *413:DIODE 0
3 *415:DIODE 0
4 *409:DIODE 2.285e-05
5 *407:DIODE 1.89564e-05
6 *405:DIODE 2.8729e-05
7 *408:DIODE 0.000108703
8 *410:DIODE 0.000121674
9 *412:DIODE 0.000155916
10 *414:DIODE 0.000170835
11 *416:DIODE 0.000284468
12 *3576:D 0
13 *3737:DO[26] 0.000412417
14 *131:68 0.000551571
15 *131:66 0.000472495
16 *131:60 0.000473736
17 *131:58 0.000318426
18 *131:56 0.000249513
19 *131:45 0.000320545
20 *131:39 0.000309617
21 *131:35 0.000158577
22 *131:33 3.44917e-05
23 *131:31 0.00136328
24 *131:11 0.00651073
25 *131:9 0.00557155
26 *405:DIODE *3577:A_N 0.000159947
27 *405:DIODE *3815:A 0.000159947
28 *407:DIODE *151:32 8.41307e-05
29 *407:DIODE *327:61 8.41307e-05
30 *408:DIODE *258:28 0.000159947
31 *409:DIODE *186:16 8.41307e-05
32 *412:DIODE *302:8 0.000236556
33 *414:DIODE *270:28 0.000132005
34 *416:DIODE *3768:A 2.8531e-05
35 *416:DIODE *159:44 6.86726e-05
36 *416:DIODE *259:18 0.000238231
37 *131:9 *3737:DI[26] 0
38 *131:9 *251:41 1.04217e-05
39 *131:11 *155:10 0
40 *131:31 *3737:DI[13] 0.00124358
41 *131:31 *132:19 5.83121e-06
42 *131:31 *132:33 3.59531e-06
43 *131:31 *135:9 6.69719e-05
44 *131:31 *141:11 1.01276e-05
45 *131:31 *177:22 3.64998e-06
46 *131:31 *184:12 0.000334275
47 *131:31 *186:16 0.000295378
48 *131:31 *199:22 0
49 *131:31 *241:84 2.49909e-05
50 *131:31 *259:26 0.000232728
51 *131:31 *303:34 0.000110059
52 *131:31 *339:48 0
53 *131:33 *186:16 7.66083e-05
54 *131:35 *186:16 7.3151e-05
55 *131:39 *328:36 0.000149151
56 *131:45 *164:12 2.57121e-05
57 *131:45 *219:36 9.45483e-05
58 *131:45 *328:36 0.000216554
59 *131:56 *159:44 4.92803e-05
60 *131:56 *369:137 8.53307e-05
61 *131:60 *159:44 1.26595e-05
62 *131:66 *159:44 9.59829e-05
63 *131:68 *3768:A 5.80249e-05
64 *131:68 *159:44 0.000171549
65 *116:11 *131:31 0.00124358
66 *119:13 *131:31 0
67 *120:40 *131:56 7.9642e-06
68 *120:40 *131:58 0.000107028
69 *120:40 *131:60 0.000117031
70 *121:32 *410:DIODE 4.81056e-05
71 *128:11 *131:11 0.0171842
72 *129:11 *131:11 0.0179522
73 *129:15 *409:DIODE 4.7003e-05
74 *129:15 *131:31 0.000172232
75 *129:15 *131:33 5.30673e-05
76 *129:15 *131:35 4.66826e-05
*RES
1 *3737:DO[26] *131:9 8.57 
2 *131:9 *131:11 225.27 
3 *131:11 *131:31 43.315 
4 *131:31 *131:33 0.795 
5 *131:33 *131:35 0.795 
6 *131:35 *131:39 3.89 
7 *131:39 *131:45 5.28875 
8 *131:45 *3576:D 1.6 
9 *131:45 *131:56 4.4 
10 *131:56 *131:58 1.38 
11 *131:58 *131:60 2.145 
12 *131:60 *131:66 3.045 
13 *131:66 *131:68 2.145 
14 *131:68 *416:DIODE 7.92 
15 *131:68 *414:DIODE 5.775 
16 *131:66 *412:DIODE 5.775 
17 *131:60 *410:DIODE 5.085 
18 *131:58 *408:DIODE 5.085 
19 *131:56 *405:DIODE 5.085 
20 *131:39 *407:DIODE 4.395 
21 *131:35 *409:DIODE 2.395 
22 *131:35 *415:DIODE 1.6 
23 *131:33 *413:DIODE 1.6 
24 *131:31 *411:DIODE 1.6 
*END

*D_NET *132 0.0577811
*CONN
*I *429:DIODE I *D sky130_fd_sc_hd__diode_2
*I *425:DIODE I *D sky130_fd_sc_hd__diode_2
*I *427:DIODE I *D sky130_fd_sc_hd__diode_2
*I *423:DIODE I *D sky130_fd_sc_hd__diode_2
*I *421:DIODE I *D sky130_fd_sc_hd__diode_2
*I *419:DIODE I *D sky130_fd_sc_hd__diode_2
*I *3577:D I *D sky130_fd_sc_hd__and4b_1
*I *418:DIODE I *D sky130_fd_sc_hd__diode_2
*I *420:DIODE I *D sky130_fd_sc_hd__diode_2
*I *422:DIODE I *D sky130_fd_sc_hd__diode_2
*I *424:DIODE I *D sky130_fd_sc_hd__diode_2
*I *426:DIODE I *D sky130_fd_sc_hd__diode_2
*I *3737:DO[27] O *D CF_SRAM_1024x32
*CAP
1 *429:DIODE 0.000203992
2 *425:DIODE 0
3 *427:DIODE 0
4 *423:DIODE 0
5 *421:DIODE 0
6 *419:DIODE 0
7 *3577:D 6.12302e-05
8 *418:DIODE 0
9 *420:DIODE 0
10 *422:DIODE 0
11 *424:DIODE 0
12 *426:DIODE 8.93324e-05
13 *3737:DO[27] 0.00027318
14 *132:49 0.000168861
15 *132:47 0.000174906
16 *132:41 0.00017585
17 *132:39 0.000139997
18 *132:37 0.000275241
19 *132:35 0.00026468
20 *132:33 0.000270235
21 *132:29 0.000179416
22 *132:27 3.84769e-05
23 *132:25 0.000351314
24 *132:19 0.000975761
25 *132:11 0.00626017
26 *132:9 0.0060938
27 *426:DIODE *3708:A 6.07071e-05
28 *426:DIODE *3814:A 6.66468e-05
29 *426:DIODE *3815:A 4.97019e-05
30 *429:DIODE *270:36 0.000405745
31 *429:DIODE *303:34 9.50245e-05
32 *3577:D *3577:B 5.05521e-05
33 *3577:D *281:36 0.000132935
34 *132:9 *3737:DI[27] 0
35 *132:11 *3737:BEN[22] 0
36 *132:11 *3737:BEN[23] 0
37 *132:11 *3737:BEN[25] 0
38 *132:11 *3737:BEN[27] 0
39 *132:11 *133:11 0.0150195
40 *132:11 *138:11 1.86911e-05
41 *132:11 *157:16 0.0096661
42 *132:11 *184:16 0.00574461
43 *132:11 *195:26 0.00161202
44 *132:11 *248:27 0
45 *132:11 *248:39 0
46 *132:11 *248:51 0
47 *132:11 *248:63 0
48 *132:11 *248:75 0
49 *132:11 *251:41 0
50 *132:19 *146:26 5.83121e-06
51 *132:19 *241:84 5.24033e-05
52 *132:25 *151:32 0.000100902
53 *132:25 *151:40 7.49985e-05
54 *132:25 *186:16 1.33285e-05
55 *132:25 *292:16 0.000262185
56 *132:25 *301:32 2.56752e-06
57 *132:27 *186:16 4.35348e-05
58 *132:29 *186:16 5.55968e-05
59 *132:33 *164:26 4.18603e-06
60 *132:33 *259:26 0
61 *132:33 *339:48 0
62 *132:35 *164:26 5.43089e-05
63 *132:35 *259:26 0
64 *132:37 *3577:C 1.72766e-05
65 *132:37 *3816:A 0.000173748
66 *132:37 *164:26 1.02348e-05
67 *132:37 *259:26 0
68 *132:37 *339:48 0
69 *132:39 *3816:A 0.000120238
70 *132:39 *281:26 0.000111749
71 *132:41 *3815:A 3.67923e-05
72 *132:41 *3816:A 8.79804e-05
73 *132:41 *281:26 0.000169344
74 *132:47 *3815:A 0.000113803
75 *132:47 *281:26 0.000161345
76 *132:49 *3708:A 3.69062e-05
77 *132:49 *3815:A 0.000167501
78 *132:49 *281:26 2.7881e-05
79 *3627:A *132:49 0
80 *120:40 *3577:D 1.19928e-05
81 *124:11 *132:11 7.79678e-05
82 *125:25 *132:11 0.00317192
83 *128:11 *132:19 0.00131097
84 *128:11 *132:25 0.000294233
85 *129:11 *132:19 0.0013205
86 *129:11 *132:25 0.00049665
87 *129:15 *132:25 0.000162987
88 *129:15 *132:27 5.05437e-05
89 *129:15 *132:29 5.05521e-05
90 *131:31 *132:19 5.83121e-06
91 *131:31 *132:33 3.59531e-06
*RES
1 *3737:DO[27] *132:9 6.515 
2 *132:9 *132:11 233.94 
3 *132:11 *132:19 21.58 
4 *132:19 *132:25 11.6 
5 *132:25 *132:27 0.795 
6 *132:27 *132:29 0.795 
7 *132:29 *132:33 3.89 
8 *132:33 *132:35 1.89 
9 *132:35 *132:37 2.655 
10 *132:37 *132:39 1.635 
11 *132:39 *132:41 2.145 
12 *132:41 *132:47 2.7 
13 *132:47 *132:49 2.145 
14 *132:49 *426:DIODE 5.745 
15 *132:49 *424:DIODE 3.6 
16 *132:47 *422:DIODE 3.6 
17 *132:41 *420:DIODE 3.6 
18 *132:39 *418:DIODE 3.6 
19 *132:37 *3577:D 5.17875 
20 *132:35 *419:DIODE 3.6 
21 *132:33 *421:DIODE 3.6 
22 *132:29 *423:DIODE 1.6 
23 *132:27 *427:DIODE 1.6 
24 *132:25 *425:DIODE 1.6 
25 *132:19 *429:DIODE 7.5 
*END

*D_NET *133 0.0593521
*CONN
*I *3578:D I *D sky130_fd_sc_hd__and4b_1
*I *430:DIODE I *D sky130_fd_sc_hd__diode_2
*I *3737:DO[28] O *D CF_SRAM_1024x32
*CAP
1 *3578:D 0.000104797
2 *430:DIODE 0.00011285
3 *3737:DO[28] 0.000293285
4 *133:23 0.00222371
5 *133:21 0.00257458
6 *133:11 0.00369803
7 *133:9 0.0034228
8 *430:DIODE *139:29 4.89295e-05
9 *430:DIODE *244:32 2.85364e-05
10 *430:DIODE *325:36 5.18734e-05
11 *3578:D *170:92 9.20563e-05
12 *3578:D *219:36 1.28182e-05
13 *3578:D *329:84 0.000200246
14 *133:9 *3737:BEN[28] 1.35779e-05
15 *133:9 *3737:DI[28] 0
16 *133:11 *3737:BEN[27] 0
17 *133:11 *3737:BEN[28] 0
18 *133:11 *138:11 0.00252687
19 *133:11 *155:10 0.0120371
20 *133:11 *201:10 0.00038334
21 *133:21 *3737:BEN[6] 2.52496e-05
22 *133:21 *3737:DI[6] 1.14169e-05
23 *133:21 *195:16 0.000467589
24 *133:23 *244:32 0.00234925
25 *133:23 *244:34 0.000282117
26 *133:23 *317:52 0.00400778
27 *133:23 *317:67 0.000224775
28 *133:23 *325:36 0.00017074
29 *133:23 *329:77 0.00014369
30 *110:10 *133:21 2.62861e-05
31 *110:10 *133:23 0.00666843
32 *125:25 *133:11 0.00212994
33 *132:11 *133:11 0.0150195
*RES
1 *3737:DO[28] *133:9 6.875 
2 *133:9 *133:11 176.82 
3 *133:11 *133:21 14.7925 
4 *133:21 *133:23 85.6575 
5 *133:23 *430:DIODE 5.43 
6 *133:23 *3578:D 5.86875 
*END

*D_NET *134 0.050458
*CONN
*I *441:DIODE I *D sky130_fd_sc_hd__diode_2
*I *438:DIODE I *D sky130_fd_sc_hd__diode_2
*I *436:DIODE I *D sky130_fd_sc_hd__diode_2
*I *434:DIODE I *D sky130_fd_sc_hd__diode_2
*I *432:DIODE I *D sky130_fd_sc_hd__diode_2
*I *3579:D I *D sky130_fd_sc_hd__and4b_1
*I *431:DIODE I *D sky130_fd_sc_hd__diode_2
*I *433:DIODE I *D sky130_fd_sc_hd__diode_2
*I *435:DIODE I *D sky130_fd_sc_hd__diode_2
*I *437:DIODE I *D sky130_fd_sc_hd__diode_2
*I *440:DIODE I *D sky130_fd_sc_hd__diode_2
*I *442:DIODE I *D sky130_fd_sc_hd__diode_2
*I *3737:DO[29] O *D CF_SRAM_1024x32
*CAP
1 *441:DIODE 0.000249
2 *438:DIODE 0
3 *436:DIODE 0
4 *434:DIODE 0
5 *432:DIODE 0
6 *3579:D 8.43622e-05
7 *431:DIODE 0
8 *433:DIODE 0
9 *435:DIODE 0
10 *437:DIODE 0
11 *440:DIODE 0
12 *442:DIODE 0.000123552
13 *3737:DO[29] 0.000997474
14 *134:43 0.000259338
15 *134:41 0.00026625
16 *134:35 0.000220004
17 *134:33 0.000184758
18 *134:31 0.000202573
19 *134:29 0.000279714
20 *134:27 0.000162754
21 *134:25 0.000140382
22 *134:23 0.000162667
23 *134:17 0.000396863
24 *134:11 0.0113982
25 *134:9 0.0118468
26 *441:DIODE *159:44 4.03618e-05
27 *441:DIODE *259:26 0.00010163
28 *442:DIODE *3770:A 4.83508e-05
29 *442:DIODE *3772:A 2.2684e-05
30 *3579:D *327:87 0.000166959
31 *3579:D *329:88 0.000167424
32 *134:9 *3737:DI[29] 0.000419905
33 *134:9 *251:85 0
34 *134:11 *3702:A 0.00109603
35 *134:11 *136:13 0
36 *134:11 *179:16 0
37 *134:11 *190:10 0
38 *134:11 *215:14 0.00122514
39 *134:11 *221:10 0.00698052
40 *134:11 *301:38 0.00530923
41 *134:11 *305:10 0.00296233
42 *134:11 *308:10 0.00187621
43 *134:17 *182:12 8.17064e-05
44 *134:17 *301:38 0.000183738
45 *134:17 *302:20 3.83194e-05
46 *134:17 *305:10 0.000101317
47 *134:23 *186:28 0.000178314
48 *134:23 *302:20 2.49909e-05
49 *134:25 *186:28 0.000181368
50 *134:25 *302:20 4.20436e-05
51 *134:27 *186:28 9.54399e-05
52 *134:27 *302:20 6.36186e-05
53 *134:29 *302:20 7.81629e-05
54 *134:31 *302:20 3.83389e-05
55 *134:33 *302:20 5.51782e-05
56 *134:35 *302:20 5.85267e-05
57 *134:41 *302:20 4.94537e-05
58 *134:43 *3772:A 2.84757e-05
59 *134:43 *302:20 0
60 wbs_dat_o[27] *134:43 0
61 *112:8 *134:11 0.00106029
62 *115:27 *442:DIODE 0
63 *115:27 *3579:D 1.88904e-05
64 *115:27 *134:27 4.49939e-05
65 *115:27 *134:29 0.000110848
66 *115:27 *134:31 5.46239e-05
67 *115:27 *134:33 8.95312e-05
68 *115:27 *134:35 9.15864e-05
69 *115:27 *134:41 7.59769e-05
70 *115:27 *134:43 0
71 *117:13 *134:23 0.000169126
72 *117:13 *134:25 5.16418e-05
*RES
1 *3737:DO[29] *134:9 17.765 
2 *134:9 *134:11 266.07 
3 *134:11 *134:17 7.01 
4 *134:17 *134:23 4.595 
5 *134:23 *134:25 2.145 
6 *134:25 *134:27 2.145 
7 *134:27 *134:29 2.5275 
8 *134:29 *134:31 1.7625 
9 *134:31 *134:33 2.145 
10 *134:33 *134:35 2.145 
11 *134:35 *134:41 2.7 
12 *134:41 *134:43 2.145 
13 *134:43 *442:DIODE 5.745 
14 *134:43 *440:DIODE 3.6 
15 *134:41 *437:DIODE 3.6 
16 *134:35 *435:DIODE 3.6 
17 *134:33 *433:DIODE 3.6 
18 *134:31 *431:DIODE 3.6 
19 *134:29 *3579:D 5.86125 
20 *134:27 *432:DIODE 3.6 
21 *134:25 *434:DIODE 3.6 
22 *134:23 *436:DIODE 3.6 
23 *134:17 *438:DIODE 1.6 
24 *134:11 *441:DIODE 6.465 
*END

*D_NET *135 0.051887
*CONN
*I *443:DIODE I *D sky130_fd_sc_hd__diode_2
*I *3584:D I *D sky130_fd_sc_hd__and4b_1
*I *3737:DO[2] O *D CF_SRAM_1024x32
*CAP
1 *443:DIODE 0
2 *3584:D 0.000237353
3 *3737:DO[2] 3.62397e-05
4 *135:21 0.00109202
5 *135:13 0.00306273
6 *135:11 0.00220806
7 *135:9 0.00529257
8 *135:7 0.00532881
9 *3584:D *3584:A_N 4.60061e-05
10 *3584:D *317:30 8.37596e-05
11 *3584:D *317:32 2.14725e-05
12 *135:7 *3737:BEN[1] 0
13 *135:7 *3737:DI[2] 2.74511e-05
14 *135:9 *3737:BEN[14] 0.000658025
15 *135:9 *3737:BEN[1] 0.000300562
16 *135:9 *141:11 0.000292198
17 *135:9 *199:24 0.00753458
18 *135:9 *241:48 0.000120099
19 *135:9 *244:94 0.000217889
20 *135:9 *244:106 0.000422008
21 *135:13 *3737:vpwrpc 0.000337995
22 *135:13 *157:12 0.00776955
23 *135:21 *3582:B 0.00020374
24 *135:21 *3584:A_N 0.000234456
25 *135:21 *3586:A_N 0.000135391
26 *135:21 *140:19 0.000212549
27 *135:21 *181:24 4.52957e-05
28 *135:21 *312:22 0.000263556
29 *135:21 *315:20 1.5877e-05
30 *135:21 *332:38 4.20125e-05
31 *135:21 *337:18 1.37074e-05
32 *395:DIODE *135:21 3.11004e-05
33 *406:DIODE *135:21 1.33707e-05
34 *124:15 *135:13 0.0115423
35 *127:25 *135:13 0.000264343
36 *130:25 *135:9 0.00371297
37 *131:31 *135:9 6.69719e-05
*RES
1 *3737:DO[2] *135:7 2.7425 
2 *135:7 *135:9 117.075 
3 *135:9 *135:11 2 
4 *135:11 *135:13 104.64 
5 *135:13 *135:21 21.22 
6 *135:21 *3584:D 4.67875 
7 *135:21 *443:DIODE 1.6 
*END

*D_NET *136 0.0482195
*CONN
*I *3580:D I *D sky130_fd_sc_hd__and4b_1
*I *444:DIODE I *D sky130_fd_sc_hd__diode_2
*I *3737:DO[30] O *D CF_SRAM_1024x32
*CAP
1 *3580:D 0.000129715
2 *444:DIODE 7.39777e-05
3 *3737:DO[30] 0.000805514
4 *136:13 0.012109
5 *136:11 0.0127108
6 *444:DIODE *3581:A_N 9.87949e-06
7 *444:DIODE *3818:A 0.000137781
8 *444:DIODE *3819:A 6.72143e-05
9 *3580:D *3580:C 5.63214e-05
10 *3580:D *3581:A_N 6.59933e-05
11 *3580:D *170:103 1.9869e-05
12 *3580:D *327:87 0.000129713
13 *136:11 *3737:DI[30] 0.00138363
14 *136:13 *3581:A_N 4.96405e-05
15 *136:13 *3818:A 3.02668e-05
16 *136:13 *143:13 0.00113415
17 *136:13 *143:15 0.000194358
18 *136:13 *153:18 0.00486289
19 *136:13 *159:46 0.00516781
20 *136:13 *164:28 0.00364546
21 *136:13 *179:14 0.000476626
22 *136:13 *179:16 0
23 *136:13 *190:10 0.0045873
24 *136:13 *304:16 0.000371561
25 *134:11 *136:13 0
*RES
1 *3737:DO[30] *136:11 19.4 
2 *136:11 *136:13 285.832 
3 *136:13 *444:DIODE 5.3625 
4 *136:13 *3580:D 6.79125 
*END

*D_NET *137 0.0558805
*CONN
*I *455:DIODE I *D sky130_fd_sc_hd__diode_2
*I *453:DIODE I *D sky130_fd_sc_hd__diode_2
*I *451:DIODE I *D sky130_fd_sc_hd__diode_2
*I *448:DIODE I *D sky130_fd_sc_hd__diode_2
*I *446:DIODE I *D sky130_fd_sc_hd__diode_2
*I *445:DIODE I *D sky130_fd_sc_hd__diode_2
*I *447:DIODE I *D sky130_fd_sc_hd__diode_2
*I *449:DIODE I *D sky130_fd_sc_hd__diode_2
*I *452:DIODE I *D sky130_fd_sc_hd__diode_2
*I *454:DIODE I *D sky130_fd_sc_hd__diode_2
*I *456:DIODE I *D sky130_fd_sc_hd__diode_2
*I *3581:D I *D sky130_fd_sc_hd__and4b_1
*I *3737:DO[31] O *D CF_SRAM_1024x32
*CAP
1 *455:DIODE 0
2 *453:DIODE 0
3 *451:DIODE 0
4 *448:DIODE 0
5 *446:DIODE 0
6 *445:DIODE 0
7 *447:DIODE 0
8 *449:DIODE 0
9 *452:DIODE 0
10 *454:DIODE 0
11 *456:DIODE 0.000121328
12 *3581:D 0.000146137
13 *3737:DO[31] 0.00114742
14 *137:46 0.000239074
15 *137:44 0.000252962
16 *137:42 0.000217665
17 *137:40 0.000184138
18 *137:38 0.00016739
19 *137:23 0.000314415
20 *137:21 0.000182028
21 *137:19 0.000149277
22 *137:17 0.000110986
23 *137:15 7.78652e-05
24 *137:13 0.0129759
25 *137:11 0.0140866
26 *456:DIODE *3648:A 2.75436e-05
27 *3581:D *3581:A_N 4.66108e-05
28 *3581:D *3581:B 5.89489e-05
29 *3581:D *3581:C 0.00019205
30 *3581:D *3821:A 2.80648e-05
31 *137:11 *3737:BEN[30] 0
32 *137:11 *3737:DI[31] 0.0014611
33 *137:13 *144:11 0.00526161
34 *137:13 *145:79 0
35 *137:13 *182:16 0.000748034
36 *137:15 *144:11 0.000179922
37 *137:17 *144:11 0.000177561
38 *137:19 *144:11 7.61149e-05
39 *137:19 *145:79 0
40 *137:21 *145:79 0
41 *137:23 *3581:A_N 7.03492e-05
42 *137:23 *145:79 0
43 *137:40 *145:79 0
44 *137:42 *145:79 0
45 *137:44 *313:10 0
46 *137:46 *3648:A 3.98506e-05
47 *137:46 *313:10 0
48 wbs_dat_o[29] *456:DIODE 0
49 wbs_dat_o[29] *137:44 0
50 wbs_dat_o[29] *137:46 0
51 *3630:A *456:DIODE 4.94326e-05
52 *113:11 *137:13 0.0116809
53 *113:11 *137:15 0.000189426
54 *113:11 *137:17 0.000187064
55 *113:11 *137:19 0.000185603
56 *113:11 *137:21 0.000189426
57 *113:11 *137:23 0.000260992
58 *113:11 *137:38 9.62267e-05
59 *113:11 *137:40 0.000179536
60 *113:11 *137:42 0.000189426
61 *113:11 *137:44 3.09233e-05
62 *121:22 *137:13 0
63 *122:21 *137:13 0.00390061
*RES
1 *3737:DO[31] *137:11 24.56 
2 *137:11 *137:13 283.41 
3 *137:13 *137:15 2.145 
4 *137:15 *137:17 2.145 
5 *137:17 *137:19 2.145 
6 *137:19 *137:21 2.145 
7 *137:21 *137:23 3.0375 
8 *137:23 *3581:D 6.55125 
9 *137:23 *137:38 1.2525 
10 *137:38 *137:40 2.145 
11 *137:40 *137:42 2.145 
12 *137:42 *137:44 2.145 
13 *137:44 *137:46 2.145 
14 *137:46 *456:DIODE 5.745 
15 *137:46 *454:DIODE 3.6 
16 *137:44 *452:DIODE 3.6 
17 *137:42 *449:DIODE 3.6 
18 *137:40 *447:DIODE 3.6 
19 *137:38 *445:DIODE 3.6 
20 *137:21 *446:DIODE 3.6 
21 *137:19 *448:DIODE 3.6 
22 *137:17 *451:DIODE 3.6 
23 *137:15 *453:DIODE 3.6 
24 *137:13 *455:DIODE 3.6 
*END

*D_NET *138 0.0604565
*CONN
*I *3585:D I *D sky130_fd_sc_hd__and4b_1
*I *457:DIODE I *D sky130_fd_sc_hd__diode_2
*I *3737:DO[3] O *D CF_SRAM_1024x32
*CAP
1 *3585:D 4.29826e-06
2 *457:DIODE 0.00024673
3 *3737:DO[3] 0.000329572
4 *138:19 0.00555853
5 *138:11 0.00734948
6 *138:9 0.00237154
7 *457:DIODE *3587:D 7.96104e-06
8 *457:DIODE *3809:A 0.000135389
9 *457:DIODE *3823:A 1.30972e-05
10 *457:DIODE *3826:A 9.72473e-05
11 *3585:D *366:136 2.05864e-05
12 *138:9 *3737:DI[3] 0
13 *138:11 *3737:DI[8] 0.000966827
14 *138:11 *146:26 0.00014789
15 *138:11 *151:40 0.000179383
16 *138:11 *162:28 0.000112247
17 *138:11 *173:18 0.00472109
18 *138:11 *184:16 0.00699978
19 *138:11 *201:10 0.00334763
20 *138:11 *226:10 0.000246331
21 *138:11 *303:34 0.000153004
22 *138:19 *3556:C 0
23 *138:19 *141:23 0
24 *138:19 *143:23 0.00236918
25 *138:19 *316:18 0
26 *138:19 *328:36 4.83431e-06
27 *138:19 *368:133 8.65612e-05
28 *138:19 *370:133 3.48892e-05
29 *3564:D *3585:D 2.20665e-05
30 *3583:D *457:DIODE 4.74937e-05
31 *3583:D *138:19 2.0851e-06
32 *114:19 *138:19 0.0128795
33 *116:15 *138:19 0.000416608
34 *119:15 *138:19 0.0019857
35 *123:25 *138:11 0.00177411
36 *123:25 *138:19 0.00527921
37 *124:23 *138:19 0
38 *132:11 *138:11 1.86911e-05
39 *133:11 *138:11 0.00252687
*RES
1 *3737:DO[3] *138:9 6.6275 
2 *138:9 *138:11 113.452 
3 *138:11 *138:19 29.03 
4 *138:19 *457:DIODE 7.605 
5 *138:19 *3585:D 3.79875 
*END

*D_NET *139 0.0604525
*CONN
*I *458:DIODE I *D sky130_fd_sc_hd__diode_2
*I *3586:D I *D sky130_fd_sc_hd__and4b_1
*I *3737:DO[4] O *D CF_SRAM_1024x32
*CAP
1 *458:DIODE 0
2 *3586:D 6.46417e-05
3 *3737:DO[4] 0.00168227
4 *139:43 0.00129619
5 *139:41 0.00208147
6 *139:29 0.0032639
7 *139:11 0.00474095
8 *139:9 0.00400925
9 *3586:D *3582:B 0.000182237
10 *3586:D *3586:A_N 8.33308e-05
11 *3586:D *328:16 0.000166428
12 *3586:D *328:18 9.1682e-06
13 *3586:D *370:133 9.54781e-05
14 *139:9 *3698:A 0.000303784
15 *139:9 *3737:BEN[3] 0
16 *139:9 *3737:DI[4] 0
17 *139:9 *217:8 4.78564e-05
18 *139:11 *142:11 0.000426194
19 *139:11 *188:16 0.00831319
20 *139:11 *313:10 0.000330036
21 *139:29 *3576:A_N 3.35621e-05
22 *139:29 *3581:B 0.000230702
23 *139:29 *142:19 0.00160319
24 *139:29 *281:36 0.000519209
25 *139:29 *371:153 6.72143e-05
26 *139:41 *3702:A 0.000153041
27 *139:41 *164:12 0.000596651
28 *139:41 *241:26 0.000629927
29 *139:41 *241:48 0.0027195
30 *139:41 *244:24 0.00024059
31 *139:41 *328:18 9.97536e-06
32 *139:41 *328:36 0.00197217
33 *139:41 *369:86 0.000634961
34 *139:43 *3582:B 4.66108e-05
35 *139:43 *3586:A_N 0.000107205
36 *139:43 *3702:A 0.000572607
37 *139:43 *3722:A 0.000455752
38 *139:43 *164:12 0.000357702
39 *139:43 *241:26 0.00110767
40 *139:43 *244:24 0.00136646
41 *139:43 *312:28 0.00472232
42 *139:43 *323:28 0.00100685
43 *139:43 *337:26 0.00185802
44 *139:43 *371:42 3.38425e-05
45 *430:DIODE *139:29 4.89295e-05
46 *3575:D *139:29 6.59587e-06
47 *113:11 *139:11 0.00994701
48 *120:40 *139:29 0.000309035
49 *122:21 *139:11 0.00198845
50 *123:29 *139:41 1.03833e-05
*RES
1 *3737:DO[4] *139:9 25.0325 
2 *139:9 *139:11 114.09 
3 *139:11 *139:29 29.7802 
4 *139:29 *139:41 39.865 
5 *139:41 *139:43 59.79 
6 *139:43 *3586:D 4.21375 
7 *139:43 *458:DIODE 1.6 
*END

*D_NET *140 0.0545019
*CONN
*I *459:DIODE I *D sky130_fd_sc_hd__diode_2
*I *3587:D I *D sky130_fd_sc_hd__and4b_1
*I *3737:DO[5] O *D CF_SRAM_1024x32
*CAP
1 *459:DIODE 5.09535e-05
2 *3587:D 0.00061452
3 *3737:DO[5] 0.00158878
4 *140:19 0.00110998
5 *140:15 0.00384964
6 *140:13 0.00340513
7 *140:11 0.00214635
8 *140:9 0.00373514
9 *3587:D *3556:C 0
10 *3587:D *3584:A_N 1.88656e-05
11 *3587:D *3827:A 0.000893276
12 *3587:D *315:20 1.7635e-05
13 *3587:D *366:136 0.000114486
14 *3587:D *367:52 0.000323147
15 *140:9 *3737:DI[5] 0.000178683
16 *140:9 *208:8 3.65137e-05
17 *140:11 *164:28 0.00806194
18 *140:11 *309:10 0.00806194
19 *140:15 *182:12 0.0068951
20 *140:15 *188:12 0.00708424
21 *140:15 *199:12 0.000379415
22 *140:19 *3584:A_N 1.98158e-05
23 *140:19 *3586:A_N 0.000143356
24 *140:19 *312:22 0.000261889
25 *140:19 *315:20 0.00039601
26 *457:DIODE *3587:D 7.96104e-06
27 *3564:D *3587:D 0.000116161
28 *113:43 *459:DIODE 0.000264677
29 *113:55 *459:DIODE 4.66108e-05
30 *114:19 *140:15 0.000758675
31 *116:15 *140:15 0.00256743
32 *118:39 *459:DIODE 0.000312964
33 *125:25 *140:15 0.000828035
34 *135:21 *140:19 0.000212549
*RES
1 *3737:DO[5] *140:9 20.7425 
2 *140:9 *140:11 95.73 
3 *140:11 *140:13 2 
4 *140:13 *140:15 121.2 
5 *140:15 *140:19 12.05 
6 *140:19 *3587:D 7.54765 
7 *140:19 *459:DIODE 6.465 
*END

*D_NET *141 0.0466384
*CONN
*I *3556:D I *D sky130_fd_sc_hd__and4b_1
*I *460:DIODE I *D sky130_fd_sc_hd__diode_2
*I *3737:DO[6] O *D CF_SRAM_1024x32
*CAP
1 *3556:D 0.000114752
2 *460:DIODE 9.80521e-05
3 *3737:DO[6] 0.000114796
4 *141:23 0.00115079
5 *141:15 0.00426101
6 *141:13 0.00332303
7 *141:11 0.00145293
8 *141:9 0.00156773
9 *460:DIODE *333:32 1.47256e-05
10 *460:DIODE *365:28 1.72766e-05
11 *460:DIODE *370:90 8.7152e-06
12 *3556:D *3556:B 2.75229e-05
13 *3556:D *3826:A 1.67131e-05
14 *3556:D *317:30 3.70211e-05
15 *141:9 *3737:BEN[5] 0
16 *141:9 *3737:DI[6] 0
17 *141:11 *3737:BEN[14] 0.00066599
18 *141:11 *146:28 0.00622692
19 *141:11 *151:42 2.05661e-05
20 *141:11 *199:22 0.00125046
21 *141:11 *199:24 0.00627142
22 *141:11 *241:48 1.79483e-05
23 *141:15 *173:16 0.0047224
24 *141:23 *3556:C 0.000101784
25 *141:23 *316:18 0.000341088
26 *141:23 *365:28 1.23015e-05
27 *141:23 *368:116 3.0243e-05
28 *141:23 *370:90 4.09813e-05
29 *141:23 *370:103 0.000203962
30 *3588:RESET_B *460:DIODE 5.83121e-06
31 *124:15 *141:15 0.0120276
32 *127:25 *141:15 0.000633757
33 *130:25 *141:11 0.00155778
34 *131:31 *141:11 1.01276e-05
35 *135:9 *141:11 0.000292198
36 *138:19 *141:23 0
*RES
1 *3737:DO[6] *141:9 3.6575 
2 *141:9 *141:11 84.765 
3 *141:11 *141:13 2 
4 *141:13 *141:15 114.645 
5 *141:15 *141:23 18.47 
6 *141:23 *460:DIODE 4.92 
7 *141:23 *3556:D 5.29875 
*END

*D_NET *142 0.0634457
*CONN
*I *3557:D I *D sky130_fd_sc_hd__and4b_1
*I *462:DIODE I *D sky130_fd_sc_hd__diode_2
*I *3737:DO[7] O *D CF_SRAM_1024x32
*CAP
1 *3557:D 6.15343e-05
2 *462:DIODE 0.000215661
3 *3737:DO[7] 0.00173634
4 *142:19 0.0083324
5 *142:11 0.00983366
6 *142:9 0.00351479
7 *462:DIODE *3809:A 5.63295e-05
8 *462:DIODE *3828:A 6.59906e-05
9 *462:DIODE *368:88 6.45244e-05
10 *462:DIODE *368:103 1.67712e-05
11 *3557:D *3556:A_N 1.88595e-05
12 *3557:D *3557:B 2.05864e-05
13 *3557:D *3828:A 9.80863e-05
14 *3557:D *366:129 1.44259e-05
15 *142:9 *3672:A 0.000153816
16 *142:9 *3737:DI[7] 0.000214302
17 *142:9 *190:8 0.000155016
18 *142:11 *188:16 0.0069898
19 *142:11 *313:10 0.00783379
20 *142:19 *3645:A 0.000101392
21 *142:19 *3713:A 0.00168118
22 *142:19 *3827:A 0.00105247
23 *142:19 *3828:A 0.0024858
24 *142:19 *145:73 0.00555486
25 *142:19 *181:24 0.000156708
26 *142:19 *318:16 0.000289076
27 *142:19 *367:52 0.000411313
28 *142:19 *367:84 0.000652797
29 *142:19 *368:103 0.000116957
30 *142:19 *369:124 0.000132277
31 *3564:D *3557:D 2.05864e-05
32 *3621:A *462:DIODE 0.000119022
33 *113:11 *142:11 2.10676e-05
34 *113:43 *142:19 0.000143637
35 *118:39 *142:19 0.000349496
36 *122:21 *142:11 0.000967339
37 *122:29 *142:19 0.0077637
38 *139:11 *142:11 0.000426194
39 *139:29 *142:19 0.00160319
*RES
1 *3737:DO[7] *142:9 25.9775 
2 *142:9 *142:11 89.7375 
3 *142:11 *142:19 24.2095 
4 *142:19 *462:DIODE 5.87857 
5 *142:19 *3557:D 5.55125 
*END

*D_NET *143 0.0573093
*CONN
*I *464:DIODE I *D sky130_fd_sc_hd__diode_2
*I *3558:D I *D sky130_fd_sc_hd__and4b_1
*I *463:DIODE I *D sky130_fd_sc_hd__diode_2
*I *3737:DO[8] O *D CF_SRAM_1024x32
*CAP
1 *464:DIODE 0
2 *3558:D 0.000109179
3 *463:DIODE 0.000112597
4 *3737:DO[8] 0.00194251
5 *143:31 0.000446888
6 *143:27 0.000471863
7 *143:23 0.00210766
8 *143:21 0.0025441
9 *143:15 0.00202792
10 *143:13 0.00328724
11 *463:DIODE *3562:B 3.57349e-05
12 *463:DIODE *368:63 0.000234674
13 *463:DIODE *370:38 0.000192125
14 *3558:D *3558:A_N 0
15 *3558:D *3558:B 2.30292e-05
16 *3558:D *3828:A 3.21081e-06
17 *3558:D *366:103 7.35298e-05
18 *3558:D *368:63 0.000120655
19 *143:13 *3685:A 0.000366728
20 *143:13 *3737:DI[8] 0
21 *143:13 *304:16 0.000410018
22 *143:15 *153:18 0.00460544
23 *143:15 *304:16 0.00497244
24 *143:21 *144:15 0.000282842
25 *143:21 *188:12 2.44873e-05
26 *143:27 *144:19 0
27 *143:27 *371:23 3.09164e-05
28 *143:31 *3560:B 8.65612e-05
29 *143:31 *3560:C 1.51915e-05
30 *143:31 *144:19 0
31 *143:31 *170:28 1.37596e-05
32 *143:31 *332:38 1.41983e-05
33 *143:31 *368:67 7.14892e-06
34 *143:31 *371:23 5.05223e-05
35 *3560:D *143:27 1.73877e-05
36 *3560:D *143:31 5.99608e-05
37 *3564:D *463:DIODE 0.000492549
38 *3564:D *3558:D 3.66286e-05
39 *114:19 *143:23 0.000148924
40 *114:19 *143:27 0.000110082
41 *116:15 *143:21 0.00022891
42 *116:15 *143:23 0.0135333
43 *117:15 *143:21 0.000892849
44 *117:15 *143:23 5.68717e-05
45 *119:15 *143:23 0.013421
46 *136:13 *143:13 0.00113415
47 *136:13 *143:15 0.000194358
48 *138:19 *143:23 0.00236918
*RES
1 *3737:DO[8] *143:13 33.335 
2 *143:13 *143:15 59.0625 
3 *143:15 *143:21 15.575 
4 *143:21 *143:23 123.27 
5 *143:23 *143:27 6.695 
6 *143:27 *143:31 5.93 
7 *143:31 *463:DIODE 6.19 
8 *143:31 *3558:D 4.51375 
9 *143:27 *464:DIODE 3.6 
*END

*D_NET *144 0.0545882
*CONN
*I *3559:D I *D sky130_fd_sc_hd__and4b_1
*I *465:DIODE I *D sky130_fd_sc_hd__diode_2
*I *3737:DO[9] O *D CF_SRAM_1024x32
*CAP
1 *3559:D 7.28897e-06
2 *465:DIODE 0.000353784
3 *3737:DO[9] 0.00165994
4 *144:19 0.0010928
5 *144:15 0.00518267
6 *144:13 0.00445094
7 *144:11 0.00128244
8 *144:9 0.00294239
9 *465:DIODE *3809:A 1.7635e-05
10 *465:DIODE *334:32 6.87407e-05
11 *3559:D *317:30 1.10377e-05
12 *3559:D *370:90 2.05864e-05
13 *144:9 *3685:A 6.5172e-05
14 *144:9 *3713:A 0.000191226
15 *144:9 *3737:BEN[8] 0
16 *144:9 *3737:DI[9] 0
17 *144:9 *221:8 5.50615e-05
18 *144:9 *226:8 9.3169e-05
19 *144:9 *232:8 1.33293e-05
20 *144:11 *145:79 0
21 *144:11 *182:16 0.00551862
22 *144:19 *3559:C 7.11439e-05
23 *144:19 *3560:C 6.59891e-05
24 *144:19 *3809:A 6.41227e-05
25 *144:19 *332:38 0.000149712
26 *144:19 *368:67 7.91885e-05
27 *3561:D *465:DIODE 0
28 *3588:RESET_B *465:DIODE 0.000118379
29 *110:14 *144:15 0.00762606
30 *114:19 *144:15 0.00211244
31 *117:15 *144:15 0.0142646
32 *122:21 *144:11 0.00103174
33 *137:13 *144:11 0.00526161
34 *137:15 *144:11 0.000179922
35 *137:17 *144:11 0.000177561
36 *137:19 *144:11 7.61149e-05
37 *143:21 *144:15 0.000282842
38 *143:27 *144:19 0
39 *143:31 *144:19 0
*RES
1 *3737:DO[9] *144:9 24.2225 
2 *144:9 *144:11 65.13 
3 *144:11 *144:13 2 
4 *144:13 *144:15 140.52 
5 *144:15 *144:19 12.305 
6 *144:19 *465:DIODE 8.505 
7 *144:19 *3559:D 3.79875 
*END

*D_NET *145 0.0625106
*CONN
*I *3737:EN I *D CF_SRAM_1024x32
*I *3588:D I *D sky130_fd_sc_hd__dfrtp_1
*I *3555:X O *D sky130_fd_sc_hd__and2_4
*CAP
1 *3737:EN 0.00148273
2 *3588:D 0.00106053
3 *3555:X 0
4 *145:79 0.00994205
5 *145:77 0.0107607
6 *145:73 0.00800606
7 *145:4 0.00676524
8 *3588:D *3781:A 0
9 *3588:D *3820:A 8.85076e-05
10 *3588:D *3824:A 0.000191052
11 *3588:D *3825:A 0.000153816
12 *3588:D *181:24 0.000533416
13 *3588:D *317:32 7.36599e-05
14 *3588:D *367:52 0.000165928
15 *3588:D *369:35 0.000253301
16 *3737:EN *3737:WLOFF 7.31126e-05
17 *3737:EN *3737:R_WB 0
18 *145:73 *3568:B 3.6355e-05
19 *145:73 *3713:A 0.000730063
20 *145:73 *3805:A 0.000473854
21 *145:73 *258:14 0.000160538
22 *145:73 *304:14 2.66861e-05
23 *145:73 *332:38 6.63219e-06
24 *145:73 *350:54 0
25 *145:73 *367:68 8.49205e-05
26 *145:73 *367:103 0.000148458
27 *145:73 *367:146 0.000237301
28 *145:73 *367:159 5.05437e-05
29 *145:73 *369:51 2.01565e-05
30 *145:73 *369:58 1.91597e-05
31 *145:73 *371:69 0.000487527
32 *145:73 *371:76 0.000605641
33 *145:73 *371:132 0.000467962
34 *145:77 *3816:A 0.000446515
35 *145:77 *304:14 0.00125377
36 *145:79 *3581:A_N 0
37 *145:79 *3581:B 0.000130249
38 *145:79 *164:28 0
39 *145:79 *179:14 0
40 *145:79 *182:16 0
41 *145:79 *310:8 0.00621973
42 *393:DIODE *145:73 4.67939e-05
43 *3567:D *145:73 0.000173613
44 *113:31 *145:73 0.000110612
45 *113:43 *3588:D 0.000837957
46 *118:39 *3588:D 0.00144737
47 *122:21 *145:79 0.00186471
48 *122:29 *145:73 0.00129975
49 *124:23 *3588:D 7.9642e-06
50 *128:19 *145:73 1.08723e-05
51 *137:13 *145:79 0
52 *137:19 *145:79 0
53 *137:21 *145:79 0
54 *137:23 *145:79 0
55 *137:40 *145:79 0
56 *137:42 *145:79 0
57 *142:19 *145:73 0.00555486
58 *144:11 *145:79 0
*RES
1 *3555:X *145:4 1.6 
2 *145:4 *3588:D 34.65 
3 *145:4 *145:73 44.7668 
4 *145:73 *145:77 30.395 
5 *145:77 *145:79 170.445 
6 *145:79 *3737:EN 21.9463 
*END

*D_NET *146 0.0548434
*CONN
*I *3737:R_WB I *D CF_SRAM_1024x32
*I *3553:Y O *D sky130_fd_sc_hd__clkinv_4
*CAP
1 *3737:R_WB 0.000110943
2 *3553:Y 0.00615794
3 *146:28 0.00298902
4 *146:26 0.00903602
5 *3737:R_WB *3737:AD[0] 0
6 *3737:R_WB *3737:WLOFF 0
7 *146:26 *3654:A 0.000308106
8 *146:26 *3665:A 0.000717423
9 *146:26 *3669:A 0.000284372
10 *146:26 *3702:A 0
11 *146:26 *3737:DI[14] 0.00153902
12 *146:26 *151:40 0
13 *146:26 *153:12 0.000126737
14 *146:26 *157:16 0.00123689
15 *146:26 *162:24 0.000130489
16 *146:26 *170:47 0.00047385
17 *146:26 *171:16 0.000141085
18 *146:26 *184:16 0.00121755
19 *146:26 *186:16 0.000228129
20 *146:26 *199:22 5.83121e-06
21 *146:26 *300:12 0.000130797
22 *146:26 *303:34 0.000154353
23 *146:26 *316:20 0.000298726
24 *146:26 *329:77 0.000233267
25 *146:26 *339:48 0.000201401
26 *146:28 *3737:BEN[0] 0.000248289
27 *146:28 *3737:BEN[1] 0.000742374
28 *146:28 *151:42 0.00906672
29 *146:28 *195:26 0.00310571
30 *146:28 *199:24 0.000245549
31 *146:28 *244:82 0.000563976
32 *146:28 *244:94 0.000681317
33 *146:28 *244:106 0.000740019
34 *3737:EN *3737:R_WB 0
35 *114:19 *146:26 0.00296368
36 *119:13 *146:26 7.39534e-05
37 *124:11 *146:26 1.97442e-05
38 *124:11 *146:28 2.05661e-05
39 *125:25 *146:26 0.000169048
40 *126:25 *146:28 0.00286243
41 *129:15 *146:26 0.000184366
42 *130:25 *146:26 0.0010531
43 *132:19 *146:26 5.83121e-06
44 *138:11 *146:26 0.00014789
45 *141:11 *146:28 0.00622692
*RES
1 *3553:Y *146:26 45.8259 
2 *146:26 *146:28 137.55 
3 *146:28 *3737:R_WB 3.83 
*END

*D_NET *147 0.00460408
*CONN
*I *3554:A I *D sky130_fd_sc_hd__inv_2
*I *3747:X O *D sky130_fd_sc_hd__buf_1
*CAP
1 *3554:A 0.00168071
2 *3747:X 0.00168071
3 *3554:A *3717:A 2.60986e-05
4 *3554:A *3775:A 0.000239813
5 *3554:A *3798:A 0
6 *3554:A *329:26 0.000248151
7 wbs_ack_o *3554:A 7.98062e-05
8 *3625:A *3554:A 0
9 *3727:A *3554:A 0
10 *3730:A *3554:A 0.000648797
11 *3733:A *3554:A 0
*RES
1 *3747:X *3554:A 29.97 
*END

*D_NET *148 0.0468654
*CONN
*I *3702:A I *D sky130_fd_sc_hd__dlygate4sd3_1
*I *3748:X O *D sky130_fd_sc_hd__buf_4
*CAP
1 *3702:A 0.015854
2 *3748:X 0.015854
3 *3702:A *3705:A 0.00653458
4 *3702:A *3748:A 1.56477e-05
5 *3702:A *3828:A 4.29731e-05
6 *3702:A *151:16 0.000255063
7 *3702:A *164:12 0.000540748
8 *3702:A *170:47 0.000783989
9 *3702:A *177:12 0.000130266
10 *3702:A *241:26 0.00013827
11 *3702:A *241:48 0.000165928
12 *3702:A *301:38 0.00136723
13 *3702:A *305:10 6.21133e-05
14 *3702:A *312:28 0.000341074
15 *3702:A *315:40 0.000132382
16 *3702:A *319:12 6.80069e-05
17 *3702:A *327:57 0.000138151
18 *3702:A *329:53 0.000199723
19 *3702:A *329:61 0.000130519
20 *3702:A *329:77 0.00127962
21 *3702:A *332:38 0.000143059
22 *3702:A *350:54 0.000665601
23 *3702:A *371:42 0.000135187
24 *113:43 *3702:A 6.56368e-05
25 *114:19 *3702:A 0
26 *134:11 *3702:A 0.00109603
27 *139:41 *3702:A 0.000153041
28 *139:43 *3702:A 0.000572607
29 *146:26 *3702:A 0
*RES
1 *3748:X *3702:A 46.9204 
*END

*D_NET *149 0.0119263
*CONN
*I *3737:DI[15] I *D CF_SRAM_1024x32
*I *3649:X O *D sky130_fd_sc_hd__dlygate4sd3_1
*CAP
1 *3737:DI[15] 0.00093431
2 *3649:X 0.00218423
3 *149:14 0.00311854
4 *3737:DI[15] *3737:DI[13] 0.000958755
5 *3737:DI[15] *244:32 0
6 *110:14 *149:14 0.00308288
7 *114:19 *149:14 0.000350294
8 *116:11 *3737:DI[15] 5.3325e-05
9 *119:13 *3737:DI[15] 0
10 *127:27 *149:14 0
11 *128:19 *149:14 0
12 *129:11 *3737:DI[15] 0.00124396
*RES
1 *3649:X *149:14 37.63 
2 *149:14 *3737:DI[15] 23.9975 
*END

*D_NET *150 0.00235144
*CONN
*I *3775:A I *D sky130_fd_sc_hd__buf_4
*I *3660:X O *D sky130_fd_sc_hd__dlygate4sd3_1
*CAP
1 *3775:A 0.000728696
2 *3660:X 0.000728696
3 *3775:A *3660:A 0.000308719
4 *3775:A *3717:A 1.34503e-05
5 *3775:A *3751:A 8.8266e-05
6 *3775:A *3780:A 0.000175848
7 *3775:A *3787:A 0
8 *3775:A *3791:A 0
9 *3775:A *329:26 1.19928e-05
10 *3554:A *3775:A 0.000239813
11 *3642:A *3775:A 6.77517e-06
12 *3723:A *3775:A 4.91849e-05
*RES
1 *3660:X *3775:A 20.835 
*END

*D_NET *151 0.0455839
*CONN
*I *3737:DI[2] I *D CF_SRAM_1024x32
*I *3671:X O *D sky130_fd_sc_hd__dlygate4sd3_1
*CAP
1 *3737:DI[2] 0.000135766
2 *3671:X 0.00265375
3 *151:42 0.00185682
4 *151:40 0.00234694
5 *151:32 0.00273271
6 *151:16 0.00476057
7 *3737:DI[2] *195:24 5.83121e-06
8 *151:16 *467:DIODE 0.000201503
9 *151:16 *3693:A 0
10 *151:16 *170:69 0.000581981
11 *151:16 *219:16 0.000286327
12 *151:16 *315:42 4.99619e-05
13 *151:16 *327:57 8.53113e-06
14 *151:16 *329:77 0.00383832
15 *151:32 *164:26 0.00029792
16 *151:32 *170:85 2.71836e-05
17 *151:32 *219:36 0.00103441
18 *151:32 *317:42 0.00020596
19 *151:32 *327:61 0.000428394
20 *151:32 *329:77 1.87328e-05
21 *151:40 *162:24 0.000169048
22 *151:40 *173:18 0.00102664
23 *151:42 *199:22 0.000261714
24 *407:DIODE *151:32 8.41307e-05
25 *3702:A *151:16 0.000255063
26 *119:13 *151:40 5.83121e-06
27 *124:11 *151:42 0.0093644
28 *126:25 *151:42 0.00212315
29 *128:11 *151:40 0.00131671
30 *129:21 *151:32 3.55989e-05
31 *132:25 *151:32 0.000100902
32 *132:25 *151:40 7.49985e-05
33 *135:7 *3737:DI[2] 2.74511e-05
34 *138:11 *151:40 0.000179383
35 *141:11 *151:42 2.05661e-05
36 *146:26 *151:40 0
37 *146:28 *151:42 0.00906672
*RES
1 *3671:X *151:16 48.7 
2 *151:16 *151:32 32.9575 
3 *151:32 *151:40 23.5825 
4 *151:40 *151:42 105.42 
5 *151:42 *3737:DI[2] 4.1225 
*END

*D_NET *152 0.0005842
*CONN
*I *3752:A I *D sky130_fd_sc_hd__clkbuf_4
*I *3682:X O *D sky130_fd_sc_hd__dlygate4sd3_1
*CAP
1 *3752:A 0.00014024
2 *3682:X 0.00014024
3 *3752:A *3682:A 0
4 *3752:A *3693:A 3.74359e-05
5 *3752:A *323:28 0
6 *3603:A *3752:A 0.000107325
7 *111:14 *3752:A 0.00015896
*RES
1 *3682:X *3752:A 10.32 
*END

*D_NET *153 0.0268016
*CONN
*I *3737:DI[10] I *D CF_SRAM_1024x32
*I *3693:X O *D sky130_fd_sc_hd__dlygate4sd3_1
*CAP
1 *3737:DI[10] 0.0013627
2 *3693:X 0.00138681
3 *153:18 0.00267044
4 *153:16 0.00256799
5 *153:12 0.00264707
6 *3737:DI[10] *3737:BEN[10] 0
7 *153:12 *3647:A 0.000197826
8 *153:12 *3649:A 0.00027318
9 *153:12 *162:24 0.000755512
10 *153:12 *171:16 2.54431e-05
11 *153:12 *186:16 0.00360324
12 *153:12 *203:14 4.99619e-05
13 *153:16 *186:16 0.00120122
14 *153:16 *292:16 8.26988e-05
15 *153:16 *301:36 7.35651e-05
16 *153:18 *304:16 0.000138113
17 *400:DIODE *153:12 8.46717e-05
18 *114:9 *3737:DI[10] 0
19 *129:105 *153:12 8.6076e-05
20 *136:13 *153:18 0.00486289
21 *143:15 *153:18 0.00460544
22 *146:26 *153:12 0.000126737
*RES
1 *3693:X *153:12 38.32 
2 *153:12 *153:16 17.975 
3 *153:16 *153:18 57.735 
4 *153:18 *3737:DI[10] 19.8725 
*END

*D_NET *154 0.00109533
*CONN
*I *3772:A I *D sky130_fd_sc_hd__buf_4
*I *3704:X O *D sky130_fd_sc_hd__dlygate4sd3_1
*CAP
1 *3772:A 0.000218186
2 *3704:X 0.000218186
3 *3772:A *3704:A 0.000120584
4 *3772:A *3770:A 0.000107602
5 wbs_dat_o[28] *3772:A 3.09179e-05
6 *442:DIODE *3772:A 2.2684e-05
7 *3624:A *3772:A 0.000348699
8 *134:43 *3772:A 2.84757e-05
*RES
1 *3704:X *3772:A 12.48 
*END

*D_NET *155 0.0271066
*CONN
*I *3737:DI[27] I *D CF_SRAM_1024x32
*I *3715:X O *D sky130_fd_sc_hd__dlygate4sd3_1
*CAP
1 *3737:DI[27] 0.000261513
2 *3715:X 0.000404936
3 *155:10 0.00342488
4 *155:8 0.0035683
5 *3737:DI[27] *3737:BEN[27] 0
6 *155:8 *195:24 0.000101769
7 *155:10 *201:10 0.00397165
8 *123:25 *155:10 0.00124521
9 *128:11 *155:10 0.0020913
10 *131:11 *155:10 0
11 *132:9 *3737:DI[27] 0
12 *133:11 *155:10 0.0120371
*RES
1 *3715:X *155:8 8.88 
2 *155:8 *155:10 135.255 
3 *155:10 *3737:DI[27] 6.05 
*END

*D_NET *156 0.00077604
*CONN
*I *3763:A I *D sky130_fd_sc_hd__buf_4
*I *3726:X O *D sky130_fd_sc_hd__dlygate4sd3_1
*CAP
1 *3763:A 0.00032649
2 *3726:X 0.00032649
3 *3763:A *3644:A 0
4 *3763:A *3724:A 0
5 *3763:A *170:28 0.00012306
6 *3790:A *3763:A 0
*RES
1 *3726:X *3763:A 12.015 
*END

*D_NET *157 0.0467391
*CONN
*I *3737:DI[1] I *D CF_SRAM_1024x32
*I *3600:X O *D sky130_fd_sc_hd__dlygate4sd3_1
*CAP
1 *3737:DI[1] 0.000262087
2 *3600:X 0.000488051
3 *157:16 0.00225078
4 *157:14 0.0019887
5 *157:12 0.00161083
6 *157:10 0.00209888
7 *3737:DI[1] *3737:BEN[0] 0
8 *157:12 *3737:vpwrpc 0.000368752
9 *157:12 *173:16 1.16854e-05
10 *157:12 *184:12 0.00520636
11 *157:16 *184:16 2.05661e-05
12 *124:9 *3737:DI[1] 0
13 *124:11 *157:16 0.010939
14 *124:15 *157:12 9.96309e-05
15 *127:25 *157:12 0.00024369
16 *127:25 *157:16 0.00247761
17 *132:11 *157:16 0.0096661
18 *135:13 *157:12 0.00776955
19 *146:26 *157:16 0.00123689
*RES
1 *3600:X *157:10 13.1 
2 *157:10 *157:12 72.555 
3 *157:12 *157:14 2 
4 *157:14 *157:16 123.015 
5 *157:16 *3737:DI[1] 5.9525 
*END

*D_NET *158 0.000659178
*CONN
*I *3773:A I *D sky130_fd_sc_hd__buf_4
*I *3611:X O *D sky130_fd_sc_hd__dlygate4sd3_1
*CAP
1 *3773:A 0.000181804
2 *3611:X 0.000181804
3 *3773:A *309:10 0.000136415
4 *121:32 *3773:A 0.000159156
*RES
1 *3611:X *3773:A 10.32 
*END

*D_NET *159 0.0399856
*CONN
*I *3696:A I *D sky130_fd_sc_hd__dlygate4sd3_1
*I *3749:X O *D sky130_fd_sc_hd__buf_4
*CAP
1 *3696:A 0
2 *3749:X 0.000838282
3 *159:46 0.0013631
4 *159:44 0.00328433
5 *159:36 0.0033824
6 *159:12 0.00293203
7 *159:8 0.00230914
8 *159:8 *3633:A 0.00016031
9 *159:8 *3673:A 4.89295e-05
10 *159:8 *3686:A 0.000163199
11 *159:8 *3749:A 4.82863e-05
12 *159:8 *3800:A 0.000312583
13 *159:8 *323:28 0.00110956
14 *159:8 *324:16 0.000386198
15 *159:12 *3599:A 4.82919e-05
16 *159:12 *3646:A 1.71773e-05
17 *159:12 *3649:A 0.00051531
18 *159:12 *3651:A 0.000196566
19 *159:12 *3658:A 0.00212588
20 *159:12 *3675:A 0.000378508
21 *159:12 *3677:A 0.000118081
22 *159:12 *3754:A 4.99619e-05
23 *159:12 *3757:A 4.99619e-05
24 *159:12 *3761:A 4.41506e-05
25 *159:12 *3764:A 5.30673e-05
26 *159:12 *270:28 0.000698127
27 *159:12 *281:26 0.00135014
28 *159:12 *301:32 0.000278111
29 *159:12 *302:8 4.82863e-05
30 *159:12 *324:16 0.000375547
31 *159:36 *3765:A 6.59891e-05
32 *159:36 *270:28 0.000991079
33 *159:36 *292:10 0.000418073
34 *159:36 *301:32 0.000958348
35 *159:44 *173:16 2.8185e-05
36 *159:44 *177:22 0.000152496
37 *159:44 *259:26 0.00149737
38 *159:44 *270:36 0.000210965
39 *159:44 *303:24 0.00188511
40 *159:44 *317:42 4.65773e-06
41 *159:44 *328:36 0
42 *159:46 *164:28 0.00516781
43 wbs_dat_o[25] *159:44 2.97004e-06
44 *416:DIODE *159:44 6.86726e-05
45 *441:DIODE *159:44 4.03618e-05
46 *3614:A *159:36 0
47 *3619:A *159:36 0
48 *3632:A *159:8 0.000158072
49 *3735:A *159:12 4.82919e-05
50 *120:40 *159:44 0.000104331
51 *131:56 *159:44 4.92803e-05
52 *131:60 *159:44 1.26595e-05
53 *131:66 *159:44 9.59829e-05
54 *131:68 *159:44 0.000171549
55 *136:13 *159:46 0.00516781
*RES
1 *3749:X *159:8 21.8125 
2 *159:8 *159:12 49.1975 
3 *159:12 *159:36 34.05 
4 *159:36 *159:44 43.93 
5 *159:44 *159:46 61.305 
6 *159:46 *3696:A 3.6 
*END

*D_NET *160 0.0218517
*CONN
*I *3737:DI[28] I *D CF_SRAM_1024x32
*I *3622:X O *D sky130_fd_sc_hd__dlygate4sd3_1
*CAP
1 *3737:DI[28] 0.00077998
2 *3622:X 0.000180854
3 *160:16 0.00453499
4 *160:14 0.0037798
5 *160:12 0.00201187
6 *160:10 0.00216794
7 *3737:DI[28] *3737:BEN[28] 0.000366166
8 *160:10 *3737:vpwrac 0.000139074
9 *160:10 *237:16 0.000598181
10 *160:10 *239:8 0.000333473
11 *160:12 *3737:vpwrac 0.000336261
12 *160:12 *217:10 0.000957559
13 *160:12 *230:10 0
14 *160:12 *237:16 0.00111163
15 *160:12 *239:8 0.00195418
16 *160:16 *168:10 0
17 *160:16 *217:10 0.00234525
18 *160:16 *228:10 0.00025449
19 *160:16 *230:10 0
20 *133:9 *3737:DI[28] 0
*RES
1 *3622:X *160:10 10.8675 
2 *160:10 *160:12 51.855 
3 *160:12 *160:14 0.45 
4 *160:14 *160:16 77.0475 
5 *160:16 *3737:DI[28] 18.975 
*END

*D_NET *161 0.000610999
*CONN
*I *3785:A I *D sky130_fd_sc_hd__clkbuf_4
*I *3633:X O *D sky130_fd_sc_hd__dlygate4sd3_1
*CAP
1 *3785:A 0.000150968
2 *3633:X 0.000150968
3 *3785:A *3758:A 0.000136737
4 *3785:A *258:12 0.000151873
5 *3785:A *350:26 2.04531e-05
*RES
1 *3633:X *3785:A 10.365 
*END

*D_NET *162 0.0252037
*CONN
*I *3737:DI[9] I *D CF_SRAM_1024x32
*I *3643:X O *D sky130_fd_sc_hd__dlygate4sd3_1
*CAP
1 *3737:DI[9] 0.00043297
2 *3643:X 0.00244832
3 *162:28 0.00124062
4 *162:24 0.00325597
5 *3737:DI[9] *226:8 2.65814e-06
6 *162:24 *3647:A 0.000197826
7 *162:24 *3649:A 0.00027318
8 *162:24 *3737:vpwrpc 6.84698e-05
9 *162:24 *170:69 0.00015639
10 *162:24 *171:16 0.00107024
11 *162:24 *177:12 0.000457303
12 *162:24 *203:14 0.000353317
13 *162:24 *241:48 0.00146753
14 *162:24 *350:54 7.10991e-06
15 *162:28 *3737:DI[8] 0.000224791
16 *162:28 *173:18 0.00366772
17 *118:15 *162:24 0.00247396
18 *118:19 *162:24 0.000468155
19 *123:25 *162:24 0.00121469
20 *126:25 *162:24 9.70043e-06
21 *127:25 *162:24 0.000450415
22 *128:11 *162:28 0.00409503
23 *138:11 *162:28 0.000112247
24 *144:9 *3737:DI[9] 0
25 *146:26 *162:24 0.000130489
26 *151:40 *162:24 0.000169048
27 *153:12 *162:24 0.000755512
*RES
1 *3643:X *162:24 37.4904 
2 *162:24 *162:28 48.3875 
3 *162:28 *3737:DI[9] 6.0675 
*END

*D_NET *163 0.00164692
*CONN
*I *3751:A I *D sky130_fd_sc_hd__buf_4
*I *3644:X O *D sky130_fd_sc_hd__dlygate4sd3_1
*CAP
1 *3751:A 0.000537565
2 *3644:X 0.000537565
3 *3751:A *3644:A 0.00020275
4 *3751:A *3660:A 0.000134424
5 *3751:A *3717:A 7.11235e-06
6 *3751:A *3728:A 0.000139238
7 *3775:A *3751:A 8.8266e-05
*RES
1 *3644:X *3751:A 15.15 
*END

*D_NET *164 0.0503746
*CONN
*I *3737:DI[0] I *D CF_SRAM_1024x32
*I *3645:X O *D sky130_fd_sc_hd__dlygate4sd3_1
*CAP
1 *3737:DI[0] 0.00124706
2 *3645:X 6.38023e-05
3 *164:28 0.00523629
4 *164:26 0.00517126
5 *164:12 0.00618438
6 *164:10 0.00506615
7 *3737:DI[0] *3737:ScanInDL 0.00052646
8 *164:10 *3645:A 0
9 *164:12 *3816:A 0.00026784
10 *164:12 *219:36 4.37516e-05
11 *164:12 *241:26 0.00115507
12 *164:12 *241:48 0.00271666
13 *164:12 *312:28 0.000801139
14 *164:12 *328:36 0.000648204
15 *164:26 *3581:A_N 2.65814e-06
16 *164:26 *219:36 8.84215e-05
17 *164:26 *327:61 0.000813862
18 *164:26 *339:48 0.000174692
19 *164:28 *179:14 2.97746e-05
20 *164:28 *309:10 0.00129399
21 *3702:A *164:12 0.000540748
22 *111:14 *164:10 0
23 *113:9 *3737:DI[0] 8.0431e-05
24 *131:45 *164:12 2.57121e-05
25 *132:33 *164:26 4.18603e-06
26 *132:35 *164:26 5.43089e-05
27 *132:37 *164:26 1.02348e-05
28 *136:13 *164:28 0.00364546
29 *139:41 *164:12 0.000596651
30 *139:43 *164:12 0.000357702
31 *140:11 *164:28 0.00806194
32 *145:79 *164:28 0
33 *151:32 *164:26 0.00029792
34 *159:46 *164:28 0.00516781
*RES
1 *3645:X *164:10 6.47 
2 *164:10 *164:12 68.415 
3 *164:12 *164:26 25.62 
4 *164:26 *164:28 140.865 
5 *164:28 *3737:DI[0] 20.5475 
*END

*D_NET *165 0.00156072
*CONN
*I *3756:A I *D sky130_fd_sc_hd__buf_2
*I *3646:X O *D sky130_fd_sc_hd__dlygate4sd3_1
*CAP
1 *3756:A 0.000192049
2 *3646:X 0.000192049
3 *3756:A *3646:A 0.000200615
4 *3756:A *3802:A 2.99518e-06
5 *3756:A *325:26 1.60203e-05
6 wbs_dat_o[13] *3756:A 0.000274659
7 wbs_dat_o[14] *3756:A 0.000182089
8 *3735:A *3756:A 0
9 *115:39 *3756:A 0.000500245
*RES
1 *3646:X *3756:A 14.19 
*END

*D_NET *166 0.0130857
*CONN
*I *3737:DI[14] I *D CF_SRAM_1024x32
*I *3647:X O *D sky130_fd_sc_hd__dlygate4sd3_1
*CAP
1 *3737:DI[14] 0.00377083
2 *3647:X 0.00377083
3 *3737:DI[14] *3737:DI[13] 1.79536e-05
4 *3737:DI[14] *186:16 0.00113755
5 *3737:DI[14] *241:84 9.29513e-05
6 *3737:DI[14] *350:54 0.00145277
7 *114:19 *3737:DI[14] 0.000859849
8 *118:15 *3737:DI[14] 7.3707e-05
9 *129:11 *3737:DI[14] 1.79536e-05
10 *129:19 *3737:DI[14] 3.59531e-06
11 *130:25 *3737:DI[14] 0.000348741
12 *146:26 *3737:DI[14] 0.00153902
*RES
1 *3647:X *3737:DI[14] 33.423 
*END

*D_NET *167 0.00105127
*CONN
*I *3774:A I *D sky130_fd_sc_hd__buf_4
*I *3648:X O *D sky130_fd_sc_hd__dlygate4sd3_1
*CAP
1 *3774:A 0.000333643
2 *3648:X 0.000333643
3 *3774:A *3655:A 2.97897e-05
4 *3774:A *3821:A 1.16664e-05
5 *3774:A *313:8 0.000342525
*RES
1 *3648:X *3774:A 11.79 
*END

*D_NET *168 0.0229468
*CONN
*I *3737:DI[29] I *D CF_SRAM_1024x32
*I *3650:X O *D sky130_fd_sc_hd__dlygate4sd3_1
*CAP
1 *3737:DI[29] 0.000592567
2 *3650:X 4.54724e-05
3 *168:10 0.00545505
4 *168:8 0.00490796
5 *168:10 *3737:vpwrpc 0.000336147
6 *168:10 *175:8 0
7 *168:10 *193:16 0.00113451
8 *168:10 *215:16 0.00134555
9 *168:10 *230:10 0.00502788
10 *168:10 *248:10 0.00135053
11 *168:10 *251:8 0.00233122
12 *134:9 *3737:DI[29] 0.000419905
13 *160:16 *168:10 0
*RES
1 *3650:X *168:8 4.05 
2 *168:8 *168:10 142.65 
3 *168:10 *3737:DI[29] 14.24 
*END

*D_NET *169 0.000295444
*CONN
*I *3755:A I *D sky130_fd_sc_hd__buf_2
*I *3651:X O *D sky130_fd_sc_hd__dlygate4sd3_1
*CAP
1 *3755:A 5.90832e-05
2 *3651:X 5.90832e-05
3 *3755:A *3651:A 6.84448e-05
4 *3755:A *3804:A 0.000108833
*RES
1 *3651:X *3755:A 8.58 
*END

*D_NET *170 0.0428855
*CONN
*I *3580:B I *D sky130_fd_sc_hd__and4b_1
*I *3581:B I *D sky130_fd_sc_hd__and4b_1
*I *3579:B I *D sky130_fd_sc_hd__and4b_1
*I *3578:B I *D sky130_fd_sc_hd__and4b_1
*I *3598:A I *D sky130_fd_sc_hd__clkbuf_4
*I *3750:X O *D sky130_fd_sc_hd__buf_2
*CAP
1 *3580:B 0
2 *3581:B 0.000396835
3 *3579:B 0
4 *3578:B 0
5 *3598:A 0
6 *3750:X 0.00184772
7 *170:103 0.00060769
8 *170:92 0.000314553
9 *170:85 0.00235847
10 *170:69 0.00299193
11 *170:47 0.00330548
12 *170:28 0.00441604
13 *3581:B *3581:A_N 8.23457e-05
14 *3581:B *3581:C 5.58369e-05
15 *3581:B *3819:A 3.14086e-05
16 *3581:B *3821:A 0.00034367
17 *3581:B *309:10 6.59891e-05
18 *170:28 *3563:B 0.000203755
19 *170:28 *3564:C 6.72143e-05
20 *170:28 *3593:A 0.000119246
21 *170:28 *3719:A 0.000113797
22 *170:28 *3726:A 0.000164352
23 *170:28 *3731:A 1.21412e-05
24 *170:28 *3798:A 0.000350299
25 *170:28 *312:22 0.000133533
26 *170:28 *323:18 0.000189188
27 *170:28 *327:22 0.000187759
28 *170:28 *329:26 0.000892015
29 *170:28 *332:38 0.000160153
30 *170:28 *337:18 0.000492512
31 *170:28 *371:23 4.92971e-05
32 *170:47 *3593:A 0.000217972
33 *170:47 *315:40 0.00311783
34 *170:47 *327:43 0.00087876
35 *170:47 *327:57 0.00199912
36 *170:47 *332:38 0.000229389
37 *170:47 *367:25 0.000629849
38 *170:69 *3671:A 7.00889e-06
39 *170:69 *219:16 0.00227245
40 *170:69 *225:10 9.14049e-05
41 *170:69 *236:20 7.06865e-05
42 *170:69 *315:40 2.25049e-05
43 *170:69 *315:42 0.000138175
44 *170:69 *327:57 0.000886744
45 *170:69 *327:61 0.00229518
46 *170:85 *219:36 0.00143995
47 *170:85 *327:61 0.00271978
48 *170:85 *327:65 0.000126992
49 *170:85 *327:69 7.00225e-05
50 *170:92 *3579:C 0.00033953
51 *170:92 *329:84 9.15072e-05
52 *170:92 *329:88 0.000120584
53 *170:103 *3579:C 3.62614e-05
54 *170:103 *3581:A_N 7.39651e-05
55 *170:103 *3819:A 0.000338534
56 *170:103 *329:88 0.000449745
57 *3578:D *170:92 9.20563e-05
58 *3580:D *170:103 1.9869e-05
59 *3581:D *3581:B 5.89489e-05
60 *3620:A *170:28 0.000142593
61 *3625:A *170:28 0.000292432
62 *3642:A *170:28 6.20842e-05
63 *3702:A *170:47 0.000783989
64 *3750:A *170:28 8.23457e-05
65 *3763:A *170:28 0.00012306
66 *3792:A *170:28 0.000604728
67 *3:17 *170:85 0.00019824
68 *126:27 *170:69 3.39151e-05
69 *129:21 *170:85 0
70 *129:36 *170:85 0.000159947
71 *139:29 *3581:B 0.000230702
72 *143:31 *170:28 1.37596e-05
73 *145:79 *3581:B 0.000130249
74 *146:26 *170:47 0.00047385
75 *151:16 *170:69 0.000581981
76 *151:32 *170:85 2.71836e-05
77 *162:24 *170:69 0.00015639
*RES
1 *3750:X *170:28 42.4983 
2 *170:28 *3598:A 1.6 
3 *170:28 *170:47 49.7192 
4 *170:47 *170:69 43.2975 
5 *170:69 *170:85 49.775 
6 *170:85 *3578:B 1.6 
7 *170:85 *170:92 3.555 
8 *170:92 *3579:B 1.6 
9 *170:92 *170:103 5.745 
10 *170:103 *3581:B 17.49 
11 *170:103 *3580:B 1.6 
*END

*D_NET *171 0.01732
*CONN
*I *3737:DI[13] I *D CF_SRAM_1024x32
*I *3652:X O *D sky130_fd_sc_hd__dlygate4sd3_1
*CAP
1 *3737:DI[13] 0.00119545
2 *3652:X 0.00138422
3 *171:16 0.00257967
4 *3737:DI[13] *3737:BEN[13] 0
5 *3737:DI[13] *3737:DI[12] 0.000785643
6 *3737:DI[13] *241:84 0.000335773
7 *3737:DI[13] *241:94 0.000223843
8 *3737:DI[13] *350:54 0.000737339
9 *171:16 *177:22 0.00259204
10 *171:16 *199:12 1.19928e-05
11 *171:16 *317:42 0.00299158
12 *3737:DI[14] *3737:DI[13] 1.79536e-05
13 *3737:DI[15] *3737:DI[13] 0.000958755
14 *116:11 *3737:DI[13] 0.000166251
15 *117:13 *3737:DI[13] 0
16 *118:15 *171:16 0.000359513
17 *118:19 *171:16 0.00045897
18 *129:11 *3737:DI[13] 4.0636e-05
19 *131:31 *3737:DI[13] 0.00124358
20 *146:26 *171:16 0.000141085
21 *153:12 *171:16 2.54431e-05
22 *162:24 *171:16 0.00107024
*RES
1 *3652:X *171:16 47.68 
2 *171:16 *3737:DI[13] 37.1225 
*END

*D_NET *172 0.000166665
*CONN
*I *3784:A I *D sky130_fd_sc_hd__clkbuf_4
*I *3653:X O *D sky130_fd_sc_hd__dlygate4sd3_1
*CAP
1 *3784:A 1.92991e-05
2 *3653:X 1.92991e-05
3 *3784:A *3803:A 8.58181e-05
4 *3784:A *321:16 1.47256e-05
5 *3605:A *3784:A 2.75229e-05
*RES
1 *3653:X *3784:A 3.995 
*END

*D_NET *173 0.0263452
*CONN
*I *3737:DI[8] I *D CF_SRAM_1024x32
*I *3654:X O *D sky130_fd_sc_hd__dlygate4sd3_1
*CAP
1 *3737:DI[8] 0.000863197
2 *3654:X 0.00045858
3 *173:18 0.00175543
4 *173:16 0.00249119
5 *173:12 0.00205754
6 *3737:DI[8] *226:10 0.000657605
7 *173:12 *3693:A 2.75229e-05
8 *173:12 *184:10 0
9 *173:16 *177:22 0
10 *173:16 *184:12 5.75554e-06
11 *173:16 *199:12 0
12 *173:16 *241:48 0.00034871
13 *173:16 *270:36 0.000600612
14 *173:16 *303:34 2.76356e-05
15 *123:25 *3737:DI[8] 0.000246787
16 *123:25 *173:18 0.000999509
17 *123:29 *173:12 0
18 *124:15 *173:16 6.03315e-05
19 *127:25 *173:16 0.000314132
20 *128:11 *3737:DI[8] 4.74383e-05
21 *128:11 *173:18 1.38481e-05
22 *138:11 *3737:DI[8] 0.000966827
23 *138:11 *173:18 0.00472109
24 *141:15 *173:16 0.0047224
25 *143:13 *3737:DI[8] 0
26 *151:40 *173:18 0.00102664
27 *157:12 *173:16 1.16854e-05
28 *159:44 *173:16 2.8185e-05
29 *162:28 *3737:DI[8] 0.000224791
30 *162:28 *173:18 0.00366772
*RES
1 *3654:X *173:12 12.275 
2 *173:12 *173:16 47.645 
3 *173:16 *173:18 53.2725 
4 *173:18 *3737:DI[8] 21.0279 
*END

*D_NET *174 0.00011613
*CONN
*I *3776:A I *D sky130_fd_sc_hd__buf_4
*I *3655:X O *D sky130_fd_sc_hd__dlygate4sd3_1
*CAP
1 *3776:A 1.02931e-05
2 *3655:X 1.02931e-05
3 *3776:A *313:8 4.77719e-05
4 *3776:A *314:8 4.77719e-05
*RES
1 *3655:X *3776:A 3.65 
*END

*D_NET *175 0.027337
*CONN
*I *3737:DI[30] I *D CF_SRAM_1024x32
*I *3656:X O *D sky130_fd_sc_hd__dlygate4sd3_1
*CAP
1 *3737:DI[30] 0.000669597
2 *3656:X 0
3 *175:8 0.00495831
4 *175:6 0.00428872
5 *175:8 *179:16 0.00627363
6 *175:8 *223:10 0.000678751
7 *175:8 *251:8 0.00890378
8 *112:8 *175:8 0.000180574
9 *136:11 *3737:DI[30] 0.00138363
10 *168:10 *175:8 0
*RES
1 *3656:X *175:6 3.6 
2 *175:6 *175:8 146.985 
3 *175:8 *3737:DI[30] 15.38 
*END

*D_NET *176 8.8299e-05
*CONN
*I *3754:A I *D sky130_fd_sc_hd__buf_2
*I *3657:X O *D sky130_fd_sc_hd__dlygate4sd3_1
*CAP
1 *3754:A 1.91685e-05
2 *3657:X 1.91685e-05
3 *159:12 *3754:A 4.99619e-05
*RES
1 *3657:X *3754:A 3.65 
*END

*D_NET *177 0.0186727
*CONN
*I *3737:DI[12] I *D CF_SRAM_1024x32
*I *3658:X O *D sky130_fd_sc_hd__dlygate4sd3_1
*CAP
1 *3737:DI[12] 0.000970662
2 *3658:X 0.000544681
3 *177:22 0.00231637
4 *177:12 0.00189039
5 *3737:DI[12] *3737:BEN[12] 0
6 *3737:DI[12] *241:94 0.000290564
7 *3737:DI[12] *241:106 8.97401e-05
8 *177:12 *327:61 0.00140642
9 *177:12 *329:77 0.00140809
10 *177:22 *199:12 2.62017e-05
11 *177:22 *244:32 0.00155853
12 *177:22 *303:24 0.000319918
13 *177:22 *317:42 6.31732e-05
14 *3702:A *177:12 0.000130266
15 *3737:DI[13] *3737:DI[12] 0.000785643
16 *116:11 *3737:DI[12] 0.0014774
17 *116:11 *177:22 0.00155853
18 *118:15 *177:22 0.000339465
19 *118:19 *177:12 7.5458e-05
20 *128:19 *177:12 0.000215667
21 *131:31 *177:22 3.64998e-06
22 *159:44 *177:22 0.000152496
23 *162:24 *177:12 0.000457303
24 *171:16 *177:22 0.00259204
25 *173:16 *177:22 0
*RES
1 *3658:X *177:12 25.97 
2 *177:12 *177:22 48.985 
3 *177:22 *3737:DI[12] 29.4925 
*END

*D_NET *178 0.00106181
*CONN
*I *3777:A I *D sky130_fd_sc_hd__buf_4
*I *3659:X O *D sky130_fd_sc_hd__dlygate4sd3_1
*CAP
1 *3777:A 0.000429314
2 *3659:X 0.000429314
3 *3777:A *3659:A 0.000203178
*RES
1 *3659:X *3777:A 14.16 
*END

*D_NET *179 0.0251335
*CONN
*I *3737:DI[31] I *D CF_SRAM_1024x32
*I *3661:X O *D sky130_fd_sc_hd__dlygate4sd3_1
*CAP
1 *3737:DI[31] 0.00071758
2 *3661:X 0.00116296
3 *179:16 0.00626667
4 *179:14 0.00671205
5 *112:8 *179:16 0.00203314
6 *134:11 *179:16 0
7 *136:13 *179:14 0.000476626
8 *136:13 *179:16 0
9 *137:11 *3737:DI[31] 0.0014611
10 *145:79 *179:14 0
11 *164:28 *179:14 2.97746e-05
12 *175:8 *179:16 0.00627363
*RES
1 *3661:X *179:14 28.105 
2 *179:14 *179:16 135.765 
3 *179:16 *3737:DI[31] 16.085 
*END

*D_NET *180 0.000546159
*CONN
*I *3783:A I *D sky130_fd_sc_hd__clkbuf_4
*I *3662:X O *D sky130_fd_sc_hd__dlygate4sd3_1
*CAP
1 *3783:A 9.5611e-05
2 *3662:X 9.5611e-05
3 *3783:A *3828:A 2.63533e-05
4 *3783:A *320:12 0.00016031
5 *3783:A *339:24 0.00016031
6 *3783:A *367:52 7.9642e-06
*RES
1 *3662:X *3783:A 9.81 
*END

*D_NET *181 0.0175391
*CONN
*I *3645:A I *D sky130_fd_sc_hd__dlygate4sd3_1
*I *3751:X O *D sky130_fd_sc_hd__buf_4
*CAP
1 *3645:A 0.00145647
2 *3751:X 0.00246234
3 *181:24 0.00391881
4 *3645:A *318:16 4.11718e-05
5 *3645:A *332:38 0
6 *3645:A *367:52 4.18827e-05
7 *3645:A *367:56 0.00135357
8 *181:24 *3561:A_N 8.57024e-05
9 *181:24 *3561:B 8.40269e-05
10 *181:24 *3699:A 0.00027209
11 *181:24 *3728:A 0.000273114
12 *181:24 *3778:A 7.42296e-05
13 *181:24 *3786:A 4.66108e-05
14 *181:24 *3788:A 0.000600216
15 *181:24 *3793:A 0.000429212
16 *181:24 *3794:A 3.99395e-05
17 *181:24 *3827:A 0
18 *181:24 *3828:A 0.000149148
19 *181:24 *315:20 0.000726225
20 *181:24 *317:32 0.00234937
21 *181:24 *319:12 0.000765588
22 *181:24 *327:22 0.000223991
23 *181:24 *334:32 8.41703e-06
24 *181:24 *339:24 0.00013794
25 *395:DIODE *181:24 0.000165387
26 *3588:D *181:24 0.000533416
27 *113:43 *181:24 0.000996807
28 *135:21 *181:24 4.52957e-05
29 *142:19 *3645:A 0.000101392
30 *142:19 *181:24 0.000156708
31 *164:10 *3645:A 0
*RES
1 *3751:X *181:24 49.4733 
2 *181:24 *3645:A 28.635 
*END

*D_NET *182 0.036377
*CONN
*I *3737:DI[7] I *D CF_SRAM_1024x32
*I *3663:X O *D sky130_fd_sc_hd__dlygate4sd3_1
*CAP
1 *3737:DI[7] 0.00181157
2 *3663:X 0.000421626
3 *182:16 0.00499728
4 *182:14 0.0031857
5 *182:12 0.0014545
6 *182:10 0.00187612
7 *3737:DI[7] *195:16 0.000119866
8 *3737:DI[7] *215:14 0.000439695
9 *182:10 *3663:A 0
10 *182:10 *184:10 9.61651e-05
11 *182:10 *188:10 0
12 *182:12 *188:12 0.000213805
13 *182:12 *199:12 0.00518937
14 *182:12 *302:20 0.000229025
15 *182:12 *317:42 2.14655e-05
16 *182:12 *339:48 0.000777052
17 *122:21 *182:16 0.00131766
18 *123:29 *182:10 0
19 *125:25 *182:12 0.000144557
20 *126:25 *182:12 0.000623782
21 *134:17 *182:12 8.17064e-05
22 *137:13 *182:16 0.000748034
23 *140:15 *182:12 0.0068951
24 *142:9 *3737:DI[7] 0.000214302
25 *144:11 *182:16 0.00551862
26 *145:79 *182:16 0
*RES
1 *3663:X *182:10 11.825 
2 *182:10 *182:12 67.035 
3 *182:12 *182:14 2 
4 *182:14 *182:16 78.39 
5 *182:16 *3737:DI[7] 24.3275 
*END

*D_NET *183 0.00108555
*CONN
*I *3782:A I *D sky130_fd_sc_hd__clkbuf_4
*I *3664:X O *D sky130_fd_sc_hd__dlygate4sd3_1
*CAP
1 *3782:A 0.000405447
2 *3664:X 0.000405447
3 *3782:A *3703:A 0
4 *3782:A *3781:A 0
5 *3782:A *3795:A 0.000111568
6 *3782:A *3803:A 0.00012306
7 *3782:A *3827:A 0
8 *3782:A *339:24 4.0031e-05
9 *3639:A *3782:A 0
*RES
1 *3664:X *3782:A 13.545 
*END

*D_NET *184 0.029813
*CONN
*I *3737:DI[6] I *D CF_SRAM_1024x32
*I *3665:X O *D sky130_fd_sc_hd__dlygate4sd3_1
*CAP
1 *3737:DI[6] 0.000505759
2 *3665:X 0.000432415
3 *184:16 0.00181706
4 *184:14 0.0013113
5 *184:12 0.00172561
6 *184:10 0.00215803
7 *3737:DI[6] *3737:BEN[6] 1.1392e-05
8 *184:12 *3737:vpwrac 0.000337995
9 *184:12 *303:34 5.83121e-06
10 *123:29 *184:10 6.0745e-05
11 *125:25 *184:16 0.00158731
12 *127:25 *184:12 0.000223099
13 *131:31 *184:12 0.000334275
14 *132:11 *184:16 0.00574461
15 *133:21 *3737:DI[6] 1.14169e-05
16 *138:11 *184:16 0.00699978
17 *141:9 *3737:DI[6] 0
18 *146:26 *184:16 0.00121755
19 *157:12 *184:12 0.00520636
20 *157:16 *184:16 2.05661e-05
21 *173:12 *184:10 0
22 *173:16 *184:12 5.75554e-06
23 *182:10 *184:10 9.61651e-05
*RES
1 *3665:X *184:10 13.1 
2 *184:10 *184:12 48.06 
3 *184:12 *184:14 2 
4 *184:14 *184:16 78.9 
5 *184:16 *3737:DI[6] 10.1525 
*END

*D_NET *185 0.000595489
*CONN
*I *3753:A I *D sky130_fd_sc_hd__buf_2
*I *3666:X O *D sky130_fd_sc_hd__dlygate4sd3_1
*CAP
1 *3753:A 0.000252855
2 *3666:X 0.000252855
3 *111:14 *3753:A 8.97793e-05
*RES
1 *3666:X *3753:A 6.59 
*END

*D_NET *186 0.0239668
*CONN
*I *3737:DI[11] I *D CF_SRAM_1024x32
*I *3667:X O *D sky130_fd_sc_hd__dlygate4sd3_1
*CAP
1 *3737:DI[11] 0.00109019
2 *3667:X 0.00121856
3 *186:28 0.00208784
4 *186:16 0.00221621
5 *3737:DI[11] *3683:A 0.000501444
6 *3737:DI[11] *3720:A 0.000132401
7 *3737:DI[11] *3737:BEN[11] 0
8 *3737:DI[11] *302:22 1.34361e-05
9 *186:16 *292:16 0.000998473
10 *186:28 *3713:A 0.000101647
11 *186:28 *3720:A 0.000726088
12 *186:28 *270:38 0.000407961
13 *409:DIODE *186:16 8.41307e-05
14 *3737:DI[14] *186:16 0.00113755
15 *115:13 *3737:DI[11] 0.000524524
16 *115:17 *186:28 0.00309716
17 *115:27 *186:28 0.000597347
18 *117:13 *186:28 0.00248338
19 *129:15 *186:16 0.000503185
20 *131:31 *186:16 0.000295378
21 *131:33 *186:16 7.66083e-05
22 *131:35 *186:16 7.3151e-05
23 *132:25 *186:16 1.33285e-05
24 *132:27 *186:16 4.35348e-05
25 *132:29 *186:16 5.55968e-05
26 *134:23 *186:28 0.000178314
27 *134:25 *186:28 0.000181368
28 *134:27 *186:28 9.54399e-05
29 *146:26 *186:16 0.000228129
30 *153:12 *186:16 0.00360324
31 *153:16 *186:16 0.00120122
*RES
1 *3667:X *186:16 49.05 
2 *186:16 *186:28 48.115 
3 *186:28 *3737:DI[11] 20.9975 
*END

*D_NET *187 0.0039542
*CONN
*I *3781:A I *D sky130_fd_sc_hd__clkbuf_4
*I *3668:X O *D sky130_fd_sc_hd__dlygate4sd3_1
*CAP
1 *3781:A 0.000807181
2 *3668:X 0.000807181
3 *3781:A *3668:A 0.000883093
4 *3781:A *3679:A 4.66108e-05
5 *3781:A *3712:A 2.75145e-05
6 *3781:A *3713:A 1.92979e-05
7 *3781:A *3794:A 7.5887e-05
8 *3781:A *3795:A 0.000145172
9 *3781:A *3827:A 0.00019149
10 *3781:A *315:20 3.04031e-05
11 *3781:A *323:28 0.000120576
12 *3781:A *324:16 0.000170609
13 *3781:A *369:35 4.82863e-05
14 *3588:D *3781:A 0
15 *3588:RESET_B *3781:A 5.30673e-05
16 *3609:A *3781:A 0.000272189
17 *3617:A *3781:A 0.000126575
18 *3639:A *3781:A 8.07863e-05
19 *3782:A *3781:A 0
20 *113:43 *3781:A 4.82863e-05
*RES
1 *3668:X *3781:A 27.165 
*END

*D_NET *188 0.042565
*CONN
*I *3737:DI[5] I *D CF_SRAM_1024x32
*I *3669:X O *D sky130_fd_sc_hd__dlygate4sd3_1
*CAP
1 *3737:DI[5] 0.00175903
2 *3669:X 0.000239224
3 *188:16 0.00359383
4 *188:14 0.00183481
5 *188:12 0.00228558
6 *188:10 0.00252481
7 *3737:DI[5] *3689:A 6.33103e-05
8 *3737:DI[5] *208:8 0.000232306
9 *3737:DI[5] *244:82 0
10 *188:16 *313:10 0.000749101
11 *116:15 *188:12 0.00193865
12 *122:21 *188:16 0.00115881
13 *125:25 *188:12 0.000751988
14 *128:19 *188:12 0.00262936
15 *139:11 *188:16 0.00831319
16 *140:9 *3737:DI[5] 0.000178683
17 *140:15 *188:12 0.00708424
18 *142:11 *188:16 0.0069898
19 *143:21 *188:12 2.44873e-05
20 *182:10 *188:10 0
21 *182:12 *188:12 0.000213805
*RES
1 *3669:X *188:10 8.765 
2 *188:10 *188:12 70.485 
3 *188:12 *188:14 2 
4 *188:14 *188:16 94.965 
5 *188:16 *3737:DI[5] 25.9925 
*END

*D_NET *189 0.000184808
*CONN
*I *3761:A I *D sky130_fd_sc_hd__clkbuf_4
*I *3670:X O *D sky130_fd_sc_hd__dlygate4sd3_1
*CAP
1 *3761:A 2.91559e-05
2 *3670:X 2.91559e-05
3 *3761:A *270:28 8.23457e-05
4 *159:12 *3761:A 4.41506e-05
*RES
1 *3670:X *3761:A 3.995 
*END

*D_NET *190 0.0195135
*CONN
*I *3737:DI[18] I *D CF_SRAM_1024x32
*I *3672:X O *D sky130_fd_sc_hd__dlygate4sd3_1
*CAP
1 *3737:DI[18] 0.00137513
2 *3672:X 0.000683338
3 *190:10 0.00537355
4 *190:8 0.00468176
5 *190:8 *3672:A 5.16211e-05
6 *190:10 *304:16 0.00182991
7 *190:10 *308:10 0.000689244
8 *122:21 *3737:DI[18] 8.65905e-05
9 *134:11 *190:10 0
10 *136:13 *190:10 0.0045873
11 *142:9 *190:8 0.000155016
*RES
1 *3672:X *190:8 10.95 
2 *190:8 *190:10 100.065 
3 *190:10 *3737:DI[18] 18.65 
*END

*D_NET *191 0.000390369
*CONN
*I *3769:A I *D sky130_fd_sc_hd__buf_4
*I *3673:X O *D sky130_fd_sc_hd__dlygate4sd3_1
*CAP
1 *3769:A 0.000165904
2 *3673:X 0.000165904
3 *3769:A *3674:A 1.02692e-05
4 *3769:A *324:16 4.82919e-05
*RES
1 *3673:X *3769:A 9.285 
*END

*D_NET *192 0.0117331
*CONN
*I *3693:A I *D sky130_fd_sc_hd__dlygate4sd3_1
*I *3752:X O *D sky130_fd_sc_hd__clkbuf_4
*CAP
1 *3693:A 0.00392826
2 *3752:X 0.00392826
3 *3693:A *3654:A 0.000702929
4 *3693:A *3658:A 0.000100561
5 *3693:A *3665:A 0.000135329
6 *3693:A *3669:A 0.000427651
7 *3693:A *3682:A 1.7635e-05
8 *3693:A *3705:A 0.000631969
9 *3693:A *3806:A 8.84845e-05
10 *3693:A *203:14 0.000511255
11 *3693:A *241:26 0
12 *3693:A *324:16 0.000115199
13 *3693:A *350:26 0.000982311
14 *3693:A *367:84 0
15 *3567:D *3693:A 0
16 *3603:A *3693:A 2.75229e-05
17 *3752:A *3693:A 3.74359e-05
18 *111:14 *3693:A 7.07949e-05
19 *121:46 *3693:A 0
20 *122:29 *3693:A 0
21 *151:16 *3693:A 0
22 *173:12 *3693:A 2.75229e-05
*RES
1 *3752:X *3693:A 46.3425 
*END

*D_NET *193 0.0191336
*CONN
*I *3737:AD[9] I *D CF_SRAM_1024x32
*I *3674:X O *D sky130_fd_sc_hd__dlygate4sd3_1
*CAP
1 *3737:AD[9] 0.000990575
2 *3674:X 0.00074262
3 *193:16 0.00204722
4 *193:12 0.00179927
5 *3737:AD[9] *3737:AD[3] 5.09274e-05
6 *3737:AD[9] *3737:AD[7] 0
7 *3737:AD[9] *3737:AD[8] 9.34791e-05
8 *193:12 *3683:A 4.59815e-05
9 *193:12 *3685:A 0.00191724
10 *193:12 *3720:A 0.000402977
11 *193:12 *3737:vpwrpc 0.000475037
12 *193:12 *215:16 0.00137465
13 *193:12 *219:42 2.13396e-05
14 *193:12 *248:10 0.000188182
15 *193:12 *270:38 0.00135075
16 *193:16 *3737:vpwrpc 0.000817
17 *193:16 *215:16 0.00163576
18 *193:16 *248:10 0.00404605
19 *168:10 *193:16 0.00113451
*RES
1 *3674:X *193:12 36.2925 
2 *193:12 *193:16 48.7025 
3 *193:16 *3737:AD[9] 13.0162 
*END

*D_NET *194 0.000167686
*CONN
*I *3760:A I *D sky130_fd_sc_hd__clkbuf_4
*I *3675:X O *D sky130_fd_sc_hd__dlygate4sd3_1
*CAP
1 *3760:A 3.97101e-05
2 *3675:X 3.97101e-05
3 *3760:A *3675:A 8.8266e-05
*RES
1 *3675:X *3760:A 3.995 
*END

*D_NET *195 0.0194882
*CONN
*I *3737:DI[17] I *D CF_SRAM_1024x32
*I *3676:X O *D sky130_fd_sc_hd__dlygate4sd3_1
*CAP
1 *3737:DI[17] 0.000113954
2 *3676:X 0.00114912
3 *195:26 0.0015479
4 *195:24 0.00217672
5 *195:16 0.00189189
6 *3737:DI[17] *3737:TM 0.000157378
7 *195:16 *3737:DI[3] 0.000119246
8 *195:16 *204:10 0
9 *195:16 *208:10 0.000127698
10 *195:16 *210:10 0.00101076
11 *195:16 *217:10 0.000479974
12 *195:16 *228:8 6.33103e-05
13 *195:24 *3737:vpwrac 0.000202939
14 *195:24 *237:16 0.000854906
15 *195:24 *239:8 0.000477867
16 *195:26 *3737:WLOFF 0
17 *195:26 *248:27 9.13914e-05
18 *3591:A *195:16 0.00137856
19 *3737:CLKin *3737:DI[17] 0
20 *3737:DI[2] *195:24 5.83121e-06
21 *3737:DI[7] *195:16 0.000119866
22 *110:10 *195:16 0.000261073
23 *121:20 *3737:DI[17] 3.09088e-05
24 *124:11 *195:26 0.000742374
25 *126:25 *195:26 0.00119747
26 *132:11 *195:26 0.00161202
27 *133:21 *195:16 0.000467589
28 *146:28 *195:26 0.00310571
29 *155:8 *195:24 0.000101769
*RES
1 *3676:X *195:16 42.37 
2 *195:16 *195:24 20.8 
3 *195:24 *195:26 52.125 
4 *195:26 *3737:DI[17] 4.49 
*END

*D_NET *196 0.000316036
*CONN
*I *3762:A I *D sky130_fd_sc_hd__clkbuf_4
*I *3677:X O *D sky130_fd_sc_hd__dlygate4sd3_1
*CAP
1 *3762:A 0.000118514
2 *3677:X 0.000118514
3 *3762:A *3677:A 3.14086e-05
4 *3762:A *270:28 4.75991e-05
*RES
1 *3677:X *3762:A 8.775 
*END

*D_NET *197 0.0216563
*CONN
*I *3737:DI[19] I *D CF_SRAM_1024x32
*I *3678:X O *D sky130_fd_sc_hd__dlygate4sd3_1
*CAP
1 *3737:DI[19] 0.000446033
2 *3678:X 0.000230362
3 *197:10 0.0025858
4 *197:8 0.00237013
5 *197:10 *3737:BEN[5] 0.000315595
6 *197:10 *204:10 0.0083669
7 *197:10 *234:10 0.00553558
8 *123:25 *3737:DI[19] 2.77183e-05
9 *129:11 *197:10 0.00177815
*RES
1 *3678:X *197:8 6.465 
2 *197:8 *197:10 101.85 
3 *197:10 *3737:DI[19] 8.915 
*END

*D_NET *198 0.00106155
*CONN
*I *3779:A I *D sky130_fd_sc_hd__clkbuf_4
*I *3679:X O *D sky130_fd_sc_hd__dlygate4sd3_1
*CAP
1 *3779:A 0.000301706
2 *3679:X 0.000301706
3 *3779:A *3714:A 0.000134134
4 *3779:A *3794:A 0.000162311
5 *3779:A *317:30 4.99619e-05
6 *3779:A *365:28 0
7 *3779:A *370:90 3.07337e-05
8 *3621:A *3779:A 8.09985e-05
*RES
1 *3679:X *3779:A 12.66 
*END

*D_NET *199 0.0346001
*CONN
*I *3737:DI[4] I *D CF_SRAM_1024x32
*I *3680:X O *D sky130_fd_sc_hd__dlygate4sd3_1
*CAP
1 *3737:DI[4] 0.000154905
2 *3680:X 0.000279585
3 *199:24 0.0015865
4 *199:22 0.00188931
5 *199:12 0.00211102
6 *199:10 0.00193289
7 *199:12 *317:42 0.00122099
8 *199:22 *3737:BEN[14] 5.83121e-06
9 *199:24 *244:82 0.000563976
10 *199:24 *244:94 0.000274602
11 *119:13 *199:22 0.00117643
12 *124:11 *199:22 2.05661e-05
13 *125:25 *199:12 0.000133263
14 *126:25 *199:12 0.000680546
15 *126:25 *199:22 0.000169048
16 *130:25 *199:24 0.00122408
17 *131:31 *199:22 0
18 *135:9 *199:24 0.00753458
19 *139:9 *3737:DI[4] 0
20 *140:15 *199:12 0.000379415
21 *141:11 *199:22 0.00125046
22 *141:11 *199:24 0.00627142
23 *146:26 *199:22 5.83121e-06
24 *146:28 *199:24 0.000245549
25 *151:42 *199:22 0.000261714
26 *171:16 *199:12 1.19928e-05
27 *173:16 *199:12 0
28 *177:22 *199:12 2.62017e-05
29 *182:12 *199:12 0.00518937
*RES
1 *3680:X *199:10 9.53 
2 *199:10 *199:12 53.235 
3 *199:12 *199:22 23.73 
4 *199:22 *199:24 85.02 
5 *199:24 *3737:DI[4] 4.4375 
*END

*D_NET *200 0.00160046
*CONN
*I *3759:A I *D sky130_fd_sc_hd__clkbuf_4
*I *3681:X O *D sky130_fd_sc_hd__dlygate4sd3_1
*CAP
1 *3759:A 0.000435968
2 *3681:X 0.000435968
3 *3759:A *3681:A 5.12944e-06
4 *3759:A *3805:A 4.55864e-06
5 *3759:A *259:14 7.23602e-05
6 *3759:A *325:26 0.000427088
7 wbs_dat_o[16] *3759:A 0.000219383
8 *3615:A *3759:A 0
*RES
1 *3681:X *3759:A 14.01 
*END

*D_NET *201 0.0213405
*CONN
*I *3737:DI[16] I *D CF_SRAM_1024x32
*I *3683:X O *D sky130_fd_sc_hd__dlygate4sd3_1
*CAP
1 *3737:DI[16] 0.000216795
2 *3683:X 0.000347979
3 *201:10 0.00173952
4 *201:8 0.0018707
5 *201:8 *3737:BEN[7] 7.77305e-05
6 *201:8 *244:38 4.35931e-05
7 *201:10 *226:10 0.00578989
8 *120:16 *3737:DI[16] 0.00043934
9 *123:25 *201:10 0.00186747
10 *128:11 *201:10 0.0012449
11 *133:11 *201:10 0.00038334
12 *138:11 *201:10 0.00334763
13 *155:10 *201:10 0.00397165
*RES
1 *3683:X *201:8 8.535 
2 *201:8 *201:10 89.61 
3 *201:10 *3737:DI[16] 6.8 
*END

*D_NET *202 0.000167113
*CONN
*I *3764:A I *D sky130_fd_sc_hd__clkbuf_4
*I *3684:X O *D sky130_fd_sc_hd__dlygate4sd3_1
*CAP
1 *3764:A 1.41136e-05
2 *3684:X 1.41136e-05
3 *3764:A *270:28 8.58181e-05
4 *159:12 *3764:A 5.30673e-05
*RES
1 *3684:X *3764:A 3.995 
*END

*D_NET *203 0.0102456
*CONN
*I *3667:A I *D sky130_fd_sc_hd__dlygate4sd3_1
*I *3753:X O *D sky130_fd_sc_hd__buf_2
*CAP
1 *3667:A 0
2 *3753:X 0.0027759
3 *203:14 0.0027759
4 *203:14 *3643:A 0.000831314
5 *203:14 *3658:A 7.21296e-06
6 *203:14 *3705:A 0.000125407
7 *203:14 *3807:A 0
8 *203:14 *241:26 0
9 *203:14 *322:14 0.00261067
10 *203:14 *350:30 0.000161831
11 *203:14 *367:113 2.2684e-05
12 *3693:A *203:14 0.000511255
13 *121:46 *203:14 2.01504e-05
14 *125:29 *203:14 0
15 *153:12 *203:14 4.99619e-05
16 *162:24 *203:14 0.000353317
*RES
1 *3753:X *203:14 49.4 
2 *203:14 *3667:A 1.6 
*END

*D_NET *204 0.0230871
*CONN
*I *3737:DI[20] I *D CF_SRAM_1024x32
*I *3685:X O *D sky130_fd_sc_hd__dlygate4sd3_1
*CAP
1 *3737:DI[20] 0.000478686
2 *3685:X 0.000201395
3 *204:10 0.00265395
4 *204:8 0.00237666
5 *204:8 *3737:BEN[5] 5.83121e-06
6 *204:10 *208:10 0.00872641
7 *125:25 *3737:DI[20] 0
8 *129:11 *204:10 0.000277238
9 *195:16 *204:10 0
10 *197:10 *204:10 0.0083669
*RES
1 *3685:X *204:8 6.12 
2 *204:8 *204:10 105.93 
3 *204:10 *3737:DI[20] 9.275 
*END

*D_NET *205 0.00042773
*CONN
*I *3758:A I *D sky130_fd_sc_hd__buf_4
*I *3686:X O *D sky130_fd_sc_hd__dlygate4sd3_1
*CAP
1 *3758:A 0.000122191
2 *3686:X 0.000122191
3 *3785:A *3758:A 0.000136737
4 *111:14 *3758:A 4.66108e-05
*RES
1 *3686:X *3758:A 9.285 
*END

*D_NET *206 0.0205542
*CONN
*I *3737:AD[8] I *D CF_SRAM_1024x32
*I *3687:X O *D sky130_fd_sc_hd__dlygate4sd3_1
*CAP
1 *3737:AD[8] 0.000766701
2 *3687:X 0.000147039
3 *206:10 0.00244976
4 *206:8 0.0018301
5 *3737:AD[8] *3737:AD[7] 9.4454e-05
6 *206:8 *3687:A 1.77665e-05
7 *206:10 *3713:A 1.7635e-05
8 *206:10 *3716:A 3.92162e-05
9 *206:10 *3737:vpwrpc 0.00139471
10 *206:10 *215:16 0.000339772
11 *206:10 *219:42 0.00435987
12 *206:10 *230:10 0.00213848
13 *206:10 *232:10 0.00674644
14 *206:10 *339:54 5.50989e-05
15 *206:10 *350:64 6.36578e-05
16 *3737:AD[9] *3737:AD[8] 9.34791e-05
*RES
1 *3687:X *206:8 5.085 
2 *206:8 *206:10 81.705 
3 *206:10 *3737:AD[8] 12.7662 
*END

*D_NET *207 0.00161604
*CONN
*I *3765:A I *D sky130_fd_sc_hd__clkbuf_4
*I *3688:X O *D sky130_fd_sc_hd__dlygate4sd3_1
*CAP
1 *3765:A 0.000498969
2 *3688:X 0.000498969
3 *3765:A *301:32 0.00032353
4 wbs_dat_o[22] *3765:A 0.000228583
5 *3618:A *3765:A 0
6 *159:36 *3765:A 6.59891e-05
*RES
1 *3688:X *3765:A 14.715 
*END

*D_NET *208 0.0239161
*CONN
*I *3737:DI[21] I *D CF_SRAM_1024x32
*I *3689:X O *D sky130_fd_sc_hd__dlygate4sd3_1
*CAP
1 *3737:DI[21] 0.000499332
2 *3689:X 0.000120207
3 *208:10 0.00280895
4 *208:8 0.00242983
5 *208:10 *210:10 0.00020096
6 *208:10 *212:10 0.00873392
7 *3737:DI[5] *208:8 0.000232306
8 *126:25 *3737:DI[21] 0
9 *140:9 *208:8 3.65137e-05
10 *195:16 *208:10 0.000127698
11 *204:10 *208:10 0.00872641
*RES
1 *3689:X *208:8 5.775 
2 *208:8 *208:10 110.01 
3 *208:10 *3737:DI[21] 9.635 
*END

*D_NET *209 0.00118175
*CONN
*I *3766:A I *D sky130_fd_sc_hd__clkbuf_4
*I *3690:X O *D sky130_fd_sc_hd__dlygate4sd3_1
*CAP
1 *3766:A 0.00043003
2 *3690:X 0.00043003
3 *3766:A *302:8 0.000318091
4 *3766:A *339:48 3.59531e-06
5 *129:48 *3766:A 0
*RES
1 *3690:X *3766:A 13.23 
*END

*D_NET *210 0.0251811
*CONN
*I *3737:DI[22] I *D CF_SRAM_1024x32
*I *3691:X O *D sky130_fd_sc_hd__dlygate4sd3_1
*CAP
1 *3737:DI[22] 0.000532339
2 *3691:X 0.000141154
3 *210:10 0.00272566
4 *210:8 0.00233447
5 *210:10 *212:10 0.00945422
6 *210:10 *217:10 1.99922e-05
7 *210:10 *228:10 0.00876152
8 *127:25 *3737:DI[22] 0
9 *195:16 *210:10 0.00101076
10 *208:10 *210:10 0.00020096
*RES
1 *3691:X *210:8 5.085 
2 *210:8 *210:10 114.345 
3 *210:10 *3737:DI[22] 10.085 
*END

*D_NET *211 0.000135094
*CONN
*I *3767:A I *D sky130_fd_sc_hd__clkbuf_4
*I *3692:X O *D sky130_fd_sc_hd__dlygate4sd3_1
*CAP
1 *3767:A 1.44798e-05
2 *3692:X 1.44798e-05
3 *3767:A *350:54 5.30673e-05
4 *121:40 *3767:A 5.30673e-05
*RES
1 *3692:X *3767:A 3.995 
*END

*D_NET *212 0.0252074
*CONN
*I *3737:DI[23] I *D CF_SRAM_1024x32
*I *3694:X O *D sky130_fd_sc_hd__dlygate4sd3_1
*CAP
1 *3737:DI[23] 0.000513852
2 *3694:X 0.000168632
3 *212:10 0.00315324
4 *212:8 0.00280802
5 *212:10 *228:10 0.000375555
6 *128:9 *3737:DI[23] 0
7 *129:11 *212:10 0
8 *208:10 *212:10 0.00873392
9 *210:10 *212:10 0.00945422
*RES
1 *3694:X *212:8 5.43 
2 *212:8 *212:10 118.17 
3 *212:10 *3737:DI[23] 10.01 
*END

*D_NET *213 0.000376126
*CONN
*I *3749:A I *D sky130_fd_sc_hd__buf_4
*I *3695:X O *D sky130_fd_sc_hd__dlygate4sd3_1
*CAP
1 *3749:A 8.61093e-05
2 *3695:X 8.61093e-05
3 *3749:A *3799:A 0.000107335
4 *3749:A *3800:A 4.82863e-05
5 *3749:A *3828:A 0
6 *159:8 *3749:A 4.82863e-05
*RES
1 *3695:X *3749:A 9.03 
*END

*D_NET *214 0.00928225
*CONN
*I *3658:A I *D sky130_fd_sc_hd__dlygate4sd3_1
*I *3754:X O *D sky130_fd_sc_hd__buf_2
*CAP
1 *3658:A 0.00174063
2 *3754:X 0.00174063
3 *3658:A *3643:A 0.000329224
4 *3658:A *3649:A 0.00155615
5 *3658:A *324:16 0.000163199
6 *3658:A *327:61 0.000759382
7 *3658:A *329:77 0.000759382
8 *3693:A *3658:A 0.000100561
9 *159:12 *3658:A 0.00212588
10 *203:14 *3658:A 7.21296e-06
*RES
1 *3754:X *3658:A 48.72 
*END

*D_NET *215 0.0196597
*CONN
*I *3737:AD[7] I *D CF_SRAM_1024x32
*I *3696:X O *D sky130_fd_sc_hd__dlygate4sd3_1
*CAP
1 *3737:AD[7] 0.000863131
2 *3696:X 0.000519864
3 *215:16 0.0022951
4 *215:14 0.00195183
5 *3737:AD[7] *3737:AD[6] 0
6 *215:14 *308:10 0.00122514
7 *215:16 *3737:vpwrpc 0.00130954
8 *215:16 *219:42 0.00279657
9 *215:16 *230:10 0.00224349
10 *3737:AD[8] *3737:AD[7] 9.4454e-05
11 *3737:AD[9] *3737:AD[7] 0
12 *3737:DI[7] *215:14 0.000439695
13 *134:11 *215:14 0.00122514
14 *168:10 *215:16 0.00134555
15 *193:12 *215:16 0.00137465
16 *193:16 *215:16 0.00163576
17 *206:10 *215:16 0.000339772
*RES
1 *3696:X *215:14 25.975 
2 *215:14 *215:16 64.875 
3 *215:16 *3737:AD[7] 14.4312 
*END

*D_NET *216 0.000483622
*CONN
*I *3768:A I *D sky130_fd_sc_hd__clkbuf_4
*I *3697:X O *D sky130_fd_sc_hd__dlygate4sd3_1
*CAP
1 *3768:A 0.000163732
2 *3697:X 0.000163732
3 *3768:A *301:32 6.96014e-05
4 *416:DIODE *3768:A 2.8531e-05
5 *131:68 *3768:A 5.80249e-05
*RES
1 *3697:X *3768:A 9.465 
*END

*D_NET *217 0.0259973
*CONN
*I *3737:DI[24] I *D CF_SRAM_1024x32
*I *3698:X O *D sky130_fd_sc_hd__dlygate4sd3_1
*CAP
1 *3737:DI[24] 0.000481956
2 *3698:X 6.34921e-05
3 *217:10 0.00349543
4 *217:8 0.00307697
5 *217:10 *3737:vpwrac 0.000806139
6 *217:10 *228:10 0.00991726
7 *217:10 *237:12 5.59959e-05
8 *217:10 *237:16 0.00378136
9 *217:10 *326:24 0.000106511
10 *3591:A *217:10 0.000119985
11 *129:9 *3737:DI[24] 0.000241531
12 *139:9 *217:8 4.78564e-05
13 *160:12 *217:10 0.000957559
14 *160:16 *217:10 0.00234525
15 *195:16 *217:10 0.000479974
16 *210:10 *217:10 1.99922e-05
*RES
1 *3698:X *217:8 4.395 
2 *217:8 *217:10 124.29 
3 *217:10 *3737:DI[24] 11.06 
*END

*D_NET *218 0.000906658
*CONN
*I *3778:A I *D sky130_fd_sc_hd__clkbuf_4
*I *3699:X O *D sky130_fd_sc_hd__dlygate4sd3_1
*CAP
1 *3778:A 0.000190658
2 *3699:X 0.000190658
3 *3778:A *3561:A_N 8.40213e-05
4 *3778:A *3561:B 8.23457e-05
5 *3778:A *3561:C 6.00027e-05
6 *3778:A *3699:A 4.82863e-05
7 *3778:A *333:32 3.51939e-05
8 *461:DIODE *3778:A 4.92062e-05
9 *3561:D *3778:A 9.20563e-05
10 *181:24 *3778:A 7.42296e-05
*RES
1 *3699:X *3778:A 7.91 
*END

*D_NET *219 0.0443794
*CONN
*I *3737:DI[3] I *D CF_SRAM_1024x32
*I *3700:X O *D sky130_fd_sc_hd__dlygate4sd3_1
*CAP
1 *3737:DI[3] 0.000883225
2 *3700:X 0.00171436
3 *219:42 0.00322955
4 *219:40 0.00258851
5 *219:36 0.00180044
6 *219:16 0.00327262
7 *219:16 *327:57 4.9968e-05
8 *219:16 *327:61 0.000105158
9 *219:16 *329:77 0.000350752
10 *219:36 *3576:A_N 0.000119066
11 *219:36 *3816:A 0.000147377
12 *219:36 *244:28 0.00111723
13 *219:36 *327:61 0.00257372
14 *219:36 *327:87 8.40269e-05
15 *219:36 *328:36 0.000189332
16 *219:36 *329:84 7.66388e-05
17 *219:36 *350:54 4.87198e-05
18 *219:40 *258:30 0.000704679
19 *219:40 *302:20 0.000649726
20 *219:42 *3737:vpwrpc 0.00181503
21 *219:42 *258:30 0.00180503
22 *219:42 *270:38 0.00653134
23 *219:42 *350:64 2.54436e-05
24 *3575:D *219:36 0
25 *3578:D *219:36 1.28182e-05
26 *117:13 *219:40 1.89325e-05
27 *117:13 *219:42 7.33816e-05
28 *118:15 *219:42 0.00183548
29 *131:45 *219:36 9.45483e-05
30 *138:9 *3737:DI[3] 0
31 *151:16 *219:16 0.000286327
32 *151:32 *219:36 0.00103441
33 *164:12 *219:36 4.37516e-05
34 *164:26 *219:36 8.84215e-05
35 *170:69 *219:16 0.00227245
36 *170:85 *219:36 0.00143995
37 *193:12 *219:42 2.13396e-05
38 *195:16 *3737:DI[3] 0.000119246
39 *206:10 *219:42 0.00435987
40 *215:16 *219:42 0.00279657
*RES
1 *3700:X *219:16 31.88 
2 *219:16 *219:36 49.725 
3 *219:36 *219:40 8.8425 
4 *219:40 *219:42 109.372 
5 *219:42 *3737:DI[3] 14.1125 
*END

*D_NET *220 0.000541887
*CONN
*I *3748:A I *D sky130_fd_sc_hd__buf_4
*I *3701:X O *D sky130_fd_sc_hd__dlygate4sd3_1
*CAP
1 *3748:A 0.000199835
2 *3701:X 0.000199835
3 *3748:A *3828:A 0
4 *3748:A *324:16 0.00012657
5 *3702:A *3748:A 1.56477e-05
*RES
1 *3701:X *3748:A 9.975 
*END

*D_NET *221 0.018895
*CONN
*I *3737:AD[6] I *D CF_SRAM_1024x32
*I *3702:X O *D sky130_fd_sc_hd__dlygate4sd3_1
*CAP
1 *3737:AD[6] 0.00118572
2 *3702:X 0.000206878
3 *221:10 0.00296521
4 *221:8 0.00198637
5 *3737:AD[6] *3737:AD[5] 0.000143163
6 *221:10 *223:10 0.000167673
7 *221:10 *305:10 0.00347672
8 *3737:AD[7] *3737:AD[6] 0
9 *112:8 *221:10 0.00172764
10 *134:11 *221:10 0.00698052
11 *144:9 *221:8 5.50615e-05
*RES
1 *3702:X *221:8 5.775 
2 *221:8 *221:10 80.43 
3 *221:10 *3737:AD[6] 16.7563 
*END

*D_NET *222 0.000385584
*CONN
*I *3796:A I *D sky130_fd_sc_hd__buf_4
*I *3703:X O *D sky130_fd_sc_hd__dlygate4sd3_1
*CAP
1 *3796:A 0.000131929
2 *3703:X 0.000131929
3 *3796:A *3662:A 5.71481e-05
4 *3796:A *3705:A 1.56477e-05
5 *3796:A *3826:A 0
6 *3796:A *324:16 4.89295e-05
*RES
1 *3703:X *3796:A 9.285 
*END

*D_NET *223 0.0172964
*CONN
*I *3737:AD[5] I *D CF_SRAM_1024x32
*I *3705:X O *D sky130_fd_sc_hd__dlygate4sd3_1
*CAP
1 *3737:AD[5] 0.00111197
2 *3705:X 0.000194412
3 *223:10 0.00318685
4 *223:8 0.0022693
5 *3737:AD[5] *3737:AD[4] 6.81655e-05
6 *223:10 *3678:A 0.00171011
7 *223:10 *248:10 0
8 *223:10 *251:8 0.000913727
9 *223:10 *303:36 0.00276916
10 *223:10 *305:10 0.000878535
11 *3737:AD[6] *3737:AD[5] 0.000143163
12 *112:8 *223:10 0.00320459
13 *175:8 *223:10 0.000678751
14 *221:10 *223:10 0.000167673
*RES
1 *3705:X *223:8 5.43 
2 *223:8 *223:10 79.665 
3 *223:10 *3737:AD[5] 16.6963 
*END

*D_NET *224 0.0032069
*CONN
*I *3794:A I *D sky130_fd_sc_hd__buf_4
*I *3706:X O *D sky130_fd_sc_hd__dlygate4sd3_1
*CAP
1 *3794:A 0.000894786
2 *3706:X 0.000894786
3 *3794:A *3712:A 0
4 *3794:A *3798:A 6.26906e-05
5 *3794:A *324:16 0.000634898
6 *395:DIODE *3794:A 8.30853e-06
7 *3588:RESET_B *3794:A 0.000385437
8 *3617:A *3794:A 4.78537e-05
9 *3639:A *3794:A 0
10 *3779:A *3794:A 0.000162311
11 *3781:A *3794:A 7.5887e-05
12 *181:24 *3794:A 3.99395e-05
*RES
1 *3706:X *3794:A 21.48 
*END

*D_NET *225 0.00862972
*CONN
*I *3652:A I *D sky130_fd_sc_hd__dlygate4sd3_1
*I *3755:X O *D sky130_fd_sc_hd__buf_2
*CAP
1 *3652:A 0
2 *3755:X 0.00242686
3 *225:10 0.00242686
4 *225:10 *3803:A 0.000101889
5 *225:10 *3807:A 3.63206e-05
6 *225:10 *3808:A 0.000219271
7 *225:10 *3810:A 0.000207083
8 *225:10 *3811:A 0.000583995
9 *225:10 *236:20 0.000477244
10 wbs_dat_o[14] *225:10 0.000237249
11 wbs_dat_o[16] *225:10 0.000237249
12 wbs_dat_o[18] *225:10 0.000237249
13 wbs_dat_o[20] *225:10 0
14 *3612:A *225:10 0.000678787
15 *3613:A *225:10 0.000163204
16 *3734:A *225:10 0.000505051
17 *126:27 *225:10 0
18 *170:69 *225:10 9.14049e-05
*RES
1 *3755:X *225:10 48.705 
2 *225:10 *3652:A 3.6 
*END

*D_NET *226 0.0176953
*CONN
*I *3737:AD[3] I *D CF_SRAM_1024x32
*I *3707:X O *D sky130_fd_sc_hd__dlygate4sd3_1
*CAP
1 *3737:AD[3] 0.000185289
2 *3707:X 0.000333127
3 *226:17 6.77883e-07
4 *226:10 0.00141252
5 *226:8 0.00156103
6 *3737:AD[3] *3737:ScanInCC 0.000476914
7 *226:17 *3737:ScanInCC 1.16578e-05
8 *3737:AD[9] *3737:AD[3] 5.09274e-05
9 *3737:DI[9] *226:8 2.65814e-06
10 *3737:DI[8] *226:10 0.000657605
11 *128:11 *226:10 0.00687346
12 *138:11 *226:10 0.000246331
13 *144:9 *226:8 9.3169e-05
14 *201:10 *226:10 0.00578989
*RES
1 *3707:X *226:8 8.19 
2 *226:8 *226:10 77.115 
3 *226:10 *3737:AD[3] 6.59 
4 *3737:AD[3] *226:17 0.108889 
*END

*D_NET *227 0.00350693
*CONN
*I *3770:A I *D sky130_fd_sc_hd__clkbuf_4
*I *3708:X O *D sky130_fd_sc_hd__dlygate4sd3_1
*CAP
1 *3770:A 0.00131052
2 *3708:X 0.00131052
3 *3770:A *3817:A 6.92569e-05
4 *3770:A *301:32 0.000266537
5 *3770:A *302:8 9.73633e-05
6 wbs_dat_o[27] *3770:A 1.28182e-05
7 wbs_dat_o[28] *3770:A 0
8 *442:DIODE *3770:A 4.83508e-05
9 *3626:A *3770:A 0.0001249
10 *3629:A *3770:A 4.77757e-05
11 *3772:A *3770:A 0.000107602
12 *115:27 *3770:A 0
13 *115:29 *3770:A 0.000111285
*RES
1 *3708:X *3770:A 25.83 
*END

*D_NET *228 0.0267967
*CONN
*I *3737:DI[25] I *D CF_SRAM_1024x32
*I *3709:X O *D sky130_fd_sc_hd__dlygate4sd3_1
*CAP
1 *3737:DI[25] 0.000551012
2 *3709:X 0.000100849
3 *228:10 0.00361143
4 *228:8 0.00316126
5 *130:25 *3737:DI[25] 0
6 *160:16 *228:10 0.00025449
7 *195:16 *228:8 6.33103e-05
8 *210:10 *228:10 0.00876152
9 *212:10 *228:10 0.000375555
10 *217:10 *228:10 0.00991726
*RES
1 *3709:X *228:8 4.74 
2 *228:8 *228:10 126.33 
3 *228:10 *3737:DI[25] 10.73 
*END

*D_NET *229 0.000852269
*CONN
*I *3771:A I *D sky130_fd_sc_hd__clkbuf_4
*I *3710:X O *D sky130_fd_sc_hd__dlygate4sd3_1
*CAP
1 *3771:A 0.000181843
2 *3710:X 0.000181843
3 *3771:A *3816:A 3.85504e-05
4 *3771:A *301:32 0.000253082
5 *3771:A *302:8 8.46717e-05
6 wbs_dat_o[26] *3771:A 0.000112279
*RES
1 *3710:X *3771:A 11.16 
*END

*D_NET *230 0.0220867
*CONN
*I *3737:DI[26] I *D CF_SRAM_1024x32
*I *3711:X O *D sky130_fd_sc_hd__dlygate4sd3_1
*CAP
1 *3737:DI[26] 0.000769154
2 *3711:X 0.000186929
3 *230:10 0.0056151
4 *230:8 0.00503287
5 *230:10 *3737:vpwrpc 0.000630533
6 *230:10 *232:10 0.000248534
7 *230:10 *239:8 0.000193739
8 *131:9 *3737:DI[26] 0
9 *160:12 *230:10 0
10 *160:16 *230:10 0
11 *168:10 *230:10 0.00502788
12 *206:10 *230:10 0.00213848
13 *215:16 *230:10 0.00224349
*RES
1 *3711:X *230:8 5.43 
2 *230:8 *230:10 128.37 
3 *230:10 *3737:DI[26] 13.505 
*END

*D_NET *231 0.000883091
*CONN
*I *3795:A I *D sky130_fd_sc_hd__buf_4
*I *3712:X O *D sky130_fd_sc_hd__dlygate4sd3_1
*CAP
1 *3795:A 0.000220574
2 *3712:X 0.000220574
3 *3795:A *324:16 0.000124007
4 *3795:A *339:24 6.11965e-05
5 *3781:A *3795:A 0.000145172
6 *3782:A *3795:A 0.000111568
*RES
1 *3712:X *3795:A 11.76 
*END

*D_NET *232 0.0207524
*CONN
*I *3737:AD[4] I *D CF_SRAM_1024x32
*I *3713:X O *D sky130_fd_sc_hd__dlygate4sd3_1
*CAP
1 *3737:AD[4] 0.00072479
2 *3713:X 3.60046e-05
3 *232:10 0.00245408
4 *232:8 0.00176529
5 *232:8 *3713:A 3.64998e-06
6 *232:10 *3716:A 6.55328e-05
7 *232:10 *3737:vpwrpc 0.00166416
8 *232:10 *239:8 0.0069071
9 *3737:AD[5] *3737:AD[4] 6.81655e-05
10 *3:17 *232:10 5.53036e-05
11 *144:9 *232:8 1.33293e-05
12 *206:10 *232:10 0.00674644
13 *230:10 *232:10 0.000248534
*RES
1 *3713:X *232:8 4.05 
2 *232:8 *232:10 82.98 
3 *232:10 *3737:AD[4] 12.3763 
*END

*D_NET *233 0.00201232
*CONN
*I *3793:A I *D sky130_fd_sc_hd__buf_4
*I *3714:X O *D sky130_fd_sc_hd__dlygate4sd3_1
*CAP
1 *3793:A 0.000569658
2 *3714:X 0.000569658
3 *3793:A *3561:A_N 4.48513e-05
4 *3793:A *3561:B 0.000154253
5 *3793:A *334:32 4.66108e-05
6 *3793:A *339:24 6.17079e-05
7 *3793:A *366:45 4.43871e-06
8 *3793:A *370:54 1.01661e-05
9 *3561:D *3793:A 0.000104132
10 *3621:A *3793:A 1.7635e-05
11 *181:24 *3793:A 0.000429212
*RES
1 *3714:X *3793:A 12.4605 
*END

*D_NET *234 0.0189344
*CONN
*I *3737:AD[2] I *D CF_SRAM_1024x32
*I *3716:X O *D sky130_fd_sc_hd__dlygate4sd3_1
*CAP
1 *3737:AD[2] 0.000476048
2 *3716:X 0.000264288
3 *234:10 0.00229714
4 *234:8 0.00208538
5 *3737:AD[2] *3737:AD[0] 0
6 *3737:AD[2] *3737:AD[1] 4.41526e-06
7 *234:8 *470:DIODE 7.82139e-06
8 *234:8 *3737:BEN[8] 5.83121e-06
9 *234:10 *3737:BEN[5] 0.000353504
10 *234:10 *244:34 0
11 *234:10 *244:50 0.00062084
12 *129:11 *234:10 0.00728358
13 *197:10 *234:10 0.00553558
*RES
1 *3716:X *234:8 6.81 
2 *234:8 *234:10 85.02 
3 *234:10 *3737:AD[2] 9.06125 
*END

*D_NET *235 0.000833957
*CONN
*I *3780:A I *D sky130_fd_sc_hd__buf_4
*I *3717:X O *D sky130_fd_sc_hd__dlygate4sd3_1
*CAP
1 *3780:A 0.000289735
2 *3717:X 0.000289735
3 *3780:A *3721:A 7.864e-05
4 *3780:A *317:30 0
5 *3775:A *3780:A 0.000175848
*RES
1 *3717:X *3780:A 13.05 
*END

*D_NET *236 0.00885249
*CONN
*I *3647:A I *D sky130_fd_sc_hd__dlygate4sd3_1
*I *3756:X O *D sky130_fd_sc_hd__buf_2
*CAP
1 *3647:A 3.15537e-05
2 *3756:X 0.0027904
3 *236:20 0.00282196
4 *236:20 *3649:A 0
5 *236:20 *3677:A 0.000109393
6 *236:20 *3803:A 0.000160302
7 *236:20 *3807:A 0.000127642
8 *236:20 *3810:A 0.000306146
9 *236:20 *3811:A 0.000611027
10 *236:20 *244:24 5.05716e-06
11 wbs_dat_o[14] *236:20 7.67345e-05
12 wbs_dat_o[16] *236:20 0.000138808
13 wbs_dat_o[18] *236:20 7.67345e-05
14 *3612:A *236:20 0.000360276
15 *3734:A *236:20 0.000272527
16 *121:40 *236:20 2.03475e-05
17 *153:12 *3647:A 0.000197826
18 *162:24 *3647:A 0.000197826
19 *170:69 *236:20 7.06865e-05
20 *225:10 *236:20 0.000477244
*RES
1 *3756:X *236:20 49.925 
2 *236:20 *3647:A 3.43 
*END

*D_NET *237 0.0192592
*CONN
*I *3737:AD[0] I *D CF_SRAM_1024x32
*I *3718:X O *D sky130_fd_sc_hd__dlygate4sd3_1
*CAP
1 *3737:AD[0] 0.000600285
2 *3718:X 0.000992644
3 *237:16 0.00159213
4 *237:12 0.00198449
5 *3737:AD[0] *3737:AD[1] 0.000236406
6 *237:12 *3737:vpwrac 0.00074444
7 *237:12 *239:8 0.00347879
8 *237:12 *317:67 1.77665e-05
9 *237:16 *3737:vpwrac 0.000405911
10 *237:16 *239:8 0.000118899
11 *3591:A *237:12 0.00170922
12 *3737:AD[2] *3737:AD[0] 0
13 *3737:R_WB *3737:AD[0] 0
14 *3:17 *237:12 0.000976175
15 *160:10 *237:16 0.000598181
16 *160:12 *237:16 0.00111163
17 *195:24 *237:16 0.000854906
18 *217:10 *237:12 5.59959e-05
19 *217:10 *237:16 0.00378136
*RES
1 *3718:X *237:12 44.8575 
2 *237:12 *237:16 45.5825 
3 *237:16 *3737:AD[0] 9.92625 
*END

*D_NET *238 0.000936378
*CONN
*I *3791:A I *D sky130_fd_sc_hd__buf_4
*I *3719:X O *D sky130_fd_sc_hd__dlygate4sd3_1
*CAP
1 *3791:A 0.000327188
2 *3719:X 0.000327188
3 *3791:A *3564:A_N 5.62494e-05
4 *3791:A *3593:A 7.9642e-06
5 *3791:A *3787:A 9.21008e-05
6 *3791:A *328:16 4.75959e-05
7 *3723:A *3791:A 7.80915e-05
8 *3775:A *3791:A 0
*RES
1 *3719:X *3791:A 13.11 
*END

*D_NET *239 0.0204684
*CONN
*I *3737:AD[1] I *D CF_SRAM_1024x32
*I *3720:X O *D sky130_fd_sc_hd__dlygate4sd3_1
*CAP
1 *3737:AD[1] 0.00066708
2 *3720:X 0
3 *239:8 0.00247723
4 *239:6 0.00181015
5 *239:8 *3737:vpwrpc 2.10433e-05
6 *239:8 *3737:vpwrac 0.00166242
7 *3737:AD[0] *3737:AD[1] 0.000236406
8 *3737:AD[2] *3737:AD[1] 4.41526e-06
9 *3:17 *239:8 0.000125626
10 *160:10 *239:8 0.000333473
11 *160:12 *239:8 0.00195418
12 *195:24 *239:8 0.000477867
13 *230:10 *239:8 0.000193739
14 *232:10 *239:8 0.0069071
15 *237:12 *239:8 0.00347879
16 *237:16 *239:8 0.000118899
*RES
1 *3720:X *239:6 3.6 
2 *239:6 *239:8 85.02 
3 *239:8 *3737:AD[1] 12.1138 
*END

*D_NET *240 0.00144181
*CONN
*I *3787:A I *D sky130_fd_sc_hd__buf_12
*I *3721:X O *D sky130_fd_sc_hd__dlygate4sd3_1
*CAP
1 *3787:A 0.000374284
2 *3721:X 0.000374284
3 *3787:A *3660:A 4.89295e-05
4 *3787:A *3798:A 0
5 *3787:A *317:30 9.06931e-05
6 *3723:A *3787:A 0.000461515
7 *3775:A *3787:A 0
8 *3791:A *3787:A 9.21008e-05
*RES
1 *3721:X *3787:A 15.09 
*END

*D_NET *241 0.0387769
*CONN
*I *3737:BEN[8] I *D CF_SRAM_1024x32
*I *3737:BEN[9] I *D CF_SRAM_1024x32
*I *3737:BEN[10] I *D CF_SRAM_1024x32
*I *3737:BEN[11] I *D CF_SRAM_1024x32
*I *3737:BEN[12] I *D CF_SRAM_1024x32
*I *3737:BEN[13] I *D CF_SRAM_1024x32
*I *3737:BEN[14] I *D CF_SRAM_1024x32
*I *3737:BEN[15] I *D CF_SRAM_1024x32
*I *3722:X O *D sky130_fd_sc_hd__buf_12
*CAP
1 *3737:BEN[8] 0.000860469
2 *3737:BEN[9] 0.000521168
3 *3737:BEN[10] 0.000457132
4 *3737:BEN[11] 0.000507856
5 *3737:BEN[12] 0.000508723
6 *3737:BEN[13] 0.000454097
7 *3737:BEN[14] 0.0010104
8 *3737:BEN[15] 0.000109418
9 *3722:X 0.000586125
10 *241:146 0.00167384
11 *241:141 0
12 *241:134 0.00248115
13 *241:106 0.00250376
14 *241:94 0.000976806
15 *241:84 0.00140471
16 *241:48 0.00216764
17 *241:26 0.00238058
18 *3737:BEN[8] *244:34 0
19 *241:26 *244:24 0.000678124
20 *241:26 *369:86 3.59531e-06
21 *241:48 *350:54 0.000634552
22 *241:84 *350:64 4.66108e-05
23 *241:134 *244:34 0
24 *241:146 *244:34 0
25 *3574:D *241:48 0
26 *3693:A *241:26 0
27 *3702:A *241:26 0.00013827
28 *3702:A *241:48 0.000165928
29 *3737:DI[12] *3737:BEN[12] 0
30 *3737:DI[12] *241:94 0.000290564
31 *3737:DI[12] *241:106 8.97401e-05
32 *3737:DI[14] *241:84 9.29513e-05
33 *3737:DI[11] *3737:BEN[11] 0
34 *3737:DI[13] *3737:BEN[13] 0
35 *3737:DI[13] *241:84 0.000335773
36 *3737:DI[13] *241:94 0.000223843
37 *3737:DI[10] *3737:BEN[10] 0
38 *116:11 *241:106 5.86521e-05
39 *118:15 *241:84 4.66108e-05
40 *125:29 *241:26 4.78685e-05
41 *127:25 *241:48 0.00146987
42 *129:11 *3737:BEN[8] 0.000676197
43 *129:11 *241:84 0.000337061
44 *129:11 *241:94 0.000737773
45 *129:11 *241:106 0.000700911
46 *129:11 *241:134 4.94145e-05
47 *129:11 *241:146 0.000608983
48 *129:19 *241:48 0
49 *129:21 *241:48 0
50 *130:25 *241:48 0.000629682
51 *130:25 *241:134 0.000413848
52 *131:31 *241:84 2.49909e-05
53 *132:19 *241:84 5.24033e-05
54 *135:9 *3737:BEN[14] 0.000658025
55 *135:9 *241:48 0.000120099
56 *139:41 *241:26 0.000629927
57 *139:41 *241:48 0.0027195
58 *139:43 *241:26 0.00110767
59 *141:11 *3737:BEN[14] 0.00066599
60 *141:11 *241:48 1.79483e-05
61 *144:9 *3737:BEN[8] 0
62 *162:24 *241:48 0.00146753
63 *164:12 *241:26 0.00115507
64 *164:12 *241:48 0.00271666
65 *173:16 *241:48 0.00034871
66 *199:22 *3737:BEN[14] 5.83121e-06
67 *203:14 *241:26 0
68 *234:8 *3737:BEN[8] 5.83121e-06
*RES
1 *3722:X *241:26 30.135 
2 *241:26 *241:48 42.9194 
3 *241:48 *3737:BEN[15] 3.6725 
4 *241:48 *3737:BEN[14] 11.9525 
5 *3737:BEN[14] *241:84 17.4125 
6 *241:84 *3737:BEN[13] 7.9175 
7 *241:84 *241:94 8.775 
8 *241:94 *3737:BEN[12] 8.8625 
9 *241:94 *241:106 8.265 
10 *241:106 *3737:BEN[11] 8.8475 
11 *241:106 *241:134 6.19573 
12 *241:134 *3737:BEN[10] 7.97 
13 *3737:BEN[10] *241:141 0.113077 
14 *241:134 *241:146 7.245 
15 *241:146 *3737:BEN[9] 9.1025 
16 *241:146 *3737:BEN[8] 17.3825 
*END

*D_NET *242 0.000347832
*CONN
*I *3721:A I *D sky130_fd_sc_hd__dlygate4sd3_1
*I *3723:X O *D sky130_fd_sc_hd__dlygate4sd3_1
*CAP
1 *3721:A 0.000134596
2 *3723:X 0.000134596
3 *3721:A *317:30 0
4 *3780:A *3721:A 7.864e-05
*RES
1 *3723:X *3721:A 9.375 
*END

*D_NET *243 0.00112562
*CONN
*I *3786:A I *D sky130_fd_sc_hd__buf_12
*I *3724:X O *D sky130_fd_sc_hd__dlygate4sd3_1
*CAP
1 *3786:A 0.000341915
2 *3724:X 0.000341915
3 *3786:A *3660:A 6.10014e-05
4 *3786:A *3717:A 1.73877e-05
5 *3786:A *3728:A 2.8185e-05
6 *3786:A *327:22 1.26173e-05
7 *3786:A *329:26 0
8 *3727:A *3786:A 0.000275988
9 *181:24 *3786:A 4.66108e-05
*RES
1 *3724:X *3786:A 12.795 
*END

*D_NET *244 0.046986
*CONN
*I *3737:BEN[0] I *D CF_SRAM_1024x32
*I *3737:BEN[1] I *D CF_SRAM_1024x32
*I *3737:BEN[2] I *D CF_SRAM_1024x32
*I *3737:BEN[3] I *D CF_SRAM_1024x32
*I *3737:BEN[4] I *D CF_SRAM_1024x32
*I *3737:BEN[5] I *D CF_SRAM_1024x32
*I *3737:BEN[6] I *D CF_SRAM_1024x32
*I *3737:BEN[7] I *D CF_SRAM_1024x32
*I *3725:X O *D sky130_fd_sc_hd__buf_12
*CAP
1 *3737:BEN[0] 0.000505265
2 *3737:BEN[1] 0.000851665
3 *3737:BEN[2] 0.00016935
4 *3737:BEN[3] 0.000170038
5 *3737:BEN[4] 0.000145144
6 *3737:BEN[5] 0.00117434
7 *3737:BEN[6] 0.000535504
8 *3737:BEN[7] 0.000459713
9 *3725:X 0.000947459
10 *244:106 0.000660371
11 *244:94 0.000472608
12 *244:82 0.000568719
13 *244:50 0.00172535
14 *244:38 0.000794967
15 *244:34 0.00190044
16 *244:32 0.00270184
17 *244:28 0.00247419
18 *244:24 0.00256612
19 *244:24 *3649:A 1.7635e-05
20 *244:24 *3722:A 0.000309269
21 *244:24 *328:18 0.00315954
22 *244:24 *369:86 0.000634961
23 *244:28 *3576:A_N 0.000450259
24 *244:28 *3577:C 0.000594722
25 *244:28 *328:36 0.00198134
26 *244:28 *371:153 0.00060224
27 *244:32 *301:32 0
28 *244:34 *317:52 0.00401047
29 *244:34 *317:67 0.000218822
30 *430:DIODE *244:32 2.85364e-05
31 *3737:BEN[8] *244:34 0
32 *3737:DI[5] *244:82 0
33 *3737:DI[1] *3737:BEN[0] 0
34 *3737:DI[6] *3737:BEN[6] 1.1392e-05
35 *3737:DI[15] *244:32 0
36 *116:11 *244:32 0.00010633
37 *116:11 *244:34 0.00159124
38 *129:11 *244:34 0
39 *130:25 *3737:BEN[0] 0.000268513
40 *130:25 *3737:BEN[1] 0.000191478
41 *130:25 *244:106 0.000191478
42 *133:21 *3737:BEN[6] 2.52496e-05
43 *133:23 *244:32 0.00234925
44 *133:23 *244:34 0.000282117
45 *135:7 *3737:BEN[1] 0
46 *135:9 *3737:BEN[1] 0.000300562
47 *135:9 *244:94 0.000217889
48 *135:9 *244:106 0.000422008
49 *139:9 *3737:BEN[3] 0
50 *139:41 *244:24 0.00024059
51 *139:43 *244:24 0.00136646
52 *141:9 *3737:BEN[5] 0
53 *146:28 *3737:BEN[0] 0.000248289
54 *146:28 *3737:BEN[1] 0.000742374
55 *146:28 *244:82 0.000563976
56 *146:28 *244:94 0.000681317
57 *146:28 *244:106 0.000740019
58 *177:22 *244:32 0.00155853
59 *197:10 *3737:BEN[5] 0.000315595
60 *199:24 *244:82 0.000563976
61 *199:24 *244:94 0.000274602
62 *201:8 *3737:BEN[7] 7.77305e-05
63 *201:8 *244:38 4.35931e-05
64 *204:8 *3737:BEN[5] 5.83121e-06
65 *219:36 *244:28 0.00111723
66 *234:10 *3737:BEN[5] 0.000353504
67 *234:10 *244:34 0
68 *234:10 *244:50 0.00062084
69 *236:20 *244:24 5.05716e-06
70 *241:26 *244:24 0.000678124
71 *241:134 *244:34 0
72 *241:146 *244:34 0
*RES
1 *3725:X *244:24 41.705 
2 *244:24 *244:28 37.295 
3 *244:28 *244:32 28.7325 
4 *244:32 *244:34 55.3125 
5 *244:34 *244:38 3.14 
6 *244:38 *3737:BEN[7] 6.4575 
7 *244:38 *244:50 9.245 
8 *244:50 *3737:BEN[6] 9.4925 
9 *244:50 *3737:BEN[5] 18.6725 
10 *3737:BEN[5] *244:82 11.1725 
11 *244:82 *3737:BEN[4] 4.1825 
12 *244:82 *244:94 7.755 
13 *244:94 *3737:BEN[3] 4.7075 
14 *244:94 *244:106 8.265 
15 *244:106 *3737:BEN[2] 4.7225 
16 *244:106 *3737:BEN[1] 13.0025 
17 *3737:BEN[1] *3737:BEN[0] 13.975 
*END

*D_NET *245 0.000913689
*CONN
*I *3724:A I *D sky130_fd_sc_hd__dlygate4sd3_1
*I *3727:X O *D sky130_fd_sc_hd__dlygate4sd3_1
*CAP
1 *3724:A 0.000453929
2 *3727:X 0.000453929
3 *3727:A *3724:A 5.83121e-06
4 *3763:A *3724:A 0
*RES
1 *3727:X *3724:A 12.48 
*END

*D_NET *246 0.00267917
*CONN
*I *3788:A I *D sky130_fd_sc_hd__buf_12
*I *3728:X O *D sky130_fd_sc_hd__dlygate4sd3_1
*CAP
1 *3788:A 0.000647048
2 *3728:X 0.000647048
3 *3788:A *3706:A 1.56428e-05
4 *3788:A *3789:A 5.77052e-05
5 *3788:A *335:14 0.000480181
6 *3788:A *336:36 0
7 wbs_dat_o[2] *3788:A 0.000183043
8 *3730:A *3788:A 4.82863e-05
9 *181:24 *3788:A 0.000600216
*RES
1 *3728:X *3788:A 18.99 
*END

*D_NET *247 0.00915118
*CONN
*I *3649:A I *D sky130_fd_sc_hd__dlygate4sd3_1
*I *3757:X O *D sky130_fd_sc_hd__buf_2
*CAP
1 *3649:A 0.00296307
2 *3757:X 0.00296307
3 *3649:A *3812:A 0
4 *3649:A *281:26 0.00057148
5 *3658:A *3649:A 0.00155615
6 *121:40 *3649:A 1.81151e-05
7 *127:27 *3649:A 0
8 *153:12 *3649:A 0.00027318
9 *159:12 *3649:A 0.00051531
10 *162:24 *3649:A 0.00027318
11 *236:20 *3649:A 0
12 *244:24 *3649:A 1.7635e-05
*RES
1 *3757:X *3649:A 49.005 
*END

*D_NET *248 0.0301092
*CONN
*I *3737:BEN[23] I *D CF_SRAM_1024x32
*I *3737:BEN[22] I *D CF_SRAM_1024x32
*I *3737:BEN[21] I *D CF_SRAM_1024x32
*I *3737:BEN[20] I *D CF_SRAM_1024x32
*I *3737:BEN[19] I *D CF_SRAM_1024x32
*I *3737:BEN[18] I *D CF_SRAM_1024x32
*I *3737:BEN[17] I *D CF_SRAM_1024x32
*I *3737:BEN[16] I *D CF_SRAM_1024x32
*I *3729:X O *D sky130_fd_sc_hd__buf_12
*CAP
1 *3737:BEN[23] 0.000628892
2 *3737:BEN[22] 0.00130551
3 *3737:BEN[21] 0.000147415
4 *3737:BEN[20] 0.000140964
5 *3737:BEN[19] 9.58754e-05
6 *3737:BEN[18] 0.00013923
7 *3737:BEN[17] 0.000108882
8 *3737:BEN[16] 0.00134316
9 *3729:X 3.77254e-05
10 *248:75 0.00136477
11 *248:63 0.00115218
12 *248:51 0.00112535
13 *248:39 0.00117887
14 *248:27 0.00106052
15 *248:10 0.00301902
16 *248:8 0.00218457
17 *248:10 *3685:A 0.00120462
18 *248:10 *3737:vpwrpc 0.000593376
19 *248:10 *251:8 0.00537967
20 *248:10 *302:22 0.0015628
21 *248:10 *303:36 0.000121774
22 *248:27 *3737:WLBI 0
23 *248:27 *3737:TM 0.000190198
24 *3737:CLKin *3737:BEN[17] 0
25 *122:21 *248:39 1.79483e-05
26 *123:25 *248:51 1.79483e-05
27 *125:25 *248:63 1.79483e-05
28 *126:25 *248:75 1.79483e-05
29 *127:25 *3737:BEN[22] 1.79483e-05
30 *128:9 *3737:BEN[23] 0
31 *130:25 *3737:BEN[23] 0.000257946
32 *132:11 *3737:BEN[22] 0
33 *132:11 *3737:BEN[23] 0
34 *132:11 *248:27 0
35 *132:11 *248:39 0
36 *132:11 *248:51 0
37 *132:11 *248:63 0
38 *132:11 *248:75 0
39 *168:10 *248:10 0.00135053
40 *193:12 *248:10 0.000188182
41 *193:16 *248:10 0.00404605
42 *195:26 *248:27 9.13914e-05
43 *223:10 *248:10 0
*RES
1 *3729:X *248:8 4.05 
2 *248:8 *248:10 91.905 
3 *248:10 *3737:BEN[16] 14.18 
4 *3737:BEN[16] *248:27 10.865 
5 *248:27 *3737:BEN[17] 3.8 
6 *248:27 *248:39 7.755 
7 *248:39 *3737:BEN[18] 4.325 
8 *248:39 *248:51 9.03 
9 *248:51 *3737:BEN[19] 3.575 
10 *248:51 *248:63 7.5 
11 *248:63 *3737:BEN[20] 4.355 
12 *248:63 *248:75 8.265 
13 *248:75 *3737:BEN[21] 4.37 
14 *248:75 *3737:BEN[22] 12.65 
15 *3737:BEN[22] *3737:BEN[23] 13.975 
*END

*D_NET *249 0.0021714
*CONN
*I *3728:A I *D sky130_fd_sc_hd__dlygate4sd3_1
*I *3730:X O *D sky130_fd_sc_hd__dlygate4sd3_1
*CAP
1 *3728:A 0.000420794
2 *3730:X 0.000420794
3 *3728:A *327:22 0.000354379
4 wbs_dat_o[0] *3728:A 0.000122463
5 *3727:A *3728:A 0.000287534
6 *3730:A *3728:A 0.0001249
7 *3751:A *3728:A 0.000139238
8 *3786:A *3728:A 2.8185e-05
9 *181:24 *3728:A 0.000273114
*RES
1 *3730:X *3728:A 19.755 
*END

*D_NET *250 0.0023668
*CONN
*I *3789:A I *D sky130_fd_sc_hd__buf_12
*I *3731:X O *D sky130_fd_sc_hd__dlygate4sd3_1
*CAP
1 *3789:A 0.000428315
2 *3731:X 0.000428315
3 *3789:A *3706:A 4.35432e-05
4 *3789:A *325:14 6.53231e-05
5 *3789:A *336:36 0.000500082
6 wbs_dat_o[2] *3789:A 0.000159957
7 *3640:A *3789:A 0.000157959
8 *3641:A *3789:A 0
9 *3730:A *3789:A 7.35729e-05
10 *3788:A *3789:A 5.77052e-05
11 *115:41 *3789:A 0.000452028
*RES
1 *3731:X *3789:A 19.365 
*END

*D_NET *251 0.0345143
*CONN
*I *3737:BEN[31] I *D CF_SRAM_1024x32
*I *3737:BEN[30] I *D CF_SRAM_1024x32
*I *3737:BEN[29] I *D CF_SRAM_1024x32
*I *3737:BEN[28] I *D CF_SRAM_1024x32
*I *3737:BEN[27] I *D CF_SRAM_1024x32
*I *3737:BEN[26] I *D CF_SRAM_1024x32
*I *3737:BEN[25] I *D CF_SRAM_1024x32
*I *3737:BEN[24] I *D CF_SRAM_1024x32
*I *3732:X O *D sky130_fd_sc_hd__buf_12
*CAP
1 *3737:BEN[31] 0.000493738
2 *3737:BEN[30] 0.000128255
3 *3737:BEN[29] 8.18388e-05
4 *3737:BEN[28] 0.00111035
5 *3737:BEN[27] 0.00114745
6 *3737:BEN[26] 8.18388e-05
7 *3737:BEN[25] 0.00113883
8 *3737:BEN[24] 9.06728e-05
9 *3732:X 0
10 *251:116 6.44594e-06
11 *251:97 0.00121411
12 *251:85 0.00126925
13 *251:41 0.00126273
14 *251:12 0.00155367
15 *251:8 0.00382572
16 *251:6 0.00294661
17 *251:8 *3737:vpwrpc 0.000226236
18 *3737:DI[27] *3737:BEN[27] 0
19 *3737:DI[28] *3737:BEN[28] 0.000366166
20 *130:25 *3737:BEN[24] 0
21 *130:25 *3737:BEN[25] 1.79483e-05
22 *131:9 *251:41 1.04217e-05
23 *132:11 *3737:BEN[25] 0
24 *132:11 *3737:BEN[27] 0
25 *132:11 *251:41 0
26 *133:9 *3737:BEN[28] 1.35779e-05
27 *133:11 *3737:BEN[27] 0
28 *133:11 *3737:BEN[28] 0
29 *134:9 *251:85 0
30 *137:11 *3737:BEN[30] 0
31 *168:10 *251:8 0.00233122
32 *175:8 *251:8 0.00890378
33 *223:10 *251:8 0.000913727
34 *248:10 *251:8 0.00537967
*RES
1 *3732:X *251:6 3.6 
2 *251:6 *251:8 127.095 
3 *251:8 *251:12 13.49 
4 *251:12 *3737:BEN[24] 1.485 
5 *251:12 *3737:BEN[25] 13.42 
6 *3737:BEN[25] *251:41 10.64 
7 *251:41 *3737:BEN[26] 3.335 
8 *251:41 *3737:BEN[27] 11.615 
9 *3737:BEN[27] *3737:BEN[28] 14.665 
10 *3737:BEN[28] *251:85 11.615 
11 *251:85 *3737:BEN[29] 3.335 
12 *251:85 *251:97 9.03 
13 *251:97 *3737:BEN[30] 4.085 
14 *251:97 *3737:BEN[31] 9.785 
15 *3737:BEN[31] *251:116 0.105 
*END

*D_NET *252 0.00297533
*CONN
*I *3731:A I *D sky130_fd_sc_hd__dlygate4sd3_1
*I *3733:X O *D sky130_fd_sc_hd__dlygate4sd3_1
*CAP
1 *3731:A 0.000640426
2 *3733:X 0.000640426
3 *3731:A *3809:A 0.000339867
4 *3731:A *329:26 0.000235573
5 wbs_dat_o[1] *3731:A 8.65905e-05
6 *3641:A *3731:A 0.000235573
7 *3642:A *3731:A 0.000339313
8 *3730:A *3731:A 0.000445422
9 *170:28 *3731:A 1.21412e-05
*RES
1 *3733:X *3731:A 20.04 
*END

*D_NET *253 0.000293075
*CONN
*I *3599:A I *D sky130_fd_sc_hd__dlygate4sd3_1
*I *3734:X O *D sky130_fd_sc_hd__dlygate4sd3_1
*CAP
1 *3599:A 0.000122392
2 *3734:X 0.000122392
3 *3615:A *3599:A 0
4 *159:12 *3599:A 4.82919e-05
*RES
1 *3734:X *3599:A 9.03 
*END

*D_NET *254 0.00186405
*CONN
*I *3646:A I *D sky130_fd_sc_hd__dlygate4sd3_1
*I *3735:X O *D sky130_fd_sc_hd__dlygate4sd3_1
*CAP
1 *3646:A 0.000542033
2 *3735:X 0.000542033
3 *3646:A *325:26 0.000427876
4 wbs_dat_o[14] *3646:A 0
5 *3734:A *3646:A 0
6 *3756:A *3646:A 0.000200615
7 *115:39 *3646:A 0.000134314
8 *159:12 *3646:A 1.71773e-05
*RES
1 *3735:X *3646:A 16.98 
*END

*D_NET *255 0.000612687
*CONN
*I *3651:A I *D sky130_fd_sc_hd__dlygate4sd3_1
*I *3736:X O *D sky130_fd_sc_hd__dlygate4sd3_1
*CAP
1 *3651:A 0.000162361
2 *3736:X 0.000162361
3 *3651:A *3804:A 2.29541e-05
4 *3651:A *321:16 0
5 *3755:A *3651:A 6.84448e-05
6 *159:12 *3651:A 0.000196566
*RES
1 *3736:X *3651:A 10.41 
*END

*D_NET *256 0.00176892
*CONN
*I *3657:A I *D sky130_fd_sc_hd__dlygate4sd3_1
*I *3601:X O *D sky130_fd_sc_hd__dlygate4sd3_1
*CAP
1 *3657:A 0.000670446
2 *3601:X 0.000670446
3 *3736:A *3657:A 0
4 *115:39 *3657:A 0.000282306
5 *115:41 *3657:A 0.000145722
*RES
1 *3601:X *3657:A 16.245 
*END

*D_NET *257 0.00189641
*CONN
*I *3666:A I *D sky130_fd_sc_hd__dlygate4sd3_1
*I *3602:X O *D sky130_fd_sc_hd__dlygate4sd3_1
*CAP
1 *3666:A 0.000667736
2 *3602:X 0.000667736
3 *3666:A *3803:A 0.000560936
4 *3666:A *323:28 0
*RES
1 *3602:X *3666:A 15.9 
*END

*D_NET *258 0.0390165
*CONN
*I *3687:A I *D sky130_fd_sc_hd__dlygate4sd3_1
*I *3758:X O *D sky130_fd_sc_hd__buf_4
*CAP
1 *3687:A 8.2329e-05
2 *3758:X 0.000164272
3 *258:30 0.00176127
4 *258:28 0.00282475
5 *258:14 0.00670148
6 *258:12 0.00571996
7 *258:12 *320:12 7.06865e-05
8 *258:12 *332:38 0
9 *258:12 *350:26 5.83121e-06
10 *258:12 *367:52 4.29642e-05
11 *258:14 *3713:A 0.000314888
12 *258:14 *339:48 5.26385e-05
13 *258:28 *3817:A 8.76863e-05
14 *258:28 *302:20 1.46412e-05
15 *258:28 *304:14 0.000171074
16 *258:28 *308:8 0.000309277
17 *258:28 *339:48 0.000729312
18 *258:30 *3737:vpwrpc 0.00110051
19 *258:30 *302:20 9.23987e-05
20 *258:30 *327:65 0.000157915
21 *258:30 *327:69 8.76904e-05
22 *258:30 *339:52 0.00178688
23 *258:30 *339:54 1.19691e-05
24 *258:30 *350:64 0.00331763
25 *408:DIODE *258:28 0.000159947
26 *3785:A *258:12 0.000151873
27 *3:17 *258:28 6.89918e-05
28 *3:17 *258:30 0.000208088
29 *111:14 *258:12 2.75145e-05
30 *113:31 *258:14 0.00826857
31 *118:15 *258:30 0.00183548
32 *145:73 *258:14 0.000160538
33 *206:8 *3687:A 1.77665e-05
34 *219:40 *258:30 0.000704679
35 *219:42 *258:30 0.00180503
*RES
1 *3758:X *258:12 8.96 
2 *258:12 *258:14 77.04 
3 *258:14 *258:28 19.6325 
4 *258:28 *258:30 69.0825 
5 *258:30 *3687:A 4.74 
*END

*D_NET *259 0.0346588
*CONN
*I *3683:A I *D sky130_fd_sc_hd__dlygate4sd3_1
*I *3759:X O *D sky130_fd_sc_hd__clkbuf_4
*CAP
1 *3683:A 0.000872768
2 *3759:X 0.000235321
3 *259:34 0.0017497
4 *259:26 0.00240413
5 *259:18 0.00386279
6 *259:14 0.00257091
7 *3683:A *3685:A 0.000495068
8 *3683:A *3713:A 0.000512195
9 *3683:A *3720:A 0.000401153
10 *3683:A *270:38 0.0005454
11 *3683:A *302:22 0.00297638
12 *259:18 *326:24 0.00022105
13 *259:26 *3814:A 0.000761369
14 *259:26 *3815:A 8.73147e-06
15 *259:26 *3816:A 7.67022e-05
16 *259:26 *270:36 0.0017248
17 *259:34 *3674:A 0.000764488
18 *259:34 *292:18 0.00323679
19 *259:34 *305:10 0.00323679
20 wbs_dat_o[15] *259:14 4.82863e-05
21 wbs_dat_o[25] *259:26 7.17811e-05
22 *416:DIODE *259:18 0.000238231
23 *441:DIODE *259:26 0.00010163
24 *3615:A *259:14 2.47705e-05
25 *3737:DI[11] *3683:A 0.000501444
26 *3759:A *259:14 7.23602e-05
27 *115:13 *3683:A 7.26551e-05
28 *115:29 *259:14 9.72552e-05
29 *115:29 *259:18 0.00498941
30 *115:39 *259:14 8.34281e-06
31 *131:31 *259:26 0.000232728
32 *132:33 *259:26 0
33 *132:35 *259:26 0
34 *132:37 *259:26 0
35 *159:44 *259:26 0.00149737
36 *193:12 *3683:A 4.59815e-05
*RES
1 *3759:X *259:14 9.1775 
2 *259:14 *259:18 47.8175 
3 *259:18 *259:26 40.54 
4 *259:26 *259:34 42.91 
5 *259:34 *3683:A 38.67 
*END

*D_NET *260 0.000262791
*CONN
*I *3682:A I *D sky130_fd_sc_hd__dlygate4sd3_1
*I *3603:X O *D sky130_fd_sc_hd__dlygate4sd3_1
*CAP
1 *3682:A 6.0789e-05
2 *3603:X 6.0789e-05
3 *3682:A *3800:A 8.53113e-06
4 *3682:A *323:28 0.000115047
5 *3603:A *3682:A 0
6 *3693:A *3682:A 1.7635e-05
7 *3752:A *3682:A 0
*RES
1 *3603:X *3682:A 8.58 
*END

*D_NET *261 0.000588167
*CONN
*I *3633:A I *D sky130_fd_sc_hd__dlygate4sd3_1
*I *3604:X O *D sky130_fd_sc_hd__dlygate4sd3_1
*CAP
1 *3633:A 0.000133774
2 *3604:X 0.000133774
3 *3633:A *3799:A 0
4 *3633:A *3800:A 0.00016031
5 *159:8 *3633:A 0.00016031
*RES
1 *3604:X *3633:A 10.065 
*END

*D_NET *262 9.40065e-05
*CONN
*I *3653:A I *D sky130_fd_sc_hd__dlygate4sd3_1
*I *3605:X O *D sky130_fd_sc_hd__dlygate4sd3_1
*CAP
1 *3653:A 7.00326e-06
2 *3605:X 7.00326e-06
3 *3653:A *3803:A 3.00381e-05
4 *3605:A *3653:A 4.99619e-05
*RES
1 *3605:X *3653:A 3.65 
*END

*D_NET *263 0.000207663
*CONN
*I *3662:A I *D sky130_fd_sc_hd__dlygate4sd3_1
*I *3606:X O *D sky130_fd_sc_hd__dlygate4sd3_1
*CAP
1 *3662:A 7.52577e-05
2 *3606:X 7.52577e-05
3 *3796:A *3662:A 5.71481e-05
*RES
1 *3606:X *3662:A 8.58 
*END

*D_NET *264 0.000389812
*CONN
*I *3664:A I *D sky130_fd_sc_hd__dlygate4sd3_1
*I *3607:X O *D sky130_fd_sc_hd__dlygate4sd3_1
*CAP
1 *3664:A 0.000149288
2 *3607:X 0.000149288
3 *3639:A *3664:A 2.97004e-06
4 *115:41 *3664:A 8.8266e-05
*RES
1 *3607:X *3664:A 9.375 
*END

*D_NET *265 0.000993691
*CONN
*I *3670:A I *D sky130_fd_sc_hd__dlygate4sd3_1
*I *3608:X O *D sky130_fd_sc_hd__dlygate4sd3_1
*CAP
1 *3670:A 0.000301689
2 *3608:X 0.000301689
3 *3670:A *3807:A 0
4 *3670:A *3810:A 0
5 wbs_dat_o[18] *3670:A 6.66489e-05
6 *3608:A *3670:A 0.000122155
7 *115:29 *3670:A 0.000201508
*RES
1 *3608:X *3670:A 13.215 
*END

*D_NET *266 0.00268835
*CONN
*I *3668:A I *D sky130_fd_sc_hd__dlygate4sd3_1
*I *3609:X O *D sky130_fd_sc_hd__dlygate4sd3_1
*CAP
1 *3668:A 0.000798169
2 *3609:X 0.000798169
3 *3588:RESET_B *3668:A 0.00020892
4 *3781:A *3668:A 0.000883093
*RES
1 *3609:X *3668:A 14.375 
*END

*D_NET *267 0.000948894
*CONN
*I *3684:A I *D sky130_fd_sc_hd__dlygate4sd3_1
*I *3610:X O *D sky130_fd_sc_hd__dlygate4sd3_1
*CAP
1 *3684:A 0.000299234
2 *3610:X 0.000299234
3 *3684:A *3677:A 0
4 wbs_dat_o[20] *3684:A 9.05814e-05
5 *3610:A *3684:A 9.74299e-05
6 *3616:A *3684:A 0
7 *115:29 *3684:A 0.000162415
*RES
1 *3610:X *3684:A 12.87 
*END

*D_NET *268 0.000990035
*CONN
*I *3675:A I *D sky130_fd_sc_hd__dlygate4sd3_1
*I *3612:X O *D sky130_fd_sc_hd__dlygate4sd3_1
*CAP
1 *3675:A 0.000261631
2 *3612:X 0.000261631
3 *3675:A *3807:A 0
4 *3760:A *3675:A 8.8266e-05
5 *159:12 *3675:A 0.000378508
*RES
1 *3612:X *3675:A 12.135 
*END

*D_NET *269 0.000554056
*CONN
*I *3677:A I *D sky130_fd_sc_hd__dlygate4sd3_1
*I *3613:X O *D sky130_fd_sc_hd__dlygate4sd3_1
*CAP
1 *3677:A 0.000115932
2 *3613:X 0.000115932
3 *3677:A *270:28 6.33103e-05
4 *3684:A *3677:A 0
5 *3762:A *3677:A 3.14086e-05
6 *159:12 *3677:A 0.000118081
7 *236:20 *3677:A 0.000109393
*RES
1 *3613:X *3677:A 9.72 
*END

*D_NET *270 0.0318799
*CONN
*I *3676:A I *D sky130_fd_sc_hd__dlygate4sd3_1
*I *3760:X O *D sky130_fd_sc_hd__clkbuf_4
*CAP
1 *3676:A 0
2 *3760:X 0.00243475
3 *270:38 0.00160488
4 *270:36 0.00297231
5 *270:28 0.00380218
6 *270:28 *3811:A 0.000525728
7 *270:28 *292:10 0.000223489
8 *270:28 *301:32 0.000133458
9 *270:36 *303:24 0.00132103
10 *270:36 *303:34 2.45737e-05
11 *270:38 *3737:vpwrpc 0.0013608
12 wbs_dat_o[21] *270:28 0.000112783
13 *414:DIODE *270:28 0.000132005
14 *429:DIODE *270:36 0.000405745
15 *3618:A *270:28 0.000382776
16 *3677:A *270:28 6.33103e-05
17 *3683:A *270:38 0.0005454
18 *3761:A *270:28 8.23457e-05
19 *3762:A *270:28 4.75991e-05
20 *3764:A *270:28 8.58181e-05
21 *115:13 *270:38 0.000690545
22 *115:17 *270:38 1.10631e-05
23 *117:13 *270:38 0.00240169
24 *159:12 *270:28 0.000698127
25 *159:36 *270:28 0.000991079
26 *159:44 *270:36 0.000210965
27 *173:16 *270:36 0.000600612
28 *186:28 *270:38 0.000407961
29 *193:12 *270:38 0.00135075
30 *219:42 *270:38 0.00653134
31 *259:26 *270:36 0.0017248
*RES
1 *3760:X *270:28 48.625 
2 *270:28 *270:36 37.285 
3 *270:36 *270:38 75.075 
4 *270:38 *3676:A 3.6 
*END

*D_NET *271 0.00096672
*CONN
*I *3690:A I *D sky130_fd_sc_hd__dlygate4sd3_1
*I *3614:X O *D sky130_fd_sc_hd__dlygate4sd3_1
*CAP
1 *3690:A 5.0357e-05
2 *3614:X 5.0357e-05
3 *3690:A *281:26 0.000433003
4 *3690:A *301:32 0.000433003
*RES
1 *3614:X *3690:A 7.1 
*END

*D_NET *272 0.00187667
*CONN
*I *3681:A I *D sky130_fd_sc_hd__dlygate4sd3_1
*I *3615:X O *D sky130_fd_sc_hd__dlygate4sd3_1
*CAP
1 *3681:A 0.000315222
2 *3615:X 0.000315222
3 *3681:A *3805:A 0.000108833
4 *3681:A *3806:A 0.000153816
5 *3681:A *325:26 0.00035215
6 wbs_dat_o[16] *3681:A 9.45727e-05
7 *3612:A *3681:A 0
8 *3759:A *3681:A 5.12944e-06
9 *115:29 *3681:A 0.00053173
*RES
1 *3615:X *3681:A 15.81 
*END

*D_NET *273 0.00153364
*CONN
*I *3688:A I *D sky130_fd_sc_hd__dlygate4sd3_1
*I *3616:X O *D sky130_fd_sc_hd__dlygate4sd3_1
*CAP
1 *3688:A 0.000220825
2 *3616:X 0.000220825
3 *3688:A *3813:A 0.000385627
4 wbs_dat_o[21] *3688:A 0
5 *3614:A *3688:A 0.000135923
6 *115:29 *3688:A 0.000570434
*RES
1 *3616:X *3688:A 14.115 
*END

*D_NET *274 0.000120528
*CONN
*I *3679:A I *D sky130_fd_sc_hd__dlygate4sd3_1
*I *3617:X O *D sky130_fd_sc_hd__dlygate4sd3_1
*CAP
1 *3679:A 1.36534e-05
2 *3617:X 1.36534e-05
3 *3617:A *3679:A 4.66108e-05
4 *3781:A *3679:A 4.66108e-05
*RES
1 *3617:X *3679:A 3.65 
*END

*D_NET *275 0.000848537
*CONN
*I *3692:A I *D sky130_fd_sc_hd__dlygate4sd3_1
*I *3618:X O *D sky130_fd_sc_hd__dlygate4sd3_1
*CAP
1 *3692:A 0.000278599
2 *3618:X 0.000278599
3 *3692:A *303:24 6.45107e-05
4 *3692:A *304:14 0
5 *3692:A *350:54 0.000100139
6 *3619:A *3692:A 5.23794e-05
7 *121:40 *3692:A 7.43094e-05
*RES
1 *3618:X *3692:A 12.45 
*END

*D_NET *276 0.000260191
*CONN
*I *3697:A I *D sky130_fd_sc_hd__dlygate4sd3_1
*I *3619:X O *D sky130_fd_sc_hd__dlygate4sd3_1
*CAP
1 *3697:A 3.80827e-05
2 *3619:X 3.80827e-05
3 *3697:A *281:26 0.000119246
4 *3697:A *301:32 6.47801e-05
*RES
1 *3619:X *3697:A 4.34 
*END

*D_NET *277 0.00253445
*CONN
*I *3660:A I *D sky130_fd_sc_hd__dlygate4sd3_1
*I *3620:X O *D sky130_fd_sc_hd__dlygate4sd3_1
*CAP
1 *3660:A 0.000607827
2 *3620:X 0.000607827
3 *3660:A *3717:A 0.000399126
4 *3660:A *317:30 0.000106164
5 wbs_dat_o[0] *3660:A 0.000123225
6 *3727:A *3660:A 0.000137209
7 *3751:A *3660:A 0.000134424
8 *3775:A *3660:A 0.000308719
9 *3786:A *3660:A 6.10014e-05
10 *3787:A *3660:A 4.89295e-05
*RES
1 *3620:X *3660:A 20.145 
*END

*D_NET *278 0.00292441
*CONN
*I *3699:A I *D sky130_fd_sc_hd__dlygate4sd3_1
*I *3621:X O *D sky130_fd_sc_hd__dlygate4sd3_1
*CAP
1 *3699:A 0.000674479
2 *3621:X 0.000674479
3 *3699:A *3561:C 3.67779e-05
4 *3699:A *327:22 4.9253e-06
5 *3699:A *328:16 0.000607565
6 *3699:A *335:14 8.71001e-05
7 *3699:A *336:36 2.46007e-05
8 *3699:A *366:32 0.000147088
9 *3699:A *368:30 1.51915e-05
10 *3699:A *368:34 0.000123438
11 *3699:A *369:12 1.74476e-05
12 *3699:A *370:48 3.86439e-05
13 *461:DIODE *3699:A 4.43682e-05
14 *3778:A *3699:A 4.82863e-05
15 *117:21 *3699:A 0.000107932
16 *181:24 *3699:A 0.00027209
*RES
1 *3621:X *3699:A 22.08 
*END

*D_NET *279 0.00224809
*CONN
*I *3708:A I *D sky130_fd_sc_hd__dlygate4sd3_1
*I *3623:X O *D sky130_fd_sc_hd__dlygate4sd3_1
*CAP
1 *3708:A 0.000354741
2 *3623:X 0.000354741
3 *3708:A *3814:A 0
4 wbs_dat_o[24] *3708:A 0.000340475
5 *426:DIODE *3708:A 6.07071e-05
6 *3623:A *3708:A 0.000212193
7 *3627:A *3708:A 0.000179711
8 *115:29 *3708:A 0.00070862
9 *132:49 *3708:A 3.69062e-05
*RES
1 *3623:X *3708:A 18.045 
*END

*D_NET *280 0.000998325
*CONN
*I *3704:A I *D sky130_fd_sc_hd__dlygate4sd3_1
*I *3624:X O *D sky130_fd_sc_hd__dlygate4sd3_1
*CAP
1 *3704:A 0.000240865
2 *3624:X 0.000240865
3 wbs_dat_o[27] *3704:A 0.000132106
4 *3624:A *3704:A 0.000130453
5 *3772:A *3704:A 0.000120584
6 *3:17 *3704:A 0.000133451
*RES
1 *3624:X *3704:A 12.045 
*END

*D_NET *281 0.0322253
*CONN
*I *3672:A I *D sky130_fd_sc_hd__dlygate4sd3_1
*I *3761:X O *D sky130_fd_sc_hd__clkbuf_4
*CAP
1 *3672:A 6.03993e-05
2 *3761:X 0.00140818
3 *281:38 0.00155187
4 *281:36 0.00238816
5 *281:26 0.00230487
6 *281:26 *3813:A 6.88421e-05
7 *281:26 *292:10 0
8 *281:26 *301:32 0.000957723
9 *281:26 *302:8 0.00221828
10 *281:26 *339:48 3.94107e-05
11 *281:36 *3713:A 0.000137093
12 *281:36 *3817:A 0.000745941
13 *281:36 *292:18 0.00068669
14 *281:36 *302:20 0.00028274
15 *281:36 *302:22 1.9238e-05
16 *281:36 *305:10 0.00017735
17 *281:38 *3713:A 0.00100222
18 *281:38 *292:18 1.46216e-05
19 *281:38 *302:22 0.00659132
20 *281:38 *303:36 0.00655906
21 *3577:D *281:36 0.000132935
22 *3614:A *281:26 0.000119246
23 *3619:A *281:26 4.82919e-05
24 *3627:A *281:26 6.14776e-05
25 *3649:A *281:26 0.00057148
26 *3690:A *281:26 0.000433003
27 *3697:A *281:26 0.000119246
28 *113:29 *281:26 0.000158847
29 *115:27 *281:36 0.000456648
30 *120:40 *281:36 0.00029619
31 *129:52 *281:26 6.88421e-05
32 *132:39 *281:26 0.000111749
33 *132:41 *281:26 0.000169344
34 *132:47 *281:26 0.000161345
35 *132:49 *281:26 2.7881e-05
36 *139:29 *281:36 0.000519209
37 *142:9 *3672:A 0.000153816
38 *159:12 *281:26 0.00135014
39 *190:8 *3672:A 5.16211e-05
*RES
1 *3761:X *281:26 49.39 
2 *281:26 *281:36 30.5425 
3 *281:36 *281:38 75.7125 
4 *281:38 *3672:A 5.085 
*END

*D_NET *282 0.000398468
*CONN
*I *3726:A I *D sky130_fd_sc_hd__dlygate4sd3_1
*I *3625:X O *D sky130_fd_sc_hd__dlygate4sd3_1
*CAP
1 *3726:A 0.000117058
2 *3625:X 0.000117058
3 *170:28 *3726:A 0.000164352
*RES
1 *3625:X *3726:A 5.72 
*END

*D_NET *283 0.00137555
*CONN
*I *3611:A I *D sky130_fd_sc_hd__dlygate4sd3_1
*I *3626:X O *D sky130_fd_sc_hd__dlygate4sd3_1
*CAP
1 *3611:A 0.000367006
2 *3626:X 0.000367006
3 *3611:A *3818:A 0.00032222
4 *3611:A *305:10 0
5 *3611:A *307:8 0
6 wbs_dat_o[28] *3611:A 0
7 *113:29 *3611:A 0.000118606
8 *121:32 *3611:A 0.000200713
*RES
1 *3626:X *3611:A 15.255 
*END

*D_NET *284 0.000476499
*CONN
*I *3710:A I *D sky130_fd_sc_hd__dlygate4sd3_1
*I *3627:X O *D sky130_fd_sc_hd__dlygate4sd3_1
*CAP
1 *3710:A 0.000149638
2 *3627:X 0.000149638
3 *3710:A *301:32 2.68526e-05
4 *3710:A *302:8 4.66108e-05
5 wbs_dat_o[26] *3710:A 5.71481e-05
6 *121:32 *3710:A 4.66108e-05
*RES
1 *3627:X *3710:A 9.48 
*END

*D_NET *285 0.00105879
*CONN
*I *3644:A I *D sky130_fd_sc_hd__dlygate4sd3_1
*I *3628:X O *D sky130_fd_sc_hd__dlygate4sd3_1
*CAP
1 *3644:A 0.000372746
2 *3628:X 0.000372746
3 *3644:A *3717:A 2.68464e-05
4 wbs_dat_o[0] *3644:A 0
5 *3642:A *3644:A 8.37038e-05
6 *3751:A *3644:A 0.00020275
7 *3763:A *3644:A 0
*RES
1 *3628:X *3644:A 14.115 
*END

*D_NET *286 0.000636528
*CONN
*I *3648:A I *D sky130_fd_sc_hd__dlygate4sd3_1
*I *3629:X O *D sky130_fd_sc_hd__dlygate4sd3_1
*CAP
1 *3648:A 0.000217993
2 *3629:X 0.000217993
3 *3648:A *311:10 0
4 *3648:A *313:10 1.89685e-05
5 *456:DIODE *3648:A 2.75436e-05
6 *3629:A *3648:A 2.11084e-05
7 *3630:A *3648:A 9.30717e-05
8 *137:46 *3648:A 3.98506e-05
*RES
1 *3629:X *3648:A 11.07 
*END

*D_NET *287 0.00165573
*CONN
*I *3655:A I *D sky130_fd_sc_hd__dlygate4sd3_1
*I *3630:X O *D sky130_fd_sc_hd__dlygate4sd3_1
*CAP
1 *3655:A 0.00050049
2 *3630:X 0.00050049
3 *3655:A *3818:A 0.000121561
4 *3655:A *3821:A 0.000108706
5 *3655:A *3822:A 0
6 *3655:A *311:8 0.000344035
7 wbs_dat_o[28] *3655:A 5.06547e-05
8 *3774:A *3655:A 2.97897e-05
*RES
1 *3630:X *3655:A 15.015 
*END

*D_NET *288 0.000619435
*CONN
*I *3659:A I *D sky130_fd_sc_hd__dlygate4sd3_1
*I *3631:X O *D sky130_fd_sc_hd__dlygate4sd3_1
*CAP
1 *3659:A 0.000208128
2 *3631:X 0.000208128
3 *3777:A *3659:A 0.000203178
*RES
1 *3631:X *3659:A 7.1 
*END

*D_NET *289 9.42304e-05
*CONN
*I *3673:A I *D sky130_fd_sc_hd__dlygate4sd3_1
*I *3632:X O *D sky130_fd_sc_hd__dlygate4sd3_1
*CAP
1 *3673:A 8.30169e-06
2 *3632:X 8.30169e-06
3 *3673:A *324:16 2.86975e-05
4 *159:8 *3673:A 4.89295e-05
*RES
1 *3632:X *3673:A 3.65 
*END

*D_NET *290 0.00204653
*CONN
*I *3686:A I *D sky130_fd_sc_hd__dlygate4sd3_1
*I *3634:X O *D sky130_fd_sc_hd__dlygate4sd3_1
*CAP
1 *3686:A 0.000328482
2 *3634:X 0.000328482
3 *3686:A *3800:A 0.000163199
4 *3686:A *3829:A 2.99518e-06
5 *3686:A *325:14 0.000213992
6 wbs_dat_o[10] *3686:A 0
7 wbs_dat_o[9] *3686:A 0.000237243
8 *3603:A *3686:A 0
9 *3632:A *3686:A 0.000341386
10 *115:41 *3686:A 0.000267557
11 *159:8 *3686:A 0.000163199
*RES
1 *3634:X *3686:A 17.115 
*END

*D_NET *291 0.000190869
*CONN
*I *3695:A I *D sky130_fd_sc_hd__dlygate4sd3_1
*I *3635:X O *D sky130_fd_sc_hd__dlygate4sd3_1
*CAP
1 *3695:A 9.54343e-05
2 *3635:X 9.54343e-05
3 *3604:A *3695:A 0
*RES
1 *3635:X *3695:A 8.58 
*END

*D_NET *292 0.0315826
*CONN
*I *3678:A I *D sky130_fd_sc_hd__dlygate4sd3_1
*I *3762:X O *D sky130_fd_sc_hd__clkbuf_4
*CAP
1 *3678:A 0.000651964
2 *3762:X 0.00239838
3 *292:18 0.00214964
4 *292:16 0.00177992
5 *292:10 0.00268062
6 *3678:A *303:36 1.13272e-05
7 *3678:A *305:10 0.00174308
8 *292:10 *3810:A 2.10152e-05
9 *292:10 *3811:A 4.7662e-05
10 *292:10 *305:8 0.000644877
11 *292:10 *339:48 0.000650408
12 *292:16 *301:36 0.000780508
13 *292:18 *3674:A 0.000836186
14 *292:18 *3705:A 0.00024193
15 *292:18 *3720:A 0.000251471
16 *292:18 *303:36 0.00536491
17 *292:18 *305:10 0.00135574
18 wbs_dat_o[20] *292:10 0.000235669
19 wbs_dat_o[21] *292:10 0.000913297
20 wbs_dat_o[25] *292:10 0.000416828
21 *3616:A *292:10 0.000111285
22 *3618:A *292:10 0.000234786
23 *3627:A *292:10 0.000370812
24 *113:29 *292:10 4.19426e-05
25 *129:15 *292:16 1.52352e-05
26 *132:25 *292:16 0.000262185
27 *153:16 *292:16 8.26988e-05
28 *159:36 *292:10 0.000418073
29 *186:16 *292:16 0.000998473
30 *223:10 *3678:A 0.00171011
31 *259:34 *292:18 0.00323679
32 *270:28 *292:10 0.000223489
33 *281:26 *292:10 0
34 *281:36 *292:18 0.00068669
35 *281:38 *292:18 1.46216e-05
*RES
1 *3762:X *292:10 48.36 
2 *292:10 *292:16 14.8 
3 *292:16 *292:18 69.8475 
4 *292:18 *3678:A 26.6925 
*END

*D_NET *293 0.00110195
*CONN
*I *3701:A I *D sky130_fd_sc_hd__dlygate4sd3_1
*I *3636:X O *D sky130_fd_sc_hd__dlygate4sd3_1
*CAP
1 *3701:A 0.000412525
2 *3636:X 0.000412525
3 *3605:A *3701:A 0
4 *115:41 *3701:A 0.000276898
*RES
1 *3636:X *3701:A 13.14 
*END

*D_NET *294 0.000349403
*CONN
*I *3703:A I *D sky130_fd_sc_hd__dlygate4sd3_1
*I *3637:X O *D sky130_fd_sc_hd__dlygate4sd3_1
*CAP
1 *3703:A 9.44016e-05
2 *3637:X 9.44016e-05
3 *3703:A *3827:A 0.000110618
4 *3703:A *323:28 2.49909e-05
5 *3703:A *324:16 2.49909e-05
6 *3782:A *3703:A 0
*RES
1 *3637:X *3703:A 9.03 
*END

*D_NET *295 0.00158477
*CONN
*I *3706:A I *D sky130_fd_sc_hd__dlygate4sd3_1
*I *3638:X O *D sky130_fd_sc_hd__dlygate4sd3_1
*CAP
1 *3706:A 0.000470314
2 *3638:X 0.000470314
3 *3706:A *336:36 0.000313857
4 *3641:A *3706:A 0.000144458
5 *3730:A *3706:A 7.68414e-06
6 *3788:A *3706:A 1.56428e-05
7 *3789:A *3706:A 4.35432e-05
8 *115:49 *3706:A 0.000118956
*RES
1 *3638:X *3706:A 14.865 
*END

*D_NET *296 0.000469899
*CONN
*I *3712:A I *D sky130_fd_sc_hd__dlygate4sd3_1
*I *3639:X O *D sky130_fd_sc_hd__dlygate4sd3_1
*CAP
1 *3712:A 0.000117336
2 *3639:X 0.000117336
3 *3712:A *324:16 4.66108e-05
4 *3712:A *350:26 4.66108e-05
5 *3639:A *3712:A 0.000114492
6 *3781:A *3712:A 2.75145e-05
7 *3794:A *3712:A 0
*RES
1 *3639:X *3712:A 9.48 
*END

*D_NET *297 0.00109577
*CONN
*I *3714:A I *D sky130_fd_sc_hd__dlygate4sd3_1
*I *3640:X O *D sky130_fd_sc_hd__dlygate4sd3_1
*CAP
1 *3714:A 0.000480819
2 *3640:X 0.000480819
3 *3714:A *3797:A 0
4 *3588:RESET_B *3714:A 0
5 *3621:A *3714:A 0
6 *3779:A *3714:A 0.000134134
*RES
1 *3640:X *3714:A 13.68 
*END

*D_NET *298 0.00116312
*CONN
*I *3719:A I *D sky130_fd_sc_hd__dlygate4sd3_1
*I *3641:X O *D sky130_fd_sc_hd__dlygate4sd3_1
*CAP
1 *3719:A 0.000315652
2 *3641:X 0.000315652
3 *3719:A *3809:A 3.54966e-05
4 *3588:RESET_B *3719:A 0.000382527
5 *170:28 *3719:A 0.000113797
*RES
1 *3641:X *3719:A 12.135 
*END

*D_NET *299 0.00173655
*CONN
*I *3717:A I *D sky130_fd_sc_hd__dlygate4sd3_1
*I *3642:X O *D sky130_fd_sc_hd__dlygate4sd3_1
*CAP
1 *3717:A 0.000238914
2 *3642:X 0.000238914
3 *3717:A *329:26 8.53113e-06
4 wbs_dat_o[0] *3717:A 0.000123225
5 *3554:A *3717:A 2.60986e-05
6 *3642:A *3717:A 0.000636943
7 *3644:A *3717:A 2.68464e-05
8 *3660:A *3717:A 0.000399126
9 *3751:A *3717:A 7.11235e-06
10 *3775:A *3717:A 1.34503e-05
11 *3786:A *3717:A 1.73877e-05
*RES
1 *3642:X *3717:A 15.57 
*END

*D_NET *300 0.0123089
*CONN
*I *3600:A I *D sky130_fd_sc_hd__dlygate4sd3_1
*I *3763:X O *D sky130_fd_sc_hd__buf_4
*CAP
1 *3600:A 0
2 *3763:X 0.000643077
3 *300:12 0.00305576
4 *300:10 0.00369883
5 *300:12 *3553:A 0.000495101
6 *300:12 *3665:A 0.00132985
7 *300:12 *312:22 0.00061044
8 *300:12 *316:20 0.00234508
9 *146:26 *300:12 0.000130797
*RES
1 *3763:X *300:10 15.65 
2 *300:10 *300:12 68.76 
3 *300:12 *3600:A 1.6 
*END

*D_NET *301 0.0328473
*CONN
*I *3685:A I *D sky130_fd_sc_hd__dlygate4sd3_1
*I *3764:X O *D sky130_fd_sc_hd__clkbuf_4
*CAP
1 *3685:A 0.00108064
2 *3764:X 0.00199642
3 *301:38 0.00243233
4 *301:36 0.00182101
5 *301:32 0.00246574
6 *3685:A *3737:vpwrpc 0.000393017
7 *3685:A *302:22 0.00012275
8 *3685:A *304:16 0.000366728
9 *301:32 *302:8 0.000270993
10 *301:32 *325:34 7.06283e-05
11 *301:32 *325:36 0
12 *301:38 *305:10 0.000148445
13 *301:38 *308:10 0.00587934
14 wbs_dat_o[26] *301:32 4.6037e-05
15 *3614:A *301:32 0.000174273
16 *3619:A *301:32 4.82919e-05
17 *3683:A *3685:A 0.000495068
18 *3690:A *301:32 0.000433003
19 *3697:A *301:32 6.47801e-05
20 *3702:A *301:38 0.00136723
21 *3710:A *301:32 2.68526e-05
22 *3765:A *301:32 0.00032353
23 *3768:A *301:32 6.96014e-05
24 *3770:A *301:32 0.000266537
25 *3771:A *301:32 0.000253082
26 *132:25 *301:32 2.56752e-06
27 *134:11 *301:38 0.00530923
28 *134:17 *301:38 0.000183738
29 *143:13 *3685:A 0.000366728
30 *144:9 *3685:A 6.5172e-05
31 *153:16 *301:36 7.35651e-05
32 *159:12 *301:32 0.000278111
33 *159:36 *301:32 0.000958348
34 *193:12 *3685:A 0.00191724
35 *244:32 *301:32 0
36 *248:10 *3685:A 0.00120462
37 *270:28 *301:32 0.000133458
38 *281:26 *301:32 0.000957723
39 *292:16 *301:36 0.000780508
*RES
1 *3764:X *301:32 49.685 
2 *301:32 *301:36 11.075 
3 *301:36 *301:38 67.425 
4 *301:38 *3685:A 44.255 
*END

*D_NET *302 0.0305872
*CONN
*I *3689:A I *D sky130_fd_sc_hd__dlygate4sd3_1
*I *3765:X O *D sky130_fd_sc_hd__clkbuf_4
*CAP
1 *3689:A 7.05051e-05
2 *3765:X 0.00142457
3 *302:22 0.00190136
4 *302:20 0.00269441
5 *302:8 0.00228813
6 *302:20 *3817:A 0.000233232
7 *302:22 *3713:A 0.00101014
8 *302:22 *303:36 0.000704675
9 wbs_dat_o[27] *302:8 0.000122331
10 *412:DIODE *302:8 0.000236556
11 *3614:A *302:8 0.000304052
12 *3683:A *302:22 0.00297638
13 *3685:A *302:22 0.00012275
14 *3710:A *302:8 4.66108e-05
15 *3737:DI[11] *302:22 1.34361e-05
16 *3737:DI[5] *3689:A 6.33103e-05
17 *3766:A *302:8 0.000318091
18 *3770:A *302:8 9.73633e-05
19 *3771:A *302:8 8.46717e-05
20 *115:13 *302:22 1.10631e-05
21 *115:17 *302:20 2.3824e-05
22 *115:17 *302:22 0.00308279
23 *115:27 *302:20 0.000235541
24 *117:13 *302:20 9.33406e-05
25 *134:17 *302:20 3.83194e-05
26 *134:23 *302:20 2.49909e-05
27 *134:25 *302:20 4.20436e-05
28 *134:27 *302:20 6.36186e-05
29 *134:29 *302:20 7.81629e-05
30 *134:31 *302:20 3.83389e-05
31 *134:33 *302:20 5.51782e-05
32 *134:35 *302:20 5.85267e-05
33 *134:41 *302:20 4.94537e-05
34 *134:43 *302:20 0
35 *159:12 *302:8 4.82863e-05
36 *182:12 *302:20 0.000229025
37 *219:40 *302:20 0.000649726
38 *248:10 *302:22 0.0015628
39 *258:28 *302:20 1.46412e-05
40 *258:30 *302:20 9.23987e-05
41 *281:26 *302:8 0.00221828
42 *281:36 *302:20 0.00028274
43 *281:36 *302:22 1.9238e-05
44 *281:38 *302:22 0.00659132
45 *301:32 *302:8 0.000270993
*RES
1 *3765:X *302:8 34.41 
2 *302:8 *302:20 26.0875 
3 *302:20 *302:22 90.5025 
4 *302:22 *3689:A 4.74 
*END

*D_NET *303 0.0315533
*CONN
*I *3691:A I *D sky130_fd_sc_hd__dlygate4sd3_1
*I *3766:X O *D sky130_fd_sc_hd__clkbuf_4
*CAP
1 *3691:A 0.000137271
2 *3766:X 0.00179988
3 *303:36 0.00207917
4 *303:34 0.00285558
5 *303:24 0.00271356
6 *303:24 *304:14 0.000130774
7 *303:24 *339:48 0.000164024
8 *303:24 *350:54 0.000352161
9 *303:36 *3713:A 0.00123552
10 *429:DIODE *303:34 9.50245e-05
11 *3678:A *303:36 1.13272e-05
12 *3692:A *303:24 6.45107e-05
13 *113:31 *303:24 3.54025e-05
14 *121:32 *303:24 0.000355759
15 *121:40 *303:24 2.19562e-06
16 *131:31 *303:34 0.000110059
17 *138:11 *303:34 0.000153004
18 *146:26 *303:34 0.000154353
19 *159:44 *303:24 0.00188511
20 *173:16 *303:34 2.76356e-05
21 *177:22 *303:24 0.000319918
22 *184:12 *303:34 5.83121e-06
23 *223:10 *303:36 0.00276916
24 *248:10 *303:36 0.000121774
25 *270:36 *303:24 0.00132103
26 *270:36 *303:34 2.45737e-05
27 *281:38 *303:36 0.00655906
28 *292:18 *303:36 0.00536491
29 *302:22 *303:36 0.000704675
*RES
1 *3766:X *303:24 48.335 
2 *303:24 *303:34 16.525 
3 *303:34 *303:36 93.69 
4 *303:36 *3691:A 5.43 
*END

*D_NET *304 0.0297536
*CONN
*I *3694:A I *D sky130_fd_sc_hd__dlygate4sd3_1
*I *3767:X O *D sky130_fd_sc_hd__clkbuf_4
*CAP
1 *3694:A 0.000350286
2 *3767:X 0.000821433
3 *304:16 0.00300872
4 *304:14 0.00347987
5 *304:14 *3816:A 0.000444839
6 *304:14 *308:8 0.000546815
7 *304:14 *339:48 0.00126295
8 *304:14 *350:54 0
9 *304:16 *3818:A 0.00020174
10 *304:16 *305:10 0
11 *304:16 *308:10 0.00988803
12 *3685:A *304:16 0.000366728
13 *3692:A *304:14 0
14 *120:40 *304:14 7.78242e-05
15 *136:13 *304:16 0.000371561
16 *143:13 *304:16 0.000410018
17 *143:15 *304:16 0.00497244
18 *145:73 *304:14 2.66861e-05
19 *145:77 *304:14 0.00125377
20 *153:18 *304:16 0.000138113
21 *190:10 *304:16 0.00182991
22 *258:28 *304:14 0.000171074
23 *303:24 *304:14 0.000130774
*RES
1 *3767:X *304:14 35.035 
2 *304:14 *304:16 114.345 
3 *304:16 *3694:A 8.19 
*END

*D_NET *305 0.0263123
*CONN
*I *3698:A I *D sky130_fd_sc_hd__dlygate4sd3_1
*I *3768:X O *D sky130_fd_sc_hd__clkbuf_4
*CAP
1 *3698:A 0.000144997
2 *3768:X 0.00141594
3 *305:10 0.00361048
4 *305:8 0.00488143
5 *305:10 *3674:A 0.000152503
6 *305:10 *3705:A 0.000239674
7 *305:10 *3818:A 0
8 *305:10 *308:10 0
9 wbs_dat_o[25] *305:8 2.05056e-05
10 wbs_dat_o[28] *305:10 8.53113e-06
11 *3611:A *305:10 0
12 *3624:A *305:8 0.00041713
13 *3678:A *305:10 0.00174308
14 *3702:A *305:10 6.21133e-05
15 *115:27 *305:10 0.000330003
16 *134:11 *305:10 0.00296233
17 *134:17 *305:10 0.000101317
18 *139:9 *3698:A 0.000303784
19 *221:10 *305:10 0.00347672
20 *223:10 *305:10 0.000878535
21 *259:34 *305:10 0.00323679
22 *281:36 *305:10 0.00017735
23 *292:10 *305:8 0.000644877
24 *292:18 *305:10 0.00135574
25 *301:38 *305:10 0.000148445
26 *304:16 *305:10 0
*RES
1 *3768:X *305:8 20.955 
2 *305:8 *305:10 123.015 
3 *305:10 *3698:A 6.465 
*END

*D_NET *306 0.0384753
*CONN
*I *3674:A I *D sky130_fd_sc_hd__dlygate4sd3_1
*I *3769:X O *D sky130_fd_sc_hd__buf_4
*CAP
1 *3674:A 0.00437222
2 *3769:X 0.00437222
3 *3674:A *3705:A 0.0159103
4 *3674:A *3713:A 0.0113443
5 *3674:A *326:24 0
6 *3769:A *3674:A 1.02692e-05
7 *120:40 *3674:A 0.000698393
8 *122:29 *3674:A 1.43776e-05
9 *259:34 *3674:A 0.000764488
10 *292:18 *3674:A 0.000836186
11 *305:10 *3674:A 0.000152503
*RES
1 *3769:X *3674:A 38.3751 
*END

*D_NET *307 0.0287344
*CONN
*I *3709:A I *D sky130_fd_sc_hd__dlygate4sd3_1
*I *3770:X O *D sky130_fd_sc_hd__clkbuf_4
*CAP
1 *3709:A 0.000564381
2 *3770:X 0
3 *307:8 0.00363778
4 *307:6 0.0030734
5 *307:8 *309:10 0.0107514
6 *307:8 *310:8 0.010608
7 wbs_dat_o[29] *307:8 9.93544e-05
8 *3611:A *307:8 0
*RES
1 *3770:X *307:6 3.6 
2 *307:6 *307:8 129.9 
3 *307:8 *3709:A 10.95 
*END

*D_NET *308 0.0277613
*CONN
*I *3711:A I *D sky130_fd_sc_hd__dlygate4sd3_1
*I *3771:X O *D sky130_fd_sc_hd__clkbuf_4
*CAP
1 *3711:A 0.000327398
2 *3771:X 0.000403342
3 *308:10 0.00327029
4 *308:8 0.00334623
5 *134:11 *308:10 0.00187621
6 *190:10 *308:10 0.000689244
7 *215:14 *308:10 0.00122514
8 *258:28 *308:8 0.000309277
9 *301:38 *308:10 0.00587934
10 *304:14 *308:8 0.000546815
11 *304:16 *308:10 0.00988803
12 *305:10 *308:10 0
*RES
1 *3771:X *308:8 12.33 
2 *308:8 *308:10 128.115 
3 *308:10 *3711:A 7.845 
*END

*D_NET *309 0.0293074
*CONN
*I *3715:A I *D sky130_fd_sc_hd__dlygate4sd3_1
*I *3772:X O *D sky130_fd_sc_hd__buf_4
*CAP
1 *3715:A 0.00052953
2 *3772:X 0.000124596
3 *309:10 0.00398294
4 *309:8 0.00357801
5 *309:8 *3818:A 0.000196566
6 *309:10 *3581:A_N 6.63004e-05
7 *309:10 *3818:A 0
8 *309:10 *3819:A 0.000129736
9 *309:10 *310:8 0.000380222
10 wbs_dat_o[28] *309:8 9.77048e-06
11 *3581:B *309:10 6.59891e-05
12 *3773:A *309:10 0.000136415
13 *140:11 *309:10 0.00806194
14 *164:28 *309:10 0.00129399
15 *307:8 *309:10 0.0107514
*RES
1 *3772:X *309:8 5.775 
2 *309:8 *309:10 136.275 
3 *309:10 *3715:A 10.605 
*END

*D_NET *310 0.0262336
*CONN
*I *3622:A I *D sky130_fd_sc_hd__dlygate4sd3_1
*I *3773:X O *D sky130_fd_sc_hd__buf_4
*CAP
1 *3622:A 0.000575859
2 *3773:X 0
3 *310:8 0.00446994
4 *310:6 0.00389408
5 wbs_dat_o[29] *310:8 8.57469e-05
6 *145:79 *310:8 0.00621973
7 *307:8 *310:8 0.010608
8 *309:10 *310:8 0.000380222
*RES
1 *3773:X *310:6 3.6 
2 *310:6 *310:8 138.57 
3 *310:8 *3622:A 11.295 
*END

*D_NET *311 0.0329858
*CONN
*I *3650:A I *D sky130_fd_sc_hd__dlygate4sd3_1
*I *3774:X O *D sky130_fd_sc_hd__buf_4
*CAP
1 *3650:A 0.000759789
2 *3774:X 0.000256332
3 *311:10 0.0036479
4 *311:8 0.00314444
5 *311:10 *3821:A 0
6 *311:10 *313:10 2.50049e-05
7 *311:10 *314:10 0.0124687
8 wbs_dat_o[28] *311:8 4.05674e-06
9 *3648:A *311:10 0
10 *3655:A *311:8 0.000344035
11 *121:22 *311:10 0.0123355
*RES
1 *3774:X *311:8 8.535 
2 *311:8 *311:10 144.435 
3 *311:10 *3650:A 14.055 
*END

*D_NET *312 0.0182942
*CONN
*I *3671:A I *D sky130_fd_sc_hd__dlygate4sd3_1
*I *466:DIODE I *D sky130_fd_sc_hd__diode_2
*I *3775:X O *D sky130_fd_sc_hd__buf_4
*CAP
1 *3671:A 6.86507e-05
2 *466:DIODE 0
3 *3775:X 0.00235998
4 *312:28 0.00146238
5 *312:22 0.00375371
6 *3671:A *315:40 6.84038e-05
7 *3671:A *321:16 0
8 *3671:A *327:57 3.70486e-05
9 *3671:A *329:61 6.3081e-05
10 *312:22 *3564:A_N 3.43685e-05
11 *312:22 *3564:B 3.64998e-06
12 *312:22 *3564:C 6.84448e-05
13 *312:22 *3593:A 0
14 *312:22 *316:20 0.00101644
15 *312:22 *327:22 0
16 *312:28 *321:16 0
17 *312:28 *371:42 0.00209351
18 *3590:A *3671:A 2.56752e-06
19 *3702:A *312:28 0.000341074
20 *3723:A *312:22 0.000121027
21 *116:19 *312:22 0
22 *135:21 *312:22 0.000263556
23 *139:43 *312:28 0.00472232
24 *140:19 *312:22 0.000261889
25 *164:12 *312:28 0.000801139
26 *170:28 *312:22 0.000133533
27 *170:69 *3671:A 7.00889e-06
28 *300:12 *312:22 0.00061044
*RES
1 *3775:X *312:22 44.835 
2 *312:22 *312:28 46.355 
3 *312:28 *466:DIODE 3.6 
4 *312:28 *3671:A 5.355 
*END

*D_NET *313 0.0333008
*CONN
*I *3656:A I *D sky130_fd_sc_hd__dlygate4sd3_1
*I *3776:X O *D sky130_fd_sc_hd__buf_4
*CAP
1 *3656:A 0.000621412
2 *3776:X 0.000331743
3 *313:10 0.00423513
4 *313:8 0.00394546
5 *313:8 *314:8 0.000441131
6 *313:10 *314:10 0.0128259
7 *3648:A *313:10 1.89685e-05
8 *3774:A *313:8 0.000342525
9 *3776:A *313:8 4.77719e-05
10 *113:11 *313:10 0
11 *122:21 *313:10 0.00155282
12 *137:44 *313:10 0
13 *137:46 *313:10 0
14 *139:11 *313:10 0.000330036
15 *142:11 *313:10 0.00783379
16 *188:16 *313:10 0.000749101
17 *311:10 *313:10 2.50049e-05
*RES
1 *3776:X *313:8 11.295 
2 *313:8 *313:10 147.24 
3 *313:10 *3656:A 12.33 
*END

*D_NET *314 0.0353148
*CONN
*I *3661:A I *D sky130_fd_sc_hd__dlygate4sd3_1
*I *3777:X O *D sky130_fd_sc_hd__buf_4
*CAP
1 *3661:A 0.000275149
2 *3777:X 0.000542942
3 *314:10 0.00327962
4 *314:8 0.00354741
5 *3776:A *314:8 4.77719e-05
6 *113:11 *314:10 0
7 *121:22 *314:10 0.000392193
8 *122:21 *314:10 0.0014939
9 *311:10 *314:10 0.0124687
10 *313:8 *314:8 0.000441131
11 *313:10 *314:10 0.0128259
*RES
1 *3777:X *314:8 13.365 
2 *314:8 *314:10 150.81 
3 *314:10 *3661:A 7.5 
*END

*D_NET *315 0.0176303
*CONN
*I *467:DIODE I *D sky130_fd_sc_hd__diode_2
*I *3700:A I *D sky130_fd_sc_hd__dlygate4sd3_1
*I *3778:X O *D sky130_fd_sc_hd__clkbuf_4
*CAP
1 *467:DIODE 0.000167786
2 *3700:A 0
3 *3778:X 0.00121011
4 *315:42 0.000211535
5 *315:40 0.00289536
6 *315:20 0.00406172
7 *467:DIODE *329:61 8.5108e-05
8 *467:DIODE *329:77 0.000173187
9 *315:20 *3584:A_N 6.92209e-05
10 *315:20 *3827:A 0.000210948
11 *315:20 *333:32 0.000154981
12 *315:20 *339:24 0.00152791
13 *315:40 *327:57 0.0012663
14 *315:40 *329:61 0.00038943
15 *315:42 *329:61 0.000161204
16 *3587:D *315:20 1.7635e-05
17 *3590:A *315:40 6.7205e-05
18 *3621:A *315:20 6.13669e-05
19 *3671:A *315:40 6.84038e-05
20 *3702:A *315:40 0.000132382
21 *3781:A *315:20 3.04031e-05
22 *135:21 *315:20 1.5877e-05
23 *140:19 *315:20 0.00039601
24 *151:16 *467:DIODE 0.000201503
25 *151:16 *315:42 4.99619e-05
26 *170:47 *315:40 0.00311783
27 *170:69 *315:40 2.25049e-05
28 *170:69 *315:42 0.000138175
29 *181:24 *315:20 0.000726225
*RES
1 *3778:X *315:20 19.3337 
2 *315:20 *315:40 49.93 
3 *315:40 *315:42 2.52 
4 *315:42 *3700:A 1.6 
5 *315:42 *467:DIODE 9.185 
*END

*D_NET *316 0.0135546
*CONN
*I *3680:A I *D sky130_fd_sc_hd__dlygate4sd3_1
*I *468:DIODE I *D sky130_fd_sc_hd__diode_2
*I *3779:X O *D sky130_fd_sc_hd__clkbuf_4
*CAP
1 *3680:A 3.25046e-05
2 *468:DIODE 0
3 *3779:X 0.000432741
4 *316:20 0.00260914
5 *316:18 0.00300937
6 *3680:A *3654:A 7.66083e-05
7 *3680:A *3669:A 5.30673e-05
8 *316:18 *3557:C 4.22926e-05
9 *316:18 *3828:A 0.000108669
10 *316:18 *328:16 0.000167505
11 *316:18 *366:129 0
12 *316:18 *369:28 0.000344035
13 *316:20 *3553:A 0.000495101
14 *316:20 *3654:A 0.000957907
15 *316:20 *3665:A 0.000246139
16 *316:20 *3669:A 0.000682263
17 *3621:A *316:18 0.000295891
18 *138:19 *316:18 0
19 *141:23 *316:18 0.000341088
20 *146:26 *316:20 0.000298726
21 *300:12 *316:20 0.00234508
22 *312:22 *316:20 0.00101644
*RES
1 *3779:X *316:18 20.16 
2 *316:18 *316:20 58.41 
3 *316:20 *468:DIODE 1.6 
4 *316:20 *3680:A 2.755 
*END

*D_NET *317 0.0537915
*CONN
*I *471:DIODE I *D sky130_fd_sc_hd__diode_2
*I *3718:A I *D sky130_fd_sc_hd__dlygate4sd3_1
*I *470:DIODE I *D sky130_fd_sc_hd__diode_2
*I *3780:X O *D sky130_fd_sc_hd__buf_4
*CAP
1 *471:DIODE 6.20368e-05
2 *3718:A 0
3 *470:DIODE 0.000144014
4 *3780:X 0.00140536
5 *317:67 0.000393713
6 *317:52 0.00137351
7 *317:50 0.0014498
8 *317:42 0.00196891
9 *317:32 0.00306049
10 *317:30 0.00304891
11 *317:30 *3556:B 8.40269e-05
12 *317:30 *3559:A_N 4.82919e-05
13 *317:30 *3559:C 2.49909e-05
14 *317:30 *3563:A_N 0.000109365
15 *317:30 *3563:B 4.66108e-05
16 *317:30 *3809:A 0.00092919
17 *317:30 *3825:A 0.000401024
18 *317:30 *3826:A 0.000187558
19 *317:30 *339:24 1.19928e-05
20 *317:30 *365:28 0.000591583
21 *317:30 *370:71 2.54522e-05
22 *317:30 *370:90 0.000143811
23 *317:32 *3584:A_N 0.000193286
24 *317:32 *3713:A 0.00106928
25 *317:32 *3825:A 1.08758e-05
26 *317:32 *339:24 0.00374027
27 *317:32 *339:26 0.000172693
28 *317:42 *3813:A 4.96234e-05
29 *317:42 *339:48 0.000409686
30 *317:50 *3737:vpwrac 0.000306412
31 *317:50 *339:52 0.00168356
32 *317:50 *350:64 4.63276e-05
33 *469:DIODE *317:30 4.82919e-05
34 *3556:D *317:30 3.70211e-05
35 *3559:D *317:30 1.10377e-05
36 *3563:D *317:30 0.000120655
37 *3584:D *317:30 8.37596e-05
38 *3584:D *317:32 2.14725e-05
39 *3588:D *317:32 7.36599e-05
40 *3620:A *317:30 0.000126904
41 *3660:A *317:30 0.000106164
42 *3721:A *317:30 0
43 *3727:A *317:30 7.60965e-05
44 *3779:A *317:30 4.99619e-05
45 *3780:A *317:30 0
46 *3787:A *317:30 9.06931e-05
47 *3:17 *317:50 0.00168119
48 *113:31 *317:32 0.00713816
49 *113:43 *317:32 1.53053e-05
50 *118:19 *317:42 0.00029391
51 *118:23 *317:32 0.00507609
52 *126:25 *317:42 0.000203796
53 *129:19 *317:42 0
54 *129:40 *317:42 0
55 *129:42 *317:42 0
56 *133:23 *317:52 0.00400778
57 *133:23 *317:67 0.000224775
58 *151:32 *317:42 0.00020596
59 *159:44 *317:42 4.65773e-06
60 *171:16 *317:42 0.00299158
61 *177:22 *317:42 6.31732e-05
62 *181:24 *317:32 0.00234937
63 *182:12 *317:42 2.14655e-05
64 *199:12 *317:42 0.00122099
65 *234:8 *470:DIODE 7.82139e-06
66 *237:12 *317:67 1.77665e-05
67 *244:34 *317:52 0.00401047
68 *244:34 *317:67 0.000218822
*RES
1 *3780:X *317:30 38.195 
2 *317:30 *317:32 88.77 
3 *317:32 *317:42 45.525 
4 *317:42 *317:50 25.315 
5 *317:50 *317:52 46.77 
6 *317:52 *470:DIODE 5.085 
7 *317:52 *317:67 8.21 
8 *317:67 *3718:A 1.6 
9 *317:67 *471:DIODE 2.395 
*END

*D_NET *318 0.013514
*CONN
*I *3669:A I *D sky130_fd_sc_hd__dlygate4sd3_1
*I *3781:X O *D sky130_fd_sc_hd__clkbuf_4
*CAP
1 *3669:A 0.000302037
2 *3781:X 0.00209654
3 *318:16 0.00239858
4 *3669:A *3654:A 9.80032e-06
5 *3669:A *3665:A 0.000999891
6 *318:16 *321:16 0
7 *318:16 *367:56 0.00192468
8 *3590:A *318:16 0
9 *3592:A *318:16 0
10 *3645:A *318:16 4.11718e-05
11 *3680:A *3669:A 5.30673e-05
12 *3693:A *3669:A 0.000427651
13 *111:14 *318:16 0
14 *118:39 *318:16 0.00400484
15 *142:19 *318:16 0.000289076
16 *146:26 *3669:A 0.000284372
17 *316:20 *3669:A 0.000682263
*RES
1 *3781:X *318:16 49.13 
2 *318:16 *3669:A 16.885 
*END

*D_NET *319 0.0137336
*CONN
*I *3665:A I *D sky130_fd_sc_hd__dlygate4sd3_1
*I *3782:X O *D sky130_fd_sc_hd__clkbuf_4
*CAP
1 *3665:A 0.00341874
2 *3782:X 0.00101639
3 *319:12 0.00443512
4 *319:12 *3828:A 0.000162721
5 *319:12 *367:52 6.90205e-05
6 *3669:A *3665:A 0.000999891
7 *3693:A *3665:A 0.000135329
8 *3702:A *319:12 6.80069e-05
9 *113:43 *319:12 0.000130504
10 *114:19 *3665:A 0.000238834
11 *146:26 *3665:A 0.000717423
12 *181:24 *319:12 0.000765588
13 *300:12 *3665:A 0.00132985
14 *316:20 *3665:A 0.000246139
*RES
1 *3782:X *319:12 20.87 
2 *319:12 *3665:A 47.86 
*END

*D_NET *320 0.0136712
*CONN
*I *3663:A I *D sky130_fd_sc_hd__dlygate4sd3_1
*I *3783:X O *D sky130_fd_sc_hd__clkbuf_4
*CAP
1 *3663:A 0.00303836
2 *3783:X 0.000979547
3 *320:12 0.0040179
4 *3663:A *3705:A 0.000331835
5 *3663:A *3805:A 0
6 *3663:A *3807:A 0
7 *3663:A *350:30 0.000211326
8 *3663:A *367:103 2.04649e-05
9 *3663:A *371:88 7.56599e-05
10 *320:12 *3713:A 0.000156708
11 *320:12 *332:38 0
12 *320:12 *339:24 5.68346e-05
13 *320:12 *367:52 0.00118534
14 *3783:A *320:12 0.00016031
15 *111:14 *3663:A 0.00173128
16 *120:42 *3663:A 0.00163495
17 *182:10 *3663:A 0
18 *258:12 *320:12 7.06865e-05
*RES
1 *3783:X *320:12 19.685 
2 *320:12 *3663:A 47.36 
*END

*D_NET *321 0.0141936
*CONN
*I *3654:A I *D sky130_fd_sc_hd__dlygate4sd3_1
*I *3784:X O *D sky130_fd_sc_hd__clkbuf_4
*CAP
1 *3654:A 0.00133836
2 *3784:X 0.00300556
3 *321:16 0.00434391
4 *321:16 *3722:A 0.000587136
5 *321:16 *3799:A 0.000563827
6 *321:16 *3800:A 4.70919e-05
7 *321:16 *3803:A 7.4941e-05
8 *321:16 *3804:A 0
9 *321:16 *337:26 1.66925e-05
10 wbs_dat_o[10] *321:16 0.000134938
11 *3590:A *321:16 0
12 *3602:A *321:16 0.00103015
13 *3604:A *321:16 2.83649e-05
14 *3605:A *321:16 0.000581986
15 *3651:A *321:16 0
16 *3669:A *3654:A 9.80032e-06
17 *3671:A *321:16 0
18 *3680:A *3654:A 7.66083e-05
19 *3693:A *3654:A 0.000702929
20 *3736:A *321:16 7.35813e-05
21 *3784:A *321:16 1.47256e-05
22 *120:46 *321:16 0.000296976
23 *146:26 *3654:A 0.000308106
24 *312:28 *321:16 0
25 *316:20 *3654:A 0.000957907
26 *318:16 *321:16 0
*RES
1 *3784:X *321:16 49.28 
2 *321:16 *3654:A 21.4 
*END

*D_NET *322 0.01257
*CONN
*I *3643:A I *D sky130_fd_sc_hd__dlygate4sd3_1
*I *3785:X O *D sky130_fd_sc_hd__clkbuf_4
*CAP
1 *3643:A 0.000483763
2 *3785:X 0.00189138
3 *322:14 0.00237514
4 *322:14 *3705:A 0.000258039
5 *322:14 *3713:A 0.000101392
6 *322:14 *3722:A 0.000152137
7 *322:14 *339:24 0.000958197
8 *322:14 *339:26 0.000313852
9 *322:14 *350:30 0.000483282
10 *3658:A *3643:A 0.000329224
11 *111:14 *322:14 0
12 *121:46 *322:14 0.00178164
13 *203:14 *3643:A 0.000831314
14 *203:14 *322:14 0.00261067
*RES
1 *3785:X *322:14 49.445 
2 *322:14 *3643:A 16.16 
*END

*D_NET *323 0.0166711
*CONN
*I *3725:A I *D sky130_fd_sc_hd__buf_12
*I *3786:X O *D sky130_fd_sc_hd__buf_12
*CAP
1 *3725:A 0
2 *3786:X 0.00236906
3 *323:28 0.00294996
4 *323:18 0.00531902
5 *323:18 *3798:A 2.69297e-05
6 *323:18 *3820:A 3.43327e-05
7 *323:18 *3824:A 0.000125295
8 *323:18 *324:12 0.00143574
9 *323:18 *336:36 0.000132271
10 *323:28 *3800:A 5.03788e-05
11 *323:28 *324:16 0.000377166
12 *323:28 *337:26 0.00100685
13 wbs_dat_o[4] *323:18 3.59784e-05
14 *3606:A *323:28 0.000154864
15 *3639:A *323:18 8.70354e-05
16 *3666:A *323:28 0
17 *3682:A *323:28 0.000115047
18 *3703:A *323:28 2.49909e-05
19 *3752:A *323:28 0
20 *3781:A *323:28 0.000120576
21 *139:43 *323:28 0.00100685
22 *159:8 *323:28 0.00110956
23 *170:28 *323:18 0.000189188
*RES
1 *3786:X *323:18 35.6 
2 *323:18 *323:28 49.21 
3 *323:28 *3725:A 1.6 
*END

*D_NET *324 0.0150957
*CONN
*I *3722:A I *D sky130_fd_sc_hd__buf_12
*I *3787:X O *D sky130_fd_sc_hd__buf_12
*CAP
1 *3722:A 0.000451107
2 *3787:X 0.000501626
3 *324:16 0.00285726
4 *324:12 0.00290778
5 *3722:A *328:18 1.41163e-05
6 *3722:A *337:26 0.000119595
7 *324:12 *3798:A 0.000176842
8 *324:12 *3820:A 0.000620763
9 *324:12 *3823:A 0.000169484
10 *324:16 *3800:A 0.000980709
11 wbs_dat_o[2] *324:12 4.66826e-05
12 *3606:A *324:16 0.000158861
13 *3609:A *324:16 0.000156934
14 *3617:A *324:16 0.000197264
15 *3632:A *324:16 6.00111e-05
16 *3658:A *324:16 0.000163199
17 *3673:A *324:16 2.86975e-05
18 *3693:A *324:16 0.000115199
19 *3703:A *324:16 2.49909e-05
20 *3712:A *324:16 4.66108e-05
21 *3748:A *324:16 0.00012657
22 *3769:A *324:16 4.82919e-05
23 *3781:A *324:16 0.000170609
24 *3794:A *324:16 0.000634898
25 *3795:A *324:16 0.000124007
26 *3796:A *324:16 4.89295e-05
27 *111:14 *3722:A 0
28 *118:39 *3722:A 6.57051e-05
29 *139:43 *3722:A 0.000455752
30 *159:8 *324:16 0.000386198
31 *159:12 *324:16 0.000375547
32 *244:24 *3722:A 0.000309269
33 *321:16 *3722:A 0.000587136
34 *322:14 *3722:A 0.000152137
35 *323:18 *324:12 0.00143574
36 *323:28 *324:16 0.000377166
*RES
1 *3787:X *324:12 21.305 
2 *324:12 *324:16 49.37 
3 *324:16 *3722:A 15.6 
*END

*D_NET *325 0.0495514
*CONN
*I *3729:A I *D sky130_fd_sc_hd__buf_12
*I *3788:X O *D sky130_fd_sc_hd__buf_12
*CAP
1 *3729:A 3.76639e-05
2 *3788:X 0.00348778
3 *325:36 0.00220362
4 *325:34 0.00272224
5 *325:28 0.00528581
6 *325:26 0.00673406
7 *325:14 0.00549232
8 *325:14 *3827:A 0.000459759
9 *325:26 *3806:A 7.9642e-06
10 *325:36 *326:24 0.00132448
11 *325:36 *329:77 0.000145296
12 wbs_dat_o[12] *325:26 0.0004262
13 wbs_dat_o[13] *325:26 0.000797786
14 wbs_dat_o[26] *325:34 0
15 wbs_dat_o[5] *325:14 0.000311294
16 wbs_dat_o[7] *325:14 0.00035085
17 wbs_dat_o[8] *325:14 0.000463994
18 wbs_dat_o[9] *325:14 0.00093964
19 *430:DIODE *325:36 5.18734e-05
20 *3601:A *325:26 0.000195047
21 *3607:A *325:14 0.000327314
22 *3612:A *325:26 9.21068e-05
23 *3624:A *325:34 0.000144294
24 *3634:A *325:14 1.08758e-05
25 *3634:A *325:26 0.000101493
26 *3635:A *325:14 5.8322e-05
27 *3636:A *325:14 9.47972e-06
28 *3640:A *325:14 0.000424519
29 *3646:A *325:26 0.000427876
30 *3681:A *325:26 0.00035215
31 *3686:A *325:14 0.000213992
32 *3756:A *325:26 1.60203e-05
33 *3759:A *325:26 0.000427088
34 *3789:A *325:14 6.53231e-05
35 *3:17 *325:34 0
36 *3:17 *325:36 0.0077996
37 *110:10 *325:36 0.00675732
38 *115:29 *325:26 3.7712e-05
39 *115:39 *325:26 0.000233667
40 *115:41 *325:14 0.000349712
41 *115:41 *325:26 2.35435e-05
42 *133:23 *325:36 0.00017074
43 *301:32 *325:34 7.06283e-05
44 *301:32 *325:36 0
*RES
1 *3788:X *325:14 48.775 
2 *325:14 *325:26 34.675 
3 *325:26 *325:28 50.82 
4 *325:28 *325:34 10.5875 
5 *325:34 *325:36 90.8625 
6 *325:36 *3729:A 4.05 
*END

*D_NET *326 0.0607225
*CONN
*I *3732:A I *D sky130_fd_sc_hd__buf_12
*I *3789:X O *D sky130_fd_sc_hd__buf_12
*CAP
1 *3732:A 3.76639e-05
2 *3789:X 0.0227679
3 *326:24 0.0228056
4 *326:24 *3713:A 0
5 *326:24 *3720:A 2.76895e-05
6 *326:24 *3737:vpwrpc 1.51394e-05
7 *326:24 *3737:vpwrac 0.0094167
8 wbs_dat_o[4] *326:24 1.92979e-05
9 *3591:A *326:24 0.000511245
10 *3617:A *326:24 0
11 *3635:A *326:24 0.000101386
12 *3674:A *326:24 0
13 *3:17 *326:24 0.00148938
14 *110:10 *326:24 0.00143543
15 *115:29 *326:24 0.000341054
16 *115:41 *326:24 0.000102021
17 *217:10 *326:24 0.000106511
18 *259:18 *326:24 0.00022105
19 *325:36 *326:24 0.00132448
*RES
1 *3789:X *326:24 48.4315 
2 *326:24 *3732:A 4.05 
*END

*D_NET *327 0.042276
*CONN
*I *3581:C I *D sky130_fd_sc_hd__and4b_1
*I *3580:C I *D sky130_fd_sc_hd__and4b_1
*I *3579:C I *D sky130_fd_sc_hd__and4b_1
*I *3578:C I *D sky130_fd_sc_hd__and4b_1
*I *3596:A I *D sky130_fd_sc_hd__clkbuf_4
*I *3790:X O *D sky130_fd_sc_hd__buf_2
*CAP
1 *3581:C 0.000337405
2 *3580:C 9.08068e-05
3 *3579:C 0.000272206
4 *3578:C 0
5 *3596:A 0
6 *3790:X 0.00177775
7 *327:87 0.000849214
8 *327:69 0.000312545
9 *327:65 0.000513411
10 *327:61 0.0013278
11 *327:59 0.00127573
12 *327:57 0.00180724
13 *327:43 0.00341475
14 *327:22 0.00338526
15 *3581:C *3581:A_N 2.14005e-05
16 *3581:C *3821:A 1.11938e-05
17 *327:22 *3563:B 0.000202088
18 *327:22 *3593:A 0.000229541
19 *327:22 *3597:A 0.000119762
20 *327:22 *329:26 0.000462317
21 *327:43 *3593:A 0.000317783
22 *327:43 *3597:A 0.000201503
23 *327:43 *329:53 0.00138695
24 *327:43 *367:25 4.30228e-05
25 *327:43 *369:12 7.9642e-06
26 *327:43 *371:23 0.00134547
27 *327:57 *329:53 0.000858593
28 *327:57 *329:61 0.000622454
29 *327:61 *329:77 0.00101712
30 *327:87 *3581:A_N 1.99475e-05
31 *327:87 *3818:A 0.000638359
32 *327:87 *3821:A 2.11921e-05
33 *327:87 *329:84 0.000233004
34 *327:87 *329:88 0.000211909
35 *406:DIODE *327:43 2.20014e-05
36 *407:DIODE *327:61 8.41307e-05
37 *3560:D *327:43 3.35306e-05
38 *3579:D *327:87 0.000166959
39 *3580:D *3580:C 5.63214e-05
40 *3580:D *327:87 0.000129713
41 *3581:B *3581:C 5.58369e-05
42 *3581:D *3581:C 0.00019205
43 *3592:A *327:57 0
44 *3620:A *327:22 0.000114492
45 *3658:A *327:61 0.000759382
46 *3671:A *327:57 3.70486e-05
47 *3699:A *327:22 4.9253e-06
48 *3702:A *327:57 0.000138151
49 *3728:A *327:22 0.000354379
50 *3786:A *327:22 1.26173e-05
51 *3:17 *327:65 1.07797e-05
52 *3:17 *327:69 1.1071e-05
53 *116:19 *327:22 1.08194e-05
54 *117:21 *327:43 0
55 *151:16 *327:57 8.53113e-06
56 *151:32 *327:61 0.000428394
57 *164:26 *327:61 0.000813862
58 *170:28 *327:22 0.000187759
59 *170:47 *327:43 0.00087876
60 *170:47 *327:57 0.00199912
61 *170:69 *327:57 0.000886744
62 *170:69 *327:61 0.00229518
63 *170:85 *327:61 0.00271978
64 *170:85 *327:65 0.000126992
65 *170:85 *327:69 7.00225e-05
66 *170:92 *3579:C 0.00033953
67 *170:103 *3579:C 3.62614e-05
68 *177:12 *327:61 0.00140642
69 *181:24 *327:22 0.000223991
70 *219:16 *327:57 4.9968e-05
71 *219:16 *327:61 0.000105158
72 *219:36 *327:61 0.00257372
73 *219:36 *327:87 8.40269e-05
74 *258:30 *327:65 0.000157915
75 *258:30 *327:69 8.76904e-05
76 *312:22 *327:22 0
77 *315:40 *327:57 0.0012663
*RES
1 *3790:X *327:22 34.16 
2 *327:22 *3596:A 1.6 
3 *327:22 *327:43 37.0375 
4 *327:43 *327:57 48.6675 
5 *327:57 *327:59 2 
6 *327:59 *327:61 61.17 
7 *327:61 *327:65 3.89 
8 *327:65 *327:69 3.125 
9 *327:69 *3578:C 1.6 
10 *327:69 *3579:C 5.155 
11 *327:65 *327:87 12.89 
12 *327:87 *3580:C 2.74 
13 *327:87 *3581:C 5.845 
*END

*D_NET *328 0.0507658
*CONN
*I *3720:A I *D sky130_fd_sc_hd__dlygate4sd3_1
*I *3791:X O *D sky130_fd_sc_hd__buf_4
*CAP
1 *3720:A 0.00158981
2 *3791:X 0.00114865
3 *328:36 0.0039058
4 *328:18 0.00810574
5 *328:16 0.0069384
6 *3720:A *3713:A 0.00348682
7 *3720:A *3737:vpwrpc 0.00554438
8 *328:16 *3564:A_N 2.64607e-05
9 *328:16 *366:19 0.000109058
10 *328:16 *366:32 0.000143667
11 *328:16 *367:25 4.96965e-05
12 *328:16 *368:6 3.98648e-05
13 *328:16 *368:30 1.35273e-05
14 *328:16 *368:133 0.00040797
15 *328:16 *369:28 0.000328727
16 *328:16 *370:133 0.000169663
17 *328:18 *3586:A_N 4.05722e-05
18 *328:18 *337:26 0.00451477
19 *328:36 *3576:A_N 0.000186682
20 *328:36 *3737:vpwrpc 3.34313e-06
21 *406:DIODE *328:16 2.33395e-05
22 *3560:D *328:16 0.000167946
23 *3586:D *328:16 0.000166428
24 *3586:D *328:18 9.1682e-06
25 *3621:A *328:16 8.4841e-05
26 *3683:A *3720:A 0.000401153
27 *3699:A *328:16 0.000607565
28 *3722:A *328:18 1.41163e-05
29 *3737:DI[11] *3720:A 0.000132401
30 *3791:A *328:16 4.75959e-05
31 *114:19 *328:36 0
32 *115:13 *3720:A 0.00012369
33 *117:13 *3720:A 0.000481832
34 *118:15 *328:36 0.00147135
35 *123:25 *328:36 1.72962e-05
36 *125:25 *328:36 5.44824e-05
37 *126:25 *328:36 0.000302143
38 *131:39 *328:36 0.000149151
39 *131:45 *328:36 0.000216554
40 *138:19 *328:36 4.83431e-06
41 *139:41 *328:18 9.97536e-06
42 *139:41 *328:36 0.00197217
43 *159:44 *328:36 0
44 *164:12 *328:36 0.000648204
45 *186:28 *3720:A 0.000726088
46 *193:12 *3720:A 0.000402977
47 *219:36 *328:36 0.000189332
48 *244:24 *328:18 0.00315954
49 *244:28 *328:36 0.00198134
50 *292:18 *3720:A 0.000251471
51 *316:18 *328:16 0.000167505
52 *326:24 *3720:A 2.76895e-05
*RES
1 *3791:X *328:16 30.935 
2 *328:16 *328:18 77.73 
3 *328:18 *328:36 40.0968 
4 *328:36 *3720:A 20.008 
*END

*D_NET *329 0.0409342
*CONN
*I *3579:A_N I *D sky130_fd_sc_hd__and4b_1
*I *3581:A_N I *D sky130_fd_sc_hd__and4b_1
*I *3580:A_N I *D sky130_fd_sc_hd__and4b_1
*I *3578:A_N I *D sky130_fd_sc_hd__and4b_1
*I *3594:A I *D sky130_fd_sc_hd__buf_4
*I *3792:X O *D sky130_fd_sc_hd__buf_2
*CAP
1 *3579:A_N 0
2 *3581:A_N 0.000581667
3 *3580:A_N 0
4 *3578:A_N 0
5 *3594:A 3.89565e-05
6 *3792:X 0.00171755
7 *329:88 0.000745421
8 *329:84 0.000269358
9 *329:77 0.00286807
10 *329:61 0.00414552
11 *329:53 0.00291821
12 *329:26 0.00329166
13 *329:26 *332:38 0.00010036
14 *329:26 *335:14 9.92626e-05
15 *329:26 *336:36 1.88904e-05
16 *329:26 *337:18 0.000202442
17 *329:26 *370:8 0.000128066
18 *329:26 *370:12 0.000107128
19 *329:53 *332:38 0.00325985
20 *329:53 *337:18 0.00062923
21 *329:53 *367:25 9.5799e-06
22 *329:77 *350:54 0.000651224
23 *406:DIODE *329:53 4.77719e-05
24 *444:DIODE *3581:A_N 9.87949e-06
25 *461:DIODE *329:26 0.000205794
26 *467:DIODE *329:61 8.5108e-05
27 *467:DIODE *329:77 0.000173187
28 *3554:A *329:26 0.000248151
29 *3578:D *329:84 0.000200246
30 *3579:D *329:88 0.000167424
31 *3580:D *3581:A_N 6.59933e-05
32 *3581:B *3581:A_N 8.23457e-05
33 *3581:C *3581:A_N 2.14005e-05
34 *3581:D *3581:A_N 4.66108e-05
35 *3588:RESET_B *329:26 0.000130125
36 *3590:A *329:61 6.68654e-05
37 *3620:A *329:26 0.000370204
38 *3641:A *329:26 3.83194e-05
39 *3642:A *329:26 0.00074518
40 *3658:A *329:77 0.000759382
41 *3671:A *329:61 6.3081e-05
42 *3702:A *329:53 0.000199723
43 *3702:A *329:61 0.000130519
44 *3702:A *329:77 0.00127962
45 *3717:A *329:26 8.53113e-06
46 *3731:A *329:26 0.000235573
47 *3775:A *329:26 1.19928e-05
48 *3786:A *329:26 0
49 *114:19 *329:26 0
50 *114:19 *329:77 0
51 *116:19 *329:26 4.48674e-05
52 *116:21 *329:26 2.60986e-05
53 *129:40 *329:77 2.0851e-06
54 *130:25 *329:77 0.000291215
55 *133:23 *329:77 0.00014369
56 *136:13 *3581:A_N 4.96405e-05
57 *137:23 *3581:A_N 7.03492e-05
58 *145:79 *3581:A_N 0
59 *146:26 *329:77 0.000233267
60 *151:16 *329:77 0.00383832
61 *151:32 *329:77 1.87328e-05
62 *164:26 *3581:A_N 2.65814e-06
63 *170:28 *329:26 0.000892015
64 *170:92 *329:84 9.15072e-05
65 *170:92 *329:88 0.000120584
66 *170:103 *3581:A_N 7.39651e-05
67 *170:103 *329:88 0.000449745
68 *177:12 *329:77 0.00140809
69 *219:16 *329:77 0.000350752
70 *219:36 *329:84 7.66388e-05
71 *309:10 *3581:A_N 6.63004e-05
72 *315:40 *329:61 0.00038943
73 *315:42 *329:61 0.000161204
74 *325:36 *329:77 0.000145296
75 *327:22 *329:26 0.000462317
76 *327:43 *329:53 0.00138695
77 *327:57 *329:53 0.000858593
78 *327:57 *329:61 0.000622454
79 *327:61 *329:77 0.00101712
80 *327:87 *3581:A_N 1.99475e-05
81 *327:87 *329:84 0.000233004
82 *327:87 *329:88 0.000211909
*RES
1 *3792:X *329:26 33.132 
2 *329:26 *3594:A 4.5875 
3 *329:26 *329:53 33.0485 
4 *329:53 *329:61 23.355 
5 *329:61 *329:77 49.9732 
6 *329:77 *3578:A_N 1.6 
7 *329:77 *329:84 3.555 
8 *329:84 *329:88 5.64 
9 *329:88 *3580:A_N 1.6 
10 *329:88 *3581:A_N 18.36 
11 *329:84 *3579:A_N 1.6 
*END

*D_NET *330 0.0071213
*CONN
*I *3797:A I *D sky130_fd_sc_hd__buf_12
*I *3588:Q O *D sky130_fd_sc_hd__dfrtp_1
*CAP
1 *3797:A 0.00151697
2 *3588:Q 0.00151697
3 *3797:A *335:14 0.0012077
4 *3797:A *365:28 0.000623477
5 *3588:RESET_B *3797:A 6.28843e-05
6 *3638:A *3797:A 0.00139585
7 *3640:A *3797:A 0.00013521
8 *3714:A *3797:A 0
9 *3733:A *3797:A 0.000621156
10 *3792:A *3797:A 4.10827e-05
*RES
1 *3588:Q *3797:A 48.985 
*END

*D_NET *331 0.0079541
*CONN
*I *3798:A I *D sky130_fd_sc_hd__buf_12
*I *3582:X O *D sky130_fd_sc_hd__and4b_1
*CAP
1 *3798:A 0.00271103
2 *3582:X 0.00271103
3 *3798:A *3584:B 3.65516e-05
4 *3798:A *3820:A 0.000787992
5 *3798:A *3824:A 9.47267e-06
6 *3798:A *3825:A 0.000576442
7 *3798:A *336:36 0.000155601
8 wbs_dat_o[2] *3798:A 4.66826e-05
9 wbs_dat_o[3] *3798:A 6.97118e-05
10 *395:DIODE *3798:A 0.000154139
11 *3554:A *3798:A 0
12 *3625:A *3798:A 3.09164e-05
13 *3639:A *3798:A 0
14 *3787:A *3798:A 0
15 *3794:A *3798:A 6.26906e-05
16 *118:39 *3798:A 4.77719e-05
17 *170:28 *3798:A 0.000350299
18 *323:18 *3798:A 2.69297e-05
19 *324:12 *3798:A 0.000176842
*RES
1 *3582:X *3798:A 48.895 
*END

*D_NET *332 0.0127377
*CONN
*I *3799:A I *D sky130_fd_sc_hd__buf_12
*I *3560:X O *D sky130_fd_sc_hd__and4b_1
*CAP
1 *3799:A 0.000431648
2 *3560:X 0.00317879
3 *332:38 0.00361044
4 *3799:A *3803:A 0.000164654
5 *3799:A *333:32 3.24501e-05
6 *332:38 *3553:A 0
7 *332:38 *3828:A 0
8 *332:38 *333:32 7.12266e-05
9 *332:38 *337:18 2.68686e-05
10 *332:38 *350:26 0
11 *332:38 *367:25 0
12 *332:38 *367:52 0
13 *332:38 *371:23 1.1561e-05
14 *332:38 *371:42 6.2983e-05
15 wbs_dat_o[10] *3799:A 4.82919e-05
16 *406:DIODE *332:38 8.53113e-06
17 *3604:A *3799:A 0.000313699
18 *3633:A *3799:A 0
19 *3645:A *332:38 0
20 *3702:A *332:38 0.000143059
21 *3749:A *3799:A 0.000107335
22 *114:19 *332:38 0
23 *135:21 *332:38 4.20125e-05
24 *143:31 *332:38 1.41983e-05
25 *144:19 *332:38 0.000149712
26 *145:73 *332:38 6.63219e-06
27 *170:28 *332:38 0.000160153
28 *170:47 *332:38 0.000229389
29 *258:12 *332:38 0
30 *320:12 *332:38 0
31 *321:16 *3799:A 0.000563827
32 *329:26 *332:38 0.00010036
33 *329:53 *332:38 0.00325985
*RES
1 *3560:X *332:38 49.5316 
2 *332:38 *3799:A 14.3325 
*END

*D_NET *333 0.010815
*CONN
*I *3800:A I *D sky130_fd_sc_hd__buf_12
*I *3561:X O *D sky130_fd_sc_hd__and4b_1
*CAP
1 *3800:A 0.000440916
2 *3561:X 0.0013441
3 *333:32 0.00178502
4 *3800:A *3803:A 0.000382776
5 *333:32 *3705:A 0.000106897
6 *333:32 *3826:A 0.000130294
7 *333:32 *3828:A 0
8 *333:32 *334:32 0.000779344
9 *333:32 *350:26 0.00105233
10 wbs_dat_o[11] *3800:A 8.52883e-05
11 *395:DIODE *333:32 4.77757e-05
12 *460:DIODE *333:32 1.47256e-05
13 *3588:RESET_B *333:32 0.00023142
14 *3602:A *3800:A 0.000110259
15 *3603:A *3800:A 0
16 *3632:A *3800:A 0.000127796
17 *3633:A *3800:A 0.00016031
18 *3639:A *333:32 0.000230435
19 *3682:A *3800:A 8.53113e-06
20 *3686:A *3800:A 0.000163199
21 *3749:A *3800:A 4.82863e-05
22 *3778:A *333:32 3.51939e-05
23 *3799:A *333:32 3.24501e-05
24 *111:14 *333:32 0.00188073
25 *159:8 *3800:A 0.000312583
26 *315:20 *333:32 0.000154981
27 *321:16 *3800:A 4.70919e-05
28 *323:28 *3800:A 5.03788e-05
29 *324:16 *3800:A 0.000980709
30 *332:38 *333:32 7.12266e-05
*RES
1 *3561:X *333:32 44.42 
2 *333:32 *3800:A 20.93 
*END

*D_NET *334 0.0107157
*CONN
*I *3801:A I *D sky130_fd_sc_hd__buf_12
*I *3562:X O *D sky130_fd_sc_hd__and4b_2
*CAP
1 *3801:A 0
2 *3562:X 0.00119364
3 *334:38 0.00210244
4 *334:32 0.00329608
5 *334:32 *3559:C 0.000131901
6 *334:32 *3561:B 5.22353e-05
7 *334:32 *3809:A 6.17895e-06
8 *334:32 *3823:A 5.51169e-05
9 *334:32 *365:28 0.000364593
10 *334:32 *366:90 4.82919e-05
11 *334:32 *366:103 7.23635e-05
12 *334:32 *370:54 0.00015829
13 *334:38 *3829:A 0.000923461
14 *334:38 *335:16 0
15 *334:38 *365:28 0.000583518
16 wbs_dat_o[12] *334:38 0.000165773
17 *465:DIODE *334:32 6.87407e-05
18 *3564:D *334:32 1.47256e-05
19 *3617:A *334:32 0.000565741
20 *3634:A *334:38 7.82537e-05
21 *3736:A *334:38 0
22 *3793:A *334:32 4.66108e-05
23 *3:13 *334:38 0
24 *181:24 *334:32 8.41703e-06
25 *333:32 *334:32 0.000779344
*RES
1 *3562:X *334:32 33.48 
2 *334:32 *334:38 48.83 
3 *334:38 *3801:A 3.6 
*END

*D_NET *335 0.0156348
*CONN
*I *3802:A I *D sky130_fd_sc_hd__buf_12
*I *3563:X O *D sky130_fd_sc_hd__and4b_2
*CAP
1 *3802:A 7.37478e-05
2 *3563:X 0.00101194
3 *335:16 0.00390291
4 *335:14 0.00484111
5 *335:14 *365:28 0.000543166
6 *335:16 *3804:A 0.000159059
7 *335:16 *3829:A 0.00133018
8 *335:16 *365:28 0.000163813
9 wbs_dat_o[14] *3802:A 0
10 wbs_dat_o[2] *335:14 0.000128569
11 *461:DIODE *335:14 4.75576e-05
12 *3620:A *335:14 0
13 *3621:A *335:14 0.000121643
14 *3634:A *335:16 0.00102042
15 *3638:A *335:14 0.000304433
16 *3699:A *335:14 8.71001e-05
17 *3735:A *3802:A 0.00010901
18 *3756:A *3802:A 2.99518e-06
19 *3788:A *335:14 0.000480181
20 *3797:A *335:14 0.0012077
21 *3:13 *335:14 0
22 *329:26 *335:14 9.92626e-05
23 *334:38 *335:16 0
*RES
1 *3563:X *335:14 32.84 
2 *335:14 *335:16 48.405 
3 *335:16 *3802:A 6.98 
*END

*D_NET *336 0.0158505
*CONN
*I *3803:A I *D sky130_fd_sc_hd__buf_12
*I *3564:X O *D sky130_fd_sc_hd__and4b_2
*CAP
1 *3803:A 0.00245025
2 *3564:X 0.00219417
3 *336:36 0.00464442
4 *336:36 *3561:A_N 0.000179015
5 *336:36 *3561:C 7.06865e-05
6 *336:36 *3820:A 8.30853e-06
7 *336:36 *3824:A 2.68526e-05
8 *336:36 *366:45 0.000114666
9 *336:36 *368:34 0.000167003
10 *336:36 *370:48 5.33258e-05
11 wbs_dat_o[10] *3803:A 0.000107415
12 wbs_dat_o[11] *3803:A 0.000102473
13 wbs_dat_o[14] *3803:A 2.75229e-05
14 wbs_dat_o[6] *3803:A 6.1718e-05
15 *461:DIODE *336:36 1.7635e-05
16 *3561:D *336:36 0.000117006
17 *3564:D *336:36 2.76356e-05
18 *3602:A *3803:A 0.000293994
19 *3604:A *3803:A 0.000563492
20 *3605:A *3803:A 0.000201274
21 *3609:A *336:36 4.46271e-05
22 *3637:A *3803:A 0.000207887
23 *3641:A *336:36 0
24 *3653:A *3803:A 3.00381e-05
25 *3666:A *3803:A 0.000560936
26 *3699:A *336:36 2.46007e-05
27 *3706:A *336:36 0.000313857
28 *3736:A *3803:A 7.35813e-05
29 *3782:A *3803:A 0.00012306
30 *3784:A *3803:A 8.58181e-05
31 *3788:A *336:36 0
32 *3789:A *336:36 0.000500082
33 *3798:A *336:36 0.000155601
34 *3799:A *3803:A 0.000164654
35 *3800:A *3803:A 0.000382776
36 *115:41 *336:36 0.00126579
37 *225:10 *3803:A 0.000101889
38 *236:20 *3803:A 0.000160302
39 *321:16 *3803:A 7.4941e-05
40 *323:18 *336:36 0.000132271
41 *329:26 *336:36 1.88904e-05
*RES
1 *3564:X *336:36 43.9691 
2 *336:36 *3803:A 46.57 
*END

*D_NET *337 0.0194779
*CONN
*I *3804:A I *D sky130_fd_sc_hd__buf_12
*I *3565:X O *D sky130_fd_sc_hd__and4b_2
*CAP
1 *3804:A 0.00184336
2 *3565:X 0.00180005
3 *337:26 0.00304949
4 *337:18 0.00300618
5 *3804:A *371:69 1.47446e-05
6 *337:18 *3582:B 6.83488e-05
7 *337:26 *3586:A_N 0.000118081
8 wbs_dat_o[13] *3804:A 0
9 wbs_dat_o[15] *3804:A 0
10 *406:DIODE *337:18 9.89983e-05
11 *3615:A *3804:A 0.000132862
12 *3651:A *3804:A 2.29541e-05
13 *3722:A *337:26 0.000119595
14 *3735:A *3804:A 0.000153727
15 *3755:A *3804:A 0.000108833
16 *117:21 *337:18 2.05571e-05
17 *120:46 *3804:A 0
18 *135:21 *337:18 1.37074e-05
19 *139:43 *337:26 0.00185802
20 *170:28 *337:18 0.000492512
21 *321:16 *3804:A 0
22 *321:16 *337:26 1.66925e-05
23 *323:28 *337:26 0.00100685
24 *328:18 *337:26 0.00451477
25 *329:26 *337:18 0.000202442
26 *329:53 *337:18 0.00062923
27 *332:38 *337:18 2.68686e-05
28 *335:16 *3804:A 0.000159059
*RES
1 *3565:X *337:18 11.3277 
2 *337:18 *337:26 45.8225 
3 *337:26 *3804:A 34.5175 
*END

*D_NET *338 0.00426878
*CONN
*I *3805:A I *D sky130_fd_sc_hd__buf_12
*I *3566:X O *D sky130_fd_sc_hd__and4b_1
*CAP
1 *3805:A 0.0013495
2 *3566:X 0.0013495
3 *3805:A *367:68 0.000401705
4 *3805:A *367:103 0.000123955
5 *385:DIODE *3805:A 8.65905e-05
6 *3567:D *3805:A 0.000173613
7 *3568:D *3805:A 0.000196669
8 *3615:A *3805:A 0
9 *3663:A *3805:A 0
10 *3681:A *3805:A 0.000108833
11 *3759:A *3805:A 4.55864e-06
12 *145:73 *3805:A 0.000473854
*RES
1 *3566:X *3805:A 28.035 
*END

*D_NET *339 0.0494084
*CONN
*I *3716:A I *D sky130_fd_sc_hd__dlygate4sd3_1
*I *473:DIODE I *D sky130_fd_sc_hd__diode_2
*I *3793:X O *D sky130_fd_sc_hd__buf_4
*CAP
1 *3716:A 0.000207736
2 *473:DIODE 0
3 *3793:X 0.00204385
4 *339:54 0.00104879
5 *339:52 0.00130873
6 *339:48 0.00183077
7 *339:26 0.00356991
8 *339:24 0.00425067
9 *3716:A *3713:A 1.17114e-05
10 *339:24 *3561:A_N 4.1977e-05
11 *339:24 *3563:A_N 4.66108e-05
12 *339:24 *3713:A 0.000495541
13 *339:24 *3809:A 0.000904818
14 *339:24 *3828:A 0.000461267
15 *339:24 *367:52 0.00118251
16 *339:24 *370:48 0
17 *339:26 *3713:A 0.000354859
18 *339:26 *3806:A 0.00117995
19 *339:48 *3577:C 6.72143e-05
20 *339:48 *3713:A 0.000110612
21 *339:52 *3737:vpwrac 0.000351142
22 *339:54 *3737:vpwrac 0.000695803
23 *339:54 *350:64 0.00349519
24 *391:DIODE *339:26 0.000163199
25 *393:DIODE *339:26 0.000124895
26 *3564:D *339:24 0
27 *3574:D *339:48 0
28 *3766:A *339:48 3.59531e-06
29 *3782:A *339:24 4.0031e-05
30 *3783:A *339:24 0.00016031
31 *3793:A *339:24 6.17079e-05
32 *3795:A *339:24 6.11965e-05
33 *3:17 *3716:A 0.000223727
34 *3:17 *339:52 4.60262e-05
35 *3:17 *339:54 0.00365821
36 *113:29 *339:48 8.41703e-06
37 *113:31 *339:26 0.000113307
38 *113:31 *339:48 0.00080794
39 *118:23 *339:26 0.00507944
40 *119:13 *339:48 0.000148766
41 *129:42 *339:48 7.42989e-06
42 *129:48 *339:48 1.70139e-05
43 *131:31 *339:48 0
44 *132:33 *339:48 0
45 *132:37 *339:48 0
46 *146:26 *339:48 0.000201401
47 *164:26 *339:48 0.000174692
48 *181:24 *339:24 0.00013794
49 *182:12 *339:48 0.000777052
50 *206:10 *3716:A 3.92162e-05
51 *206:10 *339:54 5.50989e-05
52 *232:10 *3716:A 6.55328e-05
53 *258:14 *339:48 5.26385e-05
54 *258:28 *339:48 0.000729312
55 *258:30 *339:52 0.00178688
56 *258:30 *339:54 1.19691e-05
57 *281:26 *339:48 3.94107e-05
58 *292:10 *339:48 0.000650408
59 *303:24 *339:48 0.000164024
60 *304:14 *339:48 0.00126295
61 *315:20 *339:24 0.00152791
62 *317:30 *339:24 1.19928e-05
63 *317:32 *339:24 0.00374027
64 *317:32 *339:26 0.000172693
65 *317:42 *339:48 0.000409686
66 *317:50 *339:52 0.00168356
67 *320:12 *339:24 5.68346e-05
68 *322:14 *339:24 0.000958197
69 *322:14 *339:26 0.000313852
*RES
1 *3793:X *339:24 46.779 
2 *339:24 *339:26 52.2 
3 *339:26 *339:48 47.785 
4 *339:48 *339:52 21.0825 
5 *339:52 *339:54 42.0525 
6 *339:54 *473:DIODE 3.6 
7 *339:54 *3716:A 8.085 
*END

*D_NET *340 0.00553177
*CONN
*I *3806:A I *D sky130_fd_sc_hd__buf_12
*I *3567:X O *D sky130_fd_sc_hd__and4b_1
*CAP
1 *3806:A 0.00178088
2 *3567:X 0.00178088
3 *3806:A *3713:A 0.000101392
4 *3806:A *3807:A 0
5 wbs_dat_o[17] *3806:A 0.000124384
6 *3612:A *3806:A 9.97089e-05
7 *3681:A *3806:A 0.000153816
8 *3693:A *3806:A 8.84845e-05
9 *115:29 *3806:A 0.000214321
10 *121:46 *3806:A 0
11 *121:55 *3806:A 0
12 *325:26 *3806:A 7.9642e-06
13 *339:26 *3806:A 0.00117995
*RES
1 *3567:X *3806:A 36.175 
*END

*D_NET *341 0.00403904
*CONN
*I *3807:A I *D sky130_fd_sc_hd__buf_12
*I *3568:X O *D sky130_fd_sc_hd__and4b_1
*CAP
1 *3807:A 0.00133756
2 *3568:X 0.00133756
3 *3807:A *3810:A 0
4 *3807:A *367:103 0.000313852
5 wbs_dat_o[18] *3807:A 4.82919e-05
6 *3612:A *3807:A 4.89295e-05
7 *3663:A *3807:A 0
8 *3670:A *3807:A 0
9 *3675:A *3807:A 0
10 *3806:A *3807:A 0
11 *120:42 *3807:A 0.00078889
12 *203:14 *3807:A 0
13 *225:10 *3807:A 3.63206e-05
14 *236:20 *3807:A 0.000127642
*RES
1 *3568:X *3807:A 30.76 
*END

*D_NET *342 0.00450906
*CONN
*I *3808:A I *D sky130_fd_sc_hd__buf_12
*I *3569:X O *D sky130_fd_sc_hd__and4b_1
*CAP
1 *3808:A 0.00144119
2 *3569:X 0.00144119
3 *3808:A *367:113 0.000378887
4 *3808:A *367:128 0.000256977
5 *3808:A *367:137 0.000224692
6 *3808:A *371:99 6.60042e-05
7 *3808:A *371:118 0.000136792
8 wbs_dat_o[19] *3808:A 8.8266e-05
9 *391:DIODE *3808:A 0.000169201
10 *3613:A *3808:A 0
11 *115:29 *3808:A 8.65961e-05
12 *225:10 *3808:A 0.000219271
*RES
1 *3569:X *3808:A 29.28 
*END

*D_NET *343 0.00762308
*CONN
*I *3809:A I *D sky130_fd_sc_hd__buf_12
*I *3583:X O *D sky130_fd_sc_hd__and4b_1
*CAP
1 *3809:A 0.00167945
2 *3583:X 0.00167945
3 *3809:A *3559:C 7.30547e-05
4 *3809:A *3823:A 0.000137094
5 *3809:A *3828:A 0.000567384
6 *3809:A *368:88 5.15692e-05
7 *457:DIODE *3809:A 0.000135389
8 *462:DIODE *3809:A 5.63295e-05
9 *465:DIODE *3809:A 1.7635e-05
10 *3564:D *3809:A 0.00022786
11 *3719:A *3809:A 3.54966e-05
12 *3723:A *3809:A 0.000718186
13 *3731:A *3809:A 0.000339867
14 *144:19 *3809:A 6.41227e-05
15 *317:30 *3809:A 0.00092919
16 *334:32 *3809:A 6.17895e-06
17 *339:24 *3809:A 0.000904818
*RES
1 *3583:X *3809:A 36.3314 
*END

*D_NET *344 0.00342634
*CONN
*I *3810:A I *D sky130_fd_sc_hd__buf_12
*I *3570:X O *D sky130_fd_sc_hd__and4b_1
*CAP
1 *3810:A 0.00110032
2 *3570:X 0.00110032
3 *3810:A *3811:A 0.000251463
4 *3810:A *367:128 0.000209846
5 *3810:A *371:118 1.91597e-05
6 wbs_dat_o[20] *3810:A 4.77757e-05
7 *3613:A *3810:A 0.000163204
8 *3670:A *3810:A 0
9 *3807:A *3810:A 0
10 *225:10 *3810:A 0.000207083
11 *236:20 *3810:A 0.000306146
12 *292:10 *3810:A 2.10152e-05
*RES
1 *3570:X *3810:A 26.295 
*END

*D_NET *345 0.00533429
*CONN
*I *3811:A I *D sky130_fd_sc_hd__buf_12
*I *3571:X O *D sky130_fd_sc_hd__and4b_1
*CAP
1 *3811:A 0.0011786
2 *3571:X 0.0011786
3 *3811:A *367:137 0.000122325
4 wbs_dat_o[20] *3811:A 7.54609e-05
5 wbs_dat_o[21] *3811:A 0.000583165
6 *3616:A *3811:A 0.000176264
7 *3810:A *3811:A 0.000251463
8 *225:10 *3811:A 0.000583995
9 *236:20 *3811:A 0.000611027
10 *270:28 *3811:A 0.000525728
11 *292:10 *3811:A 4.7662e-05
*RES
1 *3571:X *3811:A 31.365 
*END

*D_NET *346 0.0028922
*CONN
*I *3812:A I *D sky130_fd_sc_hd__buf_12
*I *3572:X O *D sky130_fd_sc_hd__and4b_1
*CAP
1 *3812:A 0.000444821
2 *3572:X 0.000444821
3 *3812:A *3705:A 0.000194339
4 *3812:A *350:54 0.000609633
5 wbs_dat_o[22] *3812:A 8.52883e-05
6 *392:DIODE *3812:A 2.0851e-06
7 *3649:A *3812:A 0
8 *120:42 *3812:A 0.00111121
*RES
1 *3572:X *3812:A 20.73 
*END

*D_NET *347 0.00334768
*CONN
*I *3813:A I *D sky130_fd_sc_hd__buf_12
*I *3573:X O *D sky130_fd_sc_hd__and4b_1
*CAP
1 *3813:A 0.0010594
2 *3573:X 0.0010594
3 *3813:A *367:159 0.000163503
4 wbs_dat_o[22] *3813:A 2.36774e-05
5 wbs_dat_o[23] *3813:A 4.82919e-05
6 *393:DIODE *3813:A 0
7 *403:DIODE *3813:A 3.79351e-05
8 *3614:A *3813:A 0
9 *3688:A *3813:A 0.000385627
10 *115:29 *3813:A 0.000217861
11 *118:19 *3813:A 0
12 *129:42 *3813:A 2.75588e-05
13 *129:48 *3813:A 6.18658e-05
14 *129:50 *3813:A 5.46982e-05
15 *129:52 *3813:A 8.93992e-05
16 *281:26 *3813:A 6.88421e-05
17 *317:42 *3813:A 4.96234e-05
*RES
1 *3573:X *3813:A 25.17 
*END

*D_NET *348 0.00579884
*CONN
*I *3814:A I *D sky130_fd_sc_hd__buf_12
*I *3574:X O *D sky130_fd_sc_hd__and4b_1
*CAP
1 *3814:A 0.00132939
2 *3574:X 0.00132939
3 *3814:A *3577:A_N 3.43012e-05
4 *3814:A *3815:A 0.00147341
5 *3814:A *367:172 0.000356395
6 *3814:A *367:179 9.21168e-05
7 wbs_dat_o[24] *3814:A 0.000164874
8 wbs_dat_o[25] *3814:A 1.44775e-05
9 *426:DIODE *3814:A 6.66468e-05
10 *3575:D *3814:A 1.32668e-05
11 *3708:A *3814:A 0
12 *115:29 *3814:A 0.000163204
13 *259:26 *3814:A 0.000761369
*RES
1 *3574:X *3814:A 32.04 
*END

*D_NET *349 0.00390107
*CONN
*I *3815:A I *D sky130_fd_sc_hd__buf_12
*I *3575:X O *D sky130_fd_sc_hd__and4b_1
*CAP
1 *3815:A 0.000514439
2 *3575:X 0.000514439
3 *3815:A *3577:A_N 0.000224752
4 *3815:A *3816:A 0.00017076
5 wbs_dat_o[25] *3815:A 0.000124007
6 *405:DIODE *3815:A 0.000159947
7 *426:DIODE *3815:A 4.97019e-05
8 *3814:A *3815:A 0.00147341
9 *120:40 *3815:A 0.000342784
10 *132:41 *3815:A 3.67923e-05
11 *132:47 *3815:A 0.000113803
12 *132:49 *3815:A 0.000167501
13 *259:26 *3815:A 8.73147e-06
*RES
1 *3575:X *3815:A 24.48 
*END

*D_NET *350 0.0429963
*CONN
*I *3707:A I *D sky130_fd_sc_hd__dlygate4sd3_1
*I *3794:X O *D sky130_fd_sc_hd__buf_4
*CAP
1 *3707:A 0
2 *3794:X 0.00204513
3 *350:64 0.00124155
4 *350:54 0.00476894
5 *350:30 0.00432783
6 *350:26 0.00284558
7 *350:26 *3705:A 0.0016152
8 *350:26 *3827:A 0.000421961
9 *350:30 *3705:A 0.000253473
10 *350:54 *3705:A 0.000201104
11 *350:64 *3737:vpwrac 0.000778041
12 wbs_dat_o[22] *350:54 0.000235668
13 *3575:D *350:54 0
14 *3639:A *350:26 0.000230435
15 *3663:A *350:30 0.000211326
16 *3692:A *350:54 0.000100139
17 *3693:A *350:26 0.000982311
18 *3702:A *350:54 0.000665601
19 *3712:A *350:26 4.66108e-05
20 *3737:DI[14] *350:54 0.00145277
21 *3737:DI[13] *350:54 0.000737339
22 *3767:A *350:54 5.30673e-05
23 *3785:A *350:26 2.04531e-05
24 *3812:A *350:54 0.000609633
25 *111:14 *350:26 0.000108306
26 *111:14 *350:30 0.000163204
27 *113:29 *350:54 9.82856e-06
28 *118:15 *350:64 1.37226e-05
29 *120:42 *350:30 0.00380035
30 *120:42 *350:54 0.000337676
31 *121:40 *350:54 3.0276e-05
32 *121:46 *350:30 0.00304598
33 *129:11 *350:54 0.000736812
34 *130:25 *350:54 0.000514069
35 *145:73 *350:54 0
36 *162:24 *350:54 7.10991e-06
37 *203:14 *350:30 0.000161831
38 *206:10 *350:64 6.36578e-05
39 *219:36 *350:54 4.87198e-05
40 *219:42 *350:64 2.54436e-05
41 *241:48 *350:54 0.000634552
42 *241:84 *350:64 4.66108e-05
43 *258:12 *350:26 5.83121e-06
44 *258:30 *350:64 0.00331763
45 *303:24 *350:54 0.000352161
46 *304:14 *350:54 0
47 *317:50 *350:64 4.63276e-05
48 *322:14 *350:30 0.000483282
49 *329:77 *350:54 0.000651224
50 *332:38 *350:26 0
51 *333:32 *350:26 0.00105233
52 *339:54 *350:64 0.00349519
*RES
1 *3794:X *350:26 32.7252 
2 *350:26 *350:30 40.395 
3 *350:30 *350:54 49.5097 
4 *350:54 *350:64 49.525 
5 *350:64 *3707:A 1.6 
*END

*D_NET *351 0.00325142
*CONN
*I *3816:A I *D sky130_fd_sc_hd__buf_12
*I *3576:X O *D sky130_fd_sc_hd__and4b_1
*CAP
1 *3816:A 0.000638433
2 *3576:X 0.000638433
3 *3771:A *3816:A 3.85504e-05
4 *3815:A *3816:A 0.00017076
5 *132:37 *3816:A 0.000173748
6 *132:39 *3816:A 0.000120238
7 *132:41 *3816:A 8.79804e-05
8 *145:77 *3816:A 0.000446515
9 *164:12 *3816:A 0.00026784
10 *219:36 *3816:A 0.000147377
11 *259:26 *3816:A 7.67022e-05
12 *304:14 *3816:A 0.000444839
*RES
1 *3576:X *3816:A 25.45 
*END

*D_NET *352 0.00331853
*CONN
*I *3817:A I *D sky130_fd_sc_hd__buf_12
*I *3577:X O *D sky130_fd_sc_hd__and4b_1
*CAP
1 *3817:A 0.000498367
2 *3577:X 0.000498367
3 wbs_dat_o[27] *3817:A 0.000306469
4 *3770:A *3817:A 6.92569e-05
5 *3:17 *3817:A 0.000133266
6 *120:40 *3817:A 0.000745941
7 *258:28 *3817:A 8.76863e-05
8 *281:36 *3817:A 0.000745941
9 *302:20 *3817:A 0.000233232
*RES
1 *3577:X *3817:A 22.695 
*END

*D_NET *353 0.00454625
*CONN
*I *3818:A I *D sky130_fd_sc_hd__buf_12
*I *3578:X O *D sky130_fd_sc_hd__and4b_1
*CAP
1 *3818:A 0.00117917
2 *3578:X 0.00117917
3 *3818:A *3819:A 0.000200346
4 wbs_dat_o[28] *3818:A 0.000133708
5 *444:DIODE *3818:A 0.000137781
6 *3611:A *3818:A 0.00032222
7 *3630:A *3818:A 0.000205372
8 *3655:A *3818:A 0.000121561
9 *136:13 *3818:A 3.02668e-05
10 *304:16 *3818:A 0.00020174
11 *305:10 *3818:A 0
12 *309:8 *3818:A 0.000196566
13 *309:10 *3818:A 0
14 *327:87 *3818:A 0.000638359
*RES
1 *3578:X *3818:A 30.3 
*END

*D_NET *354 0.00303352
*CONN
*I *3819:A I *D sky130_fd_sc_hd__buf_12
*I *3579:X O *D sky130_fd_sc_hd__and4b_1
*CAP
1 *3819:A 0.000597943
2 *3579:X 0.000597943
3 wbs_dat_o[29] *3819:A 0.000352161
4 *444:DIODE *3819:A 6.72143e-05
5 *3581:B *3819:A 3.14086e-05
6 *3818:A *3819:A 0.000200346
7 *113:29 *3819:A 0.000572703
8 *121:32 *3819:A 0.000145535
9 *170:103 *3819:A 0.000338534
10 *309:10 *3819:A 0.000129736
*RES
1 *3579:X *3819:A 21.495 
*END

*D_NET *355 0.00363982
*CONN
*I *3820:A I *D sky130_fd_sc_hd__buf_12
*I *3584:X O *D sky130_fd_sc_hd__and4b_1
*CAP
1 *3820:A 0.000769176
2 *3584:X 0.000769176
3 *3820:A *3824:A 0.00020073
4 wbs_dat_o[3] *3820:A 0.000122331
5 wbs_dat_o[4] *3820:A 0.00022645
6 *3588:D *3820:A 8.85076e-05
7 *3609:A *3820:A 1.20526e-05
8 *3798:A *3820:A 0.000787992
9 *323:18 *3820:A 3.43327e-05
10 *324:12 *3820:A 0.000620763
11 *336:36 *3820:A 8.30853e-06
*RES
1 *3584:X *3820:A 25.245 
*END

*D_NET *356 0.0034105
*CONN
*I *3821:A I *D sky130_fd_sc_hd__buf_12
*I *3580:X O *D sky130_fd_sc_hd__and4b_1
*CAP
1 *3821:A 0.00137636
2 *3580:X 0.00137636
3 *3821:A *3822:A 8.25334e-05
4 wbs_dat_o[30] *3821:A 4.77757e-05
5 wbs_dat_o[31] *3821:A 0
6 *3581:B *3821:A 0.00034367
7 *3581:C *3821:A 1.11938e-05
8 *3581:D *3821:A 2.80648e-05
9 *3631:A *3821:A 2.97004e-06
10 *3655:A *3821:A 0.000108706
11 *3774:A *3821:A 1.16664e-05
12 *120:18 *3821:A 0
13 *121:22 *3821:A 0
14 *311:10 *3821:A 0
15 *327:87 *3821:A 2.11921e-05
*RES
1 *3580:X *3821:A 29.01 
*END

*D_NET *357 0.00240371
*CONN
*I *3822:A I *D sky130_fd_sc_hd__buf_12
*I *3581:X O *D sky130_fd_sc_hd__and4b_1
*CAP
1 *3822:A 0.00116059
2 *3581:X 0.00116059
3 *3655:A *3822:A 0
4 *3821:A *3822:A 8.25334e-05
*RES
1 *3581:X *3822:A 22.71 
*END

*D_NET *358 0.00152483
*CONN
*I *3823:A I *D sky130_fd_sc_hd__buf_12
*I *3585:X O *D sky130_fd_sc_hd__and4b_1
*CAP
1 *3823:A 0.000434636
2 *3585:X 0.000434636
3 *3823:A *3825:A 4.24282e-05
4 *3823:A *365:28 0
5 *457:DIODE *3823:A 1.30972e-05
6 *3564:D *3823:A 4.82863e-05
7 *3617:A *3823:A 0.000190051
8 *3809:A *3823:A 0.000137094
9 *324:12 *3823:A 0.000169484
10 *334:32 *3823:A 5.51169e-05
*RES
1 *3585:X *3823:A 15.15 
*END

*D_NET *359 0.0026669
*CONN
*I *3824:A I *D sky130_fd_sc_hd__buf_12
*I *3586:X O *D sky130_fd_sc_hd__and4b_1
*CAP
1 *3824:A 0.000605147
2 *3586:X 0.000605147
3 *3824:A *3583:B 0.000109372
4 *3824:A *3584:C 0.0001877
5 *3824:A *3825:A 0.00012936
6 *3824:A *368:133 8.23457e-05
7 *3824:A *368:137 7.81792e-05
8 wbs_dat_o[4] *3824:A 0.000119246
9 *3588:D *3824:A 0.000191052
10 *3609:A *3824:A 0.000147792
11 *3798:A *3824:A 9.47267e-06
12 *3820:A *3824:A 0.00020073
13 *124:23 *3824:A 4.92144e-05
14 *323:18 *3824:A 0.000125295
15 *336:36 *3824:A 2.68526e-05
*RES
1 *3586:X *3824:A 20.265 
*END

*D_NET *360 0.0037098
*CONN
*I *3825:A I *D sky130_fd_sc_hd__buf_12
*I *3587:X O *D sky130_fd_sc_hd__and4b_1
*CAP
1 *3825:A 0.000721915
2 *3587:X 0.000721915
3 *3825:A *3556:C 1.95339e-05
4 *3825:A *3584:B 2.8531e-05
5 *3825:A *3827:A 1.7635e-05
6 *3825:A *365:28 3.59531e-06
7 *3583:D *3825:A 0.000155491
8 *3588:D *3825:A 0.000153816
9 *3607:A *3825:A 0.000201081
10 *3609:A *3825:A 0.000335941
11 *3639:A *3825:A 0
12 *3798:A *3825:A 0.000576442
13 *3823:A *3825:A 4.24282e-05
14 *3824:A *3825:A 0.00012936
15 *115:41 *3825:A 0.000117586
16 *124:23 *3825:A 7.26348e-05
17 *317:30 *3825:A 0.000401024
18 *317:32 *3825:A 1.08758e-05
*RES
1 *3587:X *3825:A 28.9 
*END

*D_NET *361 0.051423
*CONN
*I *3713:A I *D sky130_fd_sc_hd__dlygate4sd3_1
*I *3795:X O *D sky130_fd_sc_hd__buf_4
*CAP
1 *3713:A 0.00987828
2 *3795:X 0.00987828
3 *3713:A *3705:A 0.00137171
4 *3713:A *3737:vpwrpc 1.67432e-05
5 *3713:A *3827:A 2.10433e-05
6 *3713:A *3828:A 0.00108563
7 *3713:A *367:52 0.000143637
8 *3674:A *3713:A 0.0113443
9 *3683:A *3713:A 0.000512195
10 *3716:A *3713:A 1.17114e-05
11 *3720:A *3713:A 0.00348682
12 *3781:A *3713:A 1.92979e-05
13 *3806:A *3713:A 0.000101392
14 *113:29 *3713:A 0.000831867
15 *113:31 *3713:A 0.000341575
16 *115:17 *3713:A 0.000723134
17 *118:23 *3713:A 0.000354859
18 *120:40 *3713:A 0.00068056
19 *122:29 *3713:A 0.00190625
20 *142:19 *3713:A 0.00168118
21 *144:9 *3713:A 0.000191226
22 *145:73 *3713:A 0.000730063
23 *186:28 *3713:A 0.000101647
24 *206:10 *3713:A 1.7635e-05
25 *232:8 *3713:A 3.64998e-06
26 *258:14 *3713:A 0.000314888
27 *281:36 *3713:A 0.000137093
28 *281:38 *3713:A 0.00100222
29 *302:22 *3713:A 0.00101014
30 *303:36 *3713:A 0.00123552
31 *317:32 *3713:A 0.00106928
32 *320:12 *3713:A 0.000156708
33 *322:14 *3713:A 0.000101392
34 *326:24 *3713:A 0
35 *339:24 *3713:A 0.000495541
36 *339:26 *3713:A 0.000354859
37 *339:48 *3713:A 0.000110612
*RES
1 *3795:X *3713:A 44.1674 
*END

*D_NET *362 0.00440577
*CONN
*I *3826:A I *D sky130_fd_sc_hd__buf_12
*I *3556:X O *D sky130_fd_sc_hd__and4b_1
*CAP
1 *3826:A 0.00138489
2 *3556:X 0.00138489
3 *3826:A *3705:A 1.5874e-05
4 *3826:A *3827:A 0.000280054
5 *457:DIODE *3826:A 9.72473e-05
6 *3556:D *3826:A 1.67131e-05
7 *3606:A *3826:A 0
8 *3796:A *3826:A 0
9 *111:14 *3826:A 0.000908247
10 *317:30 *3826:A 0.000187558
11 *333:32 *3826:A 0.000130294
*RES
1 *3556:X *3826:A 31.39 
*END

*D_NET *363 0.00758543
*CONN
*I *3827:A I *D sky130_fd_sc_hd__buf_12
*I *3557:X O *D sky130_fd_sc_hd__and4b_1
*CAP
1 *3827:A 0.00151725
2 *3557:X 0.00151725
3 *3827:A *3556:C 9.82856e-06
4 *3827:A *367:52 3.94855e-05
5 wbs_dat_o[6] *3827:A 6.96631e-05
6 *3564:D *3827:A 0.000267846
7 *3587:D *3827:A 0.000893276
8 *3606:A *3827:A 0
9 *3636:A *3827:A 0.000272943
10 *3637:A *3827:A 0.000108267
11 *3639:A *3827:A 4.9968e-05
12 *3703:A *3827:A 0.000110618
13 *3713:A *3827:A 2.10433e-05
14 *3781:A *3827:A 0.00019149
15 *3782:A *3827:A 0
16 *3825:A *3827:A 1.7635e-05
17 *3826:A *3827:A 0.000280054
18 *115:41 *3827:A 7.3681e-05
19 *142:19 *3827:A 0.00105247
20 *181:24 *3827:A 0
21 *315:20 *3827:A 0.000210948
22 *325:14 *3827:A 0.000459759
23 *350:26 *3827:A 0.000421961
*RES
1 *3557:X *3827:A 35.7095 
*END

*D_NET *364 0.0101325
*CONN
*I *3828:A I *D sky130_fd_sc_hd__buf_12
*I *3558:X O *D sky130_fd_sc_hd__and4b_1
*CAP
1 *3828:A 0.00208562
2 *3558:X 0.00208562
3 *3828:A *3557:A_N 1.42171e-05
4 *3828:A *3557:B 4.66108e-05
5 *3828:A *366:103 2.88598e-05
6 *3828:A *366:116 9.77048e-06
7 *3828:A *367:52 2.5424e-05
8 *462:DIODE *3828:A 6.59906e-05
9 *3557:D *3828:A 9.80863e-05
10 *3558:D *3828:A 3.21081e-06
11 *3564:D *3828:A 9.43385e-05
12 *3604:A *3828:A 0
13 *3605:A *3828:A 0
14 *3621:A *3828:A 1.47759e-05
15 *3635:A *3828:A 2.99518e-06
16 *3702:A *3828:A 4.29731e-05
17 *3713:A *3828:A 0.00108563
18 *3748:A *3828:A 0
19 *3749:A *3828:A 0
20 *3783:A *3828:A 2.63533e-05
21 *3809:A *3828:A 0.000567384
22 *111:14 *3828:A 0.000467068
23 *142:19 *3828:A 0.0024858
24 *181:24 *3828:A 0.000149148
25 *316:18 *3828:A 0.000108669
26 *319:12 *3828:A 0.000162721
27 *332:38 *3828:A 0
28 *333:32 *3828:A 0
29 *339:24 *3828:A 0.000461267
*RES
1 *3558:X *3828:A 34.5019 
*END

*D_NET *365 0.00957469
*CONN
*I *3829:A I *D sky130_fd_sc_hd__buf_12
*I *3559:X O *D sky130_fd_sc_hd__and4b_1
*CAP
1 *3829:A 0.000715381
2 *3559:X 0.00116604
3 *365:28 0.00188142
4 *365:28 *3556:C 4.78726e-05
5 wbs_dat_o[10] *3829:A 0.000152449
6 *460:DIODE *365:28 1.72766e-05
7 *3588:RESET_B *365:28 1.82242e-05
8 *3632:A *3829:A 0
9 *3634:A *3829:A 0.000419386
10 *3640:A *365:28 1.39502e-05
11 *3686:A *3829:A 2.99518e-06
12 *3779:A *365:28 0
13 *3797:A *365:28 0.000623477
14 *3823:A *365:28 0
15 *3825:A *365:28 3.59531e-06
16 *3:13 *365:28 0
17 *141:23 *365:28 1.23015e-05
18 *317:30 *365:28 0.000591583
19 *334:32 *365:28 0.000364593
20 *334:38 *3829:A 0.000923461
21 *334:38 *365:28 0.000583518
22 *335:14 *365:28 0.000543166
23 *335:16 *3829:A 0.00133018
24 *335:16 *365:28 0.000163813
*RES
1 *3559:X *365:28 33.8975 
2 *365:28 *3829:A 32.2625 
*END

*D_NET *366 0.0115635
*CONN
*I *3560:A_N I *D sky130_fd_sc_hd__and4b_1
*I *3582:A_N I *D sky130_fd_sc_hd__and4b_1
*I *3586:A_N I *D sky130_fd_sc_hd__and4b_1
*I *3584:A_N I *D sky130_fd_sc_hd__and4b_1
*I *3585:A_N I *D sky130_fd_sc_hd__and4b_1
*I *3587:A_N I *D sky130_fd_sc_hd__and4b_1
*I *3556:A_N I *D sky130_fd_sc_hd__and4b_1
*I *3557:A_N I *D sky130_fd_sc_hd__and4b_1
*I *3558:A_N I *D sky130_fd_sc_hd__and4b_1
*I *3559:A_N I *D sky130_fd_sc_hd__and4b_1
*I *3563:A_N I *D sky130_fd_sc_hd__and4b_2
*I *3561:A_N I *D sky130_fd_sc_hd__and4b_1
*I *3562:A_N I *D sky130_fd_sc_hd__and4b_2
*I *3565:A_N I *D sky130_fd_sc_hd__and4b_2
*I *3564:A_N I *D sky130_fd_sc_hd__and4b_2
*I *3593:X O *D sky130_fd_sc_hd__clkbuf_2
*CAP
1 *3560:A_N 0.000128408
2 *3582:A_N 0
3 *3586:A_N 0.000133448
4 *3584:A_N 0.000167855
5 *3585:A_N 0
6 *3587:A_N 0
7 *3556:A_N 7.96926e-05
8 *3557:A_N 4.77258e-05
9 *3558:A_N 2.12768e-05
10 *3559:A_N 7.05264e-05
11 *3563:A_N 0.000218555
12 *3561:A_N 8.06862e-05
13 *3562:A_N 0
14 *3565:A_N 0
15 *3564:A_N 9.4475e-05
16 *3593:X 0
17 *366:153 0.000301303
18 *366:151 0.000205876
19 *366:136 0.000344491
20 *366:129 0.000174674
21 *366:116 0.000362897
22 *366:103 0.000570388
23 *366:90 0.000308531
24 *366:75 0.000165135
25 *366:71 0.000239356
26 *366:45 0.000381032
27 *366:43 0.000193173
28 *366:32 0.000239767
29 *366:19 0.000239222
30 *366:4 0.000177235
31 *3556:A_N *370:103 0.000108257
32 *3559:A_N *370:54 6.9117e-05
33 *3560:A_N *3560:B 2.43324e-05
34 *3560:A_N *368:30 2.97897e-05
35 *3560:A_N *368:34 1.37471e-05
36 *3560:A_N *369:12 4.55864e-06
37 *3560:A_N *370:52 1.32824e-05
38 *3563:A_N *3563:C 0.000224662
39 *366:19 *3564:C 8.33341e-05
40 *366:32 *3564:C 0.000143466
41 *366:32 *368:6 0.000119595
42 *366:43 *368:34 5.06331e-06
43 *366:45 *368:34 2.79929e-05
44 *366:45 *370:54 0
45 *366:75 *3561:B 0
46 *366:75 *370:52 4.18603e-06
47 *366:75 *370:54 0
48 *366:103 *3558:B 8.65961e-05
49 *366:116 *370:90 0
50 *366:129 *370:103 7.20828e-05
51 *366:136 *3557:B 4.66108e-05
52 *366:136 *369:28 4.66742e-05
53 *366:136 *370:116 7.3151e-05
54 *366:136 *370:125 0.00033961
55 *366:151 *3582:B 4.82863e-05
56 *366:151 *3582:C 0.000193113
57 *366:151 *3583:A_N 4.66108e-05
58 *366:151 *369:28 8.247e-05
59 *366:151 *369:35 5.74317e-05
60 *469:DIODE *3563:A_N 3.83041e-05
61 *3557:D *3556:A_N 1.88595e-05
62 *3557:D *366:129 1.44259e-05
63 *3558:D *3558:A_N 0
64 *3558:D *366:103 7.35298e-05
65 *3560:D *3560:A_N 8.7152e-06
66 *3561:D *3561:A_N 5.16418e-05
67 *3562:D *3558:A_N 0
68 *3562:D *366:43 9.14035e-05
69 *3562:D *366:103 0
70 *3563:D *3563:A_N 8.96356e-05
71 *3564:D *366:43 0.000158072
72 *3564:D *366:90 2.75229e-05
73 *3564:D *366:103 2.16833e-05
74 *3564:D *366:116 0.000192393
75 *3564:D *366:136 0.000196952
76 *3582:D *366:151 5.79655e-05
77 *3583:D *366:136 8.23457e-05
78 *3583:D *366:151 9.74942e-05
79 *3584:D *3584:A_N 4.60061e-05
80 *3585:D *366:136 2.05864e-05
81 *3586:D *3586:A_N 8.33308e-05
82 *3587:D *3584:A_N 1.88656e-05
83 *3587:D *366:136 0.000114486
84 *3620:A *3563:A_N 0.000158066
85 *3699:A *366:32 0.000147088
86 *3778:A *3561:A_N 8.40213e-05
87 *3791:A *3564:A_N 5.62494e-05
88 *3793:A *3561:A_N 4.48513e-05
89 *3793:A *366:45 4.43871e-06
90 *3828:A *3557:A_N 1.42171e-05
91 *3828:A *366:103 2.88598e-05
92 *3828:A *366:116 9.77048e-06
93 *113:55 *366:151 0.000119756
94 *117:21 *366:32 0.000147088
95 *118:39 *366:151 0.000213897
96 *135:21 *3584:A_N 0.000234456
97 *135:21 *3586:A_N 0.000135391
98 *139:43 *3586:A_N 0.000107205
99 *140:19 *3584:A_N 1.98158e-05
100 *140:19 *3586:A_N 0.000143356
101 *181:24 *3561:A_N 8.57024e-05
102 *312:22 *3564:A_N 3.43685e-05
103 *315:20 *3584:A_N 6.92209e-05
104 *316:18 *366:129 0
105 *317:30 *3559:A_N 4.82919e-05
106 *317:30 *3563:A_N 0.000109365
107 *317:32 *3584:A_N 0.000193286
108 *328:16 *3564:A_N 2.64607e-05
109 *328:16 *366:19 0.000109058
110 *328:16 *366:32 0.000143667
111 *328:18 *3586:A_N 4.05722e-05
112 *334:32 *366:90 4.82919e-05
113 *334:32 *366:103 7.23635e-05
114 *336:36 *3561:A_N 0.000179015
115 *336:36 *366:45 0.000114666
116 *337:26 *3586:A_N 0.000118081
117 *339:24 *3561:A_N 4.1977e-05
118 *339:24 *3563:A_N 4.66108e-05
*RES
1 *3593:X *366:4 1.6 
2 *366:4 *3564:A_N 7.43 
3 *366:4 *366:19 1.83 
4 *366:19 *3565:A_N 1.6 
5 *366:19 *366:32 8.41 
6 *366:32 *3562:A_N 1.6 
7 *366:32 *366:43 3.935 
8 *366:43 *366:45 2.145 
9 *366:45 *3561:A_N 6.54 
10 *366:45 *3563:A_N 9 
11 *366:43 *366:71 0.45 
12 *366:71 *366:75 1.155 
13 *366:75 *3559:A_N 5.685 
14 *366:75 *366:90 2.45 
15 *366:90 *3558:A_N 1.96 
16 *366:90 *366:103 4.02 
17 *366:103 *3557:A_N 2.47 
18 *366:103 *366:116 4.97 
19 *366:116 *3556:A_N 4.98 
20 *366:116 *366:129 2.87 
21 *366:129 *3587:A_N 1.6 
22 *366:129 *366:136 5.28 
23 *366:136 *3585:A_N 1.6 
24 *366:136 *366:151 6.555 
25 *366:151 *366:153 2 
26 *366:153 *3584:A_N 7.83 
27 *366:153 *3586:A_N 7.32 
28 *366:151 *3582:A_N 1.6 
29 *366:71 *3560:A_N 5.745 
*END

*D_NET *367 0.0365377
*CONN
*I *3553:A I *D sky130_fd_sc_hd__clkinv_4
*I *3566:A_N I *D sky130_fd_sc_hd__and4b_1
*I *3567:A_N I *D sky130_fd_sc_hd__and4b_1
*I *3569:A_N I *D sky130_fd_sc_hd__and4b_1
*I *3577:A_N I *D sky130_fd_sc_hd__and4b_1
*I *3576:A_N I *D sky130_fd_sc_hd__and4b_1
*I *3575:A_N I *D sky130_fd_sc_hd__and4b_1
*I *3574:A_N I *D sky130_fd_sc_hd__and4b_1
*I *3573:A_N I *D sky130_fd_sc_hd__and4b_1
*I *3572:A_N I *D sky130_fd_sc_hd__and4b_1
*I *3571:A_N I *D sky130_fd_sc_hd__and4b_1
*I *3570:A_N I *D sky130_fd_sc_hd__and4b_1
*I *3568:A_N I *D sky130_fd_sc_hd__and4b_1
*I *3583:A_N I *D sky130_fd_sc_hd__and4b_1
*I *3593:A I *D sky130_fd_sc_hd__clkbuf_2
*I *3594:X O *D sky130_fd_sc_hd__buf_4
*CAP
1 *3553:A 0.000589765
2 *3566:A_N 2.38997e-05
3 *3567:A_N 0
4 *3569:A_N 0
5 *3577:A_N 0.000259629
6 *3576:A_N 0.000235366
7 *3575:A_N 0
8 *3574:A_N 0
9 *3573:A_N 2.21004e-05
10 *3572:A_N 2.21004e-05
11 *3571:A_N 2.73778e-05
12 *3570:A_N 0
13 *3568:A_N 0
14 *3583:A_N 3.72345e-05
15 *3593:A 0.000680091
16 *3594:X 0
17 *367:179 0.000519393
18 *367:172 0.000236739
19 *367:159 0.000457708
20 *367:146 0.000576124
21 *367:137 0.000554353
22 *367:128 0.000440596
23 *367:113 0.00049143
24 *367:103 0.000592405
25 *367:84 0.000890055
26 *367:68 0.00106555
27 *367:56 0.00114531
28 *367:52 0.00288357
29 *367:25 0.00217862
30 *367:4 0.00118299
31 *3553:A *371:42 0
32 *3576:A_N *371:153 6.59891e-05
33 *3577:A_N *3577:B 0.000254505
34 *3577:A_N *369:124 1.99109e-05
35 *3577:A_N *369:137 0.000593411
36 *3583:A_N *3584:B 3.7996e-05
37 *3593:A *3597:A 0.000126584
38 *3593:A *369:12 2.75145e-05
39 *3593:A *371:23 0.000372953
40 *367:25 *3583:B 0
41 *367:25 *3584:B 0.000110106
42 *367:25 *370:137 6.86518e-05
43 *367:25 *371:23 0.000970847
44 *367:56 *371:51 8.24703e-05
45 *367:68 *369:51 6.14023e-06
46 *367:68 *371:51 8.12896e-06
47 *367:103 *369:65 1.34594e-05
48 *367:103 *371:88 0.000346246
49 *367:113 *371:99 0.000256166
50 *367:128 *371:99 0.000122801
51 *367:128 *371:118 0.000383614
52 *367:137 *371:118 5.0751e-05
53 *367:137 *371:125 0.000199641
54 *367:146 *371:125 4.82369e-05
55 *367:146 *371:132 6.48823e-05
56 *367:159 *371:132 1.47347e-05
57 *367:159 *371:139 0.000182071
58 *367:172 *369:113 1.09302e-05
59 *367:172 *369:124 0.000280999
60 *367:172 *371:139 6.98693e-05
61 *367:179 *369:124 0.000141245
62 *388:DIODE *367:103 4.99619e-05
63 *388:DIODE *367:113 0.00013219
64 *390:DIODE *367:128 0.000198344
65 *392:DIODE *367:137 4.77719e-05
66 *392:DIODE *367:146 0.00014828
67 *395:DIODE *3583:A_N 2.0851e-06
68 *405:DIODE *3577:A_N 0.000159947
69 *406:DIODE *367:25 5.78556e-05
70 *3566:D *367:68 9.78493e-05
71 *3567:D *367:68 8.68332e-06
72 *3567:D *367:84 7.9642e-06
73 *3569:D *367:113 2.57121e-05
74 *3570:D *367:128 1.04087e-05
75 *3571:D *367:137 2.05864e-05
76 *3572:D *367:146 5.87007e-05
77 *3573:D *367:159 2.20665e-05
78 *3575:D *3576:A_N 0.000164402
79 *3575:D *3577:A_N 2.05864e-05
80 *3587:D *367:52 0.000323147
81 *3588:D *367:52 0.000165928
82 *3645:A *367:52 4.18827e-05
83 *3645:A *367:56 0.00135357
84 *3663:A *367:103 2.04649e-05
85 *3693:A *367:84 0
86 *3713:A *367:52 0.000143637
87 *3783:A *367:52 7.9642e-06
88 *3791:A *3593:A 7.9642e-06
89 *3805:A *367:68 0.000401705
90 *3805:A *367:103 0.000123955
91 *3807:A *367:103 0.000313852
92 *3808:A *367:113 0.000378887
93 *3808:A *367:128 0.000256977
94 *3808:A *367:137 0.000224692
95 *3810:A *367:128 0.000209846
96 *3811:A *367:137 0.000122325
97 *3813:A *367:159 0.000163503
98 *3814:A *3577:A_N 3.43012e-05
99 *3814:A *367:172 0.000356395
100 *3814:A *367:179 9.21168e-05
101 *3815:A *3577:A_N 0.000224752
102 *3827:A *367:52 3.94855e-05
103 *3828:A *367:52 2.5424e-05
104 *113:43 *367:52 0.00020279
105 *113:57 *3583:A_N 7.59573e-06
106 *113:57 *367:25 2.0851e-06
107 *118:39 *3583:A_N 4.77757e-05
108 *118:39 *367:56 2.05056e-05
109 *120:40 *3577:A_N 0.000381088
110 *121:55 *367:68 2.97004e-06
111 *122:29 *367:172 0.000107826
112 *139:29 *3576:A_N 3.35621e-05
113 *142:19 *367:52 0.000411313
114 *142:19 *367:84 0.000652797
115 *145:73 *367:68 8.49205e-05
116 *145:73 *367:103 0.000148458
117 *145:73 *367:146 0.000237301
118 *145:73 *367:159 5.05437e-05
119 *170:28 *3593:A 0.000119246
120 *170:47 *3593:A 0.000217972
121 *170:47 *367:25 0.000629849
122 *203:14 *367:113 2.2684e-05
123 *219:36 *3576:A_N 0.000119066
124 *244:28 *3576:A_N 0.000450259
125 *258:12 *367:52 4.29642e-05
126 *300:12 *3553:A 0.000495101
127 *312:22 *3593:A 0
128 *316:20 *3553:A 0.000495101
129 *318:16 *367:56 0.00192468
130 *319:12 *367:52 6.90205e-05
131 *320:12 *367:52 0.00118534
132 *327:22 *3593:A 0.000229541
133 *327:43 *3593:A 0.000317783
134 *327:43 *367:25 4.30228e-05
135 *328:16 *367:25 4.96965e-05
136 *328:36 *3576:A_N 0.000186682
137 *329:53 *367:25 9.5799e-06
138 *332:38 *3553:A 0
139 *332:38 *367:25 0
140 *332:38 *367:52 0
141 *339:24 *367:52 0.00118251
142 *366:151 *3583:A_N 4.66108e-05
*RES
1 *3594:X *367:4 1.6 
2 *367:4 *3593:A 19.925 
3 *367:4 *367:25 16.3625 
4 *367:25 *3583:A_N 4.5375 
5 *367:25 *367:52 22.9214 
6 *367:52 *367:56 22.115 
7 *367:56 *367:68 11.05 
8 *367:68 *367:84 7.39527 
9 *367:84 *3568:A_N 1.6 
10 *367:84 *367:103 12.175 
11 *367:103 *367:113 10.945 
12 *367:113 *3570:A_N 1.6 
13 *367:113 *367:128 10.69 
14 *367:128 *3571:A_N 1.96 
15 *367:128 *367:137 5.97 
16 *367:137 *3572:A_N 1.96 
17 *367:137 *367:146 6.66 
18 *367:146 *3573:A_N 1.96 
19 *367:146 *367:159 5.4 
20 *367:159 *3574:A_N 1.6 
21 *367:159 *367:172 6.45 
22 *367:172 *3575:A_N 1.6 
23 *367:172 *367:179 1.485 
24 *367:179 *3576:A_N 11.99 
25 *367:179 *3577:A_N 11.725 
26 *367:103 *3569:A_N 1.6 
27 *367:68 *3567:A_N 1.6 
28 *367:56 *3566:A_N 1.96 
29 *367:52 *3553:A 14.67 
*END

*D_NET *368 0.0112283
*CONN
*I *3558:C I *D sky130_fd_sc_hd__and4b_1
*I *3560:C I *D sky130_fd_sc_hd__and4b_1
*I *3585:C I *D sky130_fd_sc_hd__and4b_1
*I *3586:C I *D sky130_fd_sc_hd__and4b_1
*I *3582:C I *D sky130_fd_sc_hd__and4b_1
*I *3584:C I *D sky130_fd_sc_hd__and4b_1
*I *3587:C I *D sky130_fd_sc_hd__and4b_1
*I *3556:C I *D sky130_fd_sc_hd__and4b_1
*I *3557:C I *D sky130_fd_sc_hd__and4b_1
*I *3559:C I *D sky130_fd_sc_hd__and4b_1
*I *3562:C I *D sky130_fd_sc_hd__and4b_2
*I *3563:C I *D sky130_fd_sc_hd__and4b_2
*I *3561:C I *D sky130_fd_sc_hd__and4b_1
*I *3565:C I *D sky130_fd_sc_hd__and4b_2
*I *3564:C I *D sky130_fd_sc_hd__and4b_2
*I *3595:X O *D sky130_fd_sc_hd__clkbuf_2
*CAP
1 *3558:C 0
2 *3560:C 0.000130136
3 *3585:C 0
4 *3586:C 0
5 *3582:C 4.52096e-05
6 *3584:C 8.73267e-05
7 *3587:C 0
8 *3556:C 0.000131153
9 *3557:C 2.17671e-05
10 *3559:C 0.000137753
11 *3562:C 0
12 *3563:C 0.000229025
13 *3561:C 0.000155475
14 *3565:C 0
15 *3564:C 0.000207368
16 *3595:X 0
17 *368:137 0.00017709
18 *368:133 0.000304112
19 *368:123 0.00044203
20 *368:116 0.000209751
21 *368:103 0.000455191
22 *368:88 0.000666379
23 *368:67 0.000554658
24 *368:65 0.000199187
25 *368:63 0.000243733
26 *368:56 0.000243733
27 *368:34 0.000555555
28 *368:30 0.000253774
29 *368:6 0.000377634
30 *368:4 0.000252985
31 *3559:C *370:54 1.08194e-05
32 *3559:C *370:71 1.16578e-05
33 *3559:C *370:90 4.99619e-05
34 *3560:C *369:28 0.000121102
35 *3582:C *369:35 0.000193113
36 *3584:C *3584:B 0.000188168
37 *368:30 *369:28 1.08758e-05
38 *368:34 *370:48 3.69766e-05
39 *368:67 *370:52 0
40 *368:67 *370:54 3.60648e-06
41 *368:123 *370:125 0.000275553
42 *368:133 *369:28 8.23457e-05
43 *368:133 *370:133 8.53307e-05
44 *368:137 *3584:B 8.71601e-05
45 *462:DIODE *368:88 6.45244e-05
46 *462:DIODE *368:103 1.67712e-05
47 *463:DIODE *368:63 0.000234674
48 *3558:D *368:63 0.000120655
49 *3560:A_N *368:30 2.97897e-05
50 *3560:A_N *368:34 1.37471e-05
51 *3561:D *3561:C 4.66108e-05
52 *3563:A_N *3563:C 0.000224662
53 *3564:D *368:67 7.96104e-06
54 *3564:D *368:88 0.000265011
55 *3587:D *3556:C 0
56 *3699:A *3561:C 3.67779e-05
57 *3699:A *368:30 1.51915e-05
58 *3699:A *368:34 0.000123438
59 *3778:A *3561:C 6.00027e-05
60 *3809:A *3559:C 7.30547e-05
61 *3809:A *368:88 5.15692e-05
62 *3824:A *3584:C 0.0001877
63 *3824:A *368:133 8.23457e-05
64 *3824:A *368:137 7.81792e-05
65 *3825:A *3556:C 1.95339e-05
66 *3827:A *3556:C 9.82856e-06
67 *138:19 *3556:C 0
68 *138:19 *368:133 8.65612e-05
69 *141:23 *3556:C 0.000101784
70 *141:23 *368:116 3.0243e-05
71 *142:19 *368:103 0.000116957
72 *143:31 *3560:C 1.51915e-05
73 *143:31 *368:67 7.14892e-06
74 *144:19 *3559:C 7.11439e-05
75 *144:19 *3560:C 6.59891e-05
76 *144:19 *368:67 7.91885e-05
77 *170:28 *3564:C 6.72143e-05
78 *312:22 *3564:C 6.84448e-05
79 *316:18 *3557:C 4.22926e-05
80 *317:30 *3559:C 2.49909e-05
81 *328:16 *368:6 3.98648e-05
82 *328:16 *368:30 1.35273e-05
83 *328:16 *368:133 0.00040797
84 *334:32 *3559:C 0.000131901
85 *336:36 *3561:C 7.06865e-05
86 *336:36 *368:34 0.000167003
87 *365:28 *3556:C 4.78726e-05
88 *366:19 *3564:C 8.33341e-05
89 *366:32 *3564:C 0.000143466
90 *366:32 *368:6 0.000119595
91 *366:43 *368:34 5.06331e-06
92 *366:45 *368:34 2.79929e-05
93 *366:151 *3582:C 0.000193113
*RES
1 *3595:X *368:4 1.6 
2 *368:4 *368:6 2.175 
3 *368:6 *3564:C 8.645 
4 *368:6 *3565:C 1.6 
5 *368:4 *368:30 3.32 
6 *368:30 *368:34 3.87 
7 *368:34 *3561:C 5.955 
8 *368:34 *3563:C 6.465 
9 *368:30 *368:56 2 
10 *368:56 *3562:C 1.6 
11 *368:56 *368:63 3.21 
12 *368:63 *368:65 2 
13 *368:65 *368:67 0.9975 
14 *368:67 *3559:C 6.6225 
15 *368:67 *368:88 1.2448 
16 *368:88 *3557:C 4.5875 
17 *368:88 *368:103 1.00413 
18 *368:103 *3556:C 6.1275 
19 *368:103 *368:116 2.4875 
20 *368:116 *3587:C 1.6 
21 *368:116 *368:123 2.52 
22 *368:123 *368:133 9.385 
23 *368:133 *368:137 3.125 
24 *368:137 *3584:C 6 
25 *368:137 *3582:C 5.43 
26 *368:133 *3586:C 1.6 
27 *368:123 *3585:C 1.6 
28 *368:65 *3560:C 5.61 
29 *368:63 *3558:C 1.6 
*END

*D_NET *369 0.0320366
*CONN
*I *3595:A I *D sky130_fd_sc_hd__clkbuf_2
*I *3570:C I *D sky130_fd_sc_hd__and4b_1
*I *3577:C I *D sky130_fd_sc_hd__and4b_1
*I *3576:C I *D sky130_fd_sc_hd__and4b_1
*I *3575:C I *D sky130_fd_sc_hd__and4b_1
*I *3574:C I *D sky130_fd_sc_hd__and4b_1
*I *3573:C I *D sky130_fd_sc_hd__and4b_1
*I *3572:C I *D sky130_fd_sc_hd__and4b_1
*I *3571:C I *D sky130_fd_sc_hd__and4b_1
*I *3569:C I *D sky130_fd_sc_hd__and4b_1
*I *3568:C I *D sky130_fd_sc_hd__and4b_1
*I *3567:C I *D sky130_fd_sc_hd__and4b_1
*I *3566:C I *D sky130_fd_sc_hd__and4b_1
*I *3555:B I *D sky130_fd_sc_hd__and2_4
*I *3583:C I *D sky130_fd_sc_hd__and4b_1
*I *3596:X O *D sky130_fd_sc_hd__clkbuf_4
*CAP
1 *3595:A 0
2 *3570:C 0
3 *3577:C 0.000477967
4 *3576:C 0
5 *3575:C 0
6 *3574:C 0
7 *3573:C 0
8 *3572:C 0
9 *3571:C 0
10 *3569:C 0
11 *3568:C 0
12 *3567:C 0
13 *3566:C 0
14 *3555:B 3.03602e-05
15 *3583:C 0
16 *3596:X 0.000134285
17 *369:137 0.000646463
18 *369:124 0.000421111
19 *369:113 0.000641774
20 *369:100 0.000857153
21 *369:93 0.000906525
22 *369:86 0.000742929
23 *369:72 0.000765866
24 *369:65 0.000900693
25 *369:58 0.000874027
26 *369:51 0.000870306
27 *369:44 0.00218111
28 *369:35 0.00352018
29 *369:28 0.00292795
30 *369:12 0.00131802
31 *3555:B *371:51 3.09774e-05
32 *369:28 *370:133 6.72143e-05
33 *369:44 *371:51 0.00251918
34 *369:44 *371:69 2.10214e-05
35 *369:51 *371:69 0.000467074
36 *369:51 *371:76 4.99619e-05
37 *369:58 *3568:B 4.66108e-05
38 *369:58 *371:76 0.00056618
39 *369:65 *371:88 0.000505372
40 *369:65 *371:99 4.82863e-05
41 *369:72 *371:99 0.000363362
42 *369:93 *371:125 0.000608214
43 *369:93 *371:132 4.77719e-05
44 *369:100 *371:132 0.000686023
45 *369:100 *371:139 4.82863e-05
46 *369:113 *371:139 0.000483745
47 *369:113 *371:153 2.79046e-05
48 *369:124 *371:160 4.82863e-05
49 *369:137 *3576:B 6.72196e-05
50 *369:137 *3577:B 3.6355e-05
51 *369:137 *371:160 0.000566257
52 *390:DIODE *369:72 0.00019898
53 *3560:A_N *369:12 4.55864e-06
54 *3560:C *369:28 0.000121102
55 *3560:D *369:12 3.54522e-05
56 *3560:D *369:28 0.000168923
57 *3566:D *369:51 1.93752e-05
58 *3568:D *369:65 1.52766e-05
59 *3574:D *369:113 2.99445e-05
60 *3577:A_N *369:124 1.99109e-05
61 *3577:A_N *369:137 0.000593411
62 *3582:C *369:35 0.000193113
63 *3588:D *369:35 0.000253301
64 *3593:A *369:12 2.75145e-05
65 *3621:A *369:28 1.91597e-05
66 *3699:A *369:12 1.74476e-05
67 *3781:A *369:35 4.82863e-05
68 *113:43 *369:35 0.000666494
69 *113:55 *369:35 0.000172975
70 *117:21 *369:12 0
71 *118:39 *369:35 6.09889e-05
72 *118:39 *369:44 8.12896e-06
73 *125:29 *369:86 0.000104672
74 *126:27 *369:86 0.000104672
75 *129:42 *369:113 7.98007e-06
76 *131:56 *369:137 8.53307e-05
77 *132:37 *3577:C 1.72766e-05
78 *139:41 *369:86 0.000634961
79 *142:19 *369:124 0.000132277
80 *145:73 *369:51 2.01565e-05
81 *145:73 *369:58 1.91597e-05
82 *241:26 *369:86 3.59531e-06
83 *244:24 *369:86 0.000634961
84 *244:28 *3577:C 0.000594722
85 *316:18 *369:28 0.000344035
86 *327:43 *369:12 7.9642e-06
87 *328:16 *369:28 0.000328727
88 *339:48 *3577:C 6.72143e-05
89 *366:136 *369:28 4.66742e-05
90 *366:151 *369:28 8.247e-05
91 *366:151 *369:35 5.74317e-05
92 *367:68 *369:51 6.14023e-06
93 *367:103 *369:65 1.34594e-05
94 *367:172 *369:113 1.09302e-05
95 *367:172 *369:124 0.000280999
96 *367:179 *369:124 0.000141245
97 *368:30 *369:28 1.08758e-05
98 *368:133 *369:28 8.23457e-05
*RES
1 *3596:X *369:12 7.685 
2 *369:12 *369:28 20.395 
3 *369:28 *3583:C 1.6 
4 *369:28 *369:35 22.875 
5 *369:35 *3555:B 2.215 
6 *369:35 *369:44 23.91 
7 *369:44 *3566:C 1.6 
8 *369:44 *369:51 5.97 
9 *369:51 *3567:C 1.6 
10 *369:51 *369:58 5.97 
11 *369:58 *3568:C 1.6 
12 *369:58 *369:65 5.97 
13 *369:65 *3569:C 1.6 
14 *369:65 *369:72 5.97 
15 *369:72 *369:86 16.73 
16 *369:86 *3571:C 1.6 
17 *369:86 *369:93 5.97 
18 *369:93 *3572:C 1.6 
19 *369:93 *369:100 6.66 
20 *369:100 *3573:C 1.6 
21 *369:100 *369:113 9.55 
22 *369:113 *3574:C 1.6 
23 *369:113 *369:124 6.09 
24 *369:124 *3575:C 1.6 
25 *369:124 *369:137 10.75 
26 *369:137 *3576:C 1.6 
27 *369:137 *3577:C 12.095 
28 *369:72 *3570:C 1.6 
29 *369:12 *3595:A 1.6 
*END

*D_NET *370 0.0120813
*CONN
*I *3565:B I *D sky130_fd_sc_hd__and4b_2
*I *3562:B I *D sky130_fd_sc_hd__and4b_2
*I *3560:B I *D sky130_fd_sc_hd__and4b_1
*I *3558:B I *D sky130_fd_sc_hd__and4b_1
*I *3585:B I *D sky130_fd_sc_hd__and4b_1
*I *3582:B I *D sky130_fd_sc_hd__and4b_1
*I *3586:B I *D sky130_fd_sc_hd__and4b_1
*I *3584:B I *D sky130_fd_sc_hd__and4b_1
*I *3587:B I *D sky130_fd_sc_hd__and4b_1
*I *3557:B I *D sky130_fd_sc_hd__and4b_1
*I *3556:B I *D sky130_fd_sc_hd__and4b_1
*I *3559:B I *D sky130_fd_sc_hd__and4b_1
*I *3561:B I *D sky130_fd_sc_hd__and4b_1
*I *3563:B I *D sky130_fd_sc_hd__and4b_2
*I *3564:B I *D sky130_fd_sc_hd__and4b_2
*I *3597:X O *D sky130_fd_sc_hd__clkbuf_2
*CAP
1 *3565:B 0
2 *3562:B 3.53659e-05
3 *3560:B 6.25484e-05
4 *3558:B 1.5088e-05
5 *3585:B 0
6 *3582:B 0.000185755
7 *3586:B 0
8 *3584:B 0.000162716
9 *3587:B 0
10 *3557:B 0.000139616
11 *3556:B 2.98814e-05
12 *3559:B 2.14525e-05
13 *3561:B 0.000147418
14 *3563:B 7.05624e-05
15 *3564:B 8.18155e-05
16 *3597:X 4.12275e-05
17 *370:137 0.000197226
18 *370:133 0.000536069
19 *370:125 0.000416184
20 *370:116 0.00014805
21 *370:103 0.000295999
22 *370:90 0.000590027
23 *370:71 0.000525527
24 *370:54 0.000287028
25 *370:52 0.00015468
26 *370:48 0.000502613
27 *370:38 0.000595368
28 *370:16 0.000238421
29 *370:12 0.000317178
30 *370:8 9.98037e-05
31 *3582:B *371:42 0.000228848
32 *3584:B *3583:B 5.06382e-06
33 *370:133 *371:42 0.000121643
34 *370:137 *3583:B 1.96874e-05
35 *395:DIODE *3582:B 3.59531e-06
36 *406:DIODE *3582:B 4.07244e-05
37 *460:DIODE *370:90 8.7152e-06
38 *463:DIODE *3562:B 3.57349e-05
39 *463:DIODE *370:38 0.000192125
40 *3556:A_N *370:103 0.000108257
41 *3556:D *3556:B 2.75229e-05
42 *3557:D *3557:B 2.05864e-05
43 *3558:D *3558:B 2.30292e-05
44 *3559:A_N *370:54 6.9117e-05
45 *3559:C *370:54 1.08194e-05
46 *3559:C *370:71 1.16578e-05
47 *3559:C *370:90 4.99619e-05
48 *3559:D *370:90 2.05864e-05
49 *3560:A_N *3560:B 2.43324e-05
50 *3560:A_N *370:52 1.32824e-05
51 *3564:D *3557:B 6.26433e-05
52 *3564:D *3558:B 4.82919e-05
53 *3564:D *3560:B 3.59531e-06
54 *3564:D *3564:B 4.66108e-05
55 *3564:D *370:16 0.000108886
56 *3564:D *370:38 1.46744e-05
57 *3564:D *370:52 7.96104e-06
58 *3583:A_N *3584:B 3.7996e-05
59 *3584:C *3584:B 0.000188168
60 *3586:D *3582:B 0.000182237
61 *3586:D *370:133 9.54781e-05
62 *3620:A *3563:B 4.82863e-05
63 *3621:A *370:103 0
64 *3699:A *370:48 3.86439e-05
65 *3778:A *3561:B 8.23457e-05
66 *3779:A *370:90 3.07337e-05
67 *3793:A *3561:B 0.000154253
68 *3793:A *370:54 1.01661e-05
69 *3798:A *3584:B 3.65516e-05
70 *3825:A *3584:B 2.8531e-05
71 *3828:A *3557:B 4.66108e-05
72 *113:55 *3582:B 1.7635e-05
73 *113:57 *3582:B 1.30972e-05
74 *116:19 *370:8 0.000136781
75 *116:19 *370:12 0.000105903
76 *118:39 *3582:B 4.99619e-05
77 *135:21 *3582:B 0.00020374
78 *138:19 *370:133 3.48892e-05
79 *139:43 *3582:B 4.66108e-05
80 *141:23 *370:90 4.09813e-05
81 *141:23 *370:103 0.000203962
82 *143:31 *3560:B 8.65612e-05
83 *170:28 *3563:B 0.000203755
84 *181:24 *3561:B 8.40269e-05
85 *312:22 *3564:B 3.64998e-06
86 *317:30 *3556:B 8.40269e-05
87 *317:30 *3563:B 4.66108e-05
88 *317:30 *370:71 2.54522e-05
89 *317:30 *370:90 0.000143811
90 *327:22 *3563:B 0.000202088
91 *328:16 *370:133 0.000169663
92 *329:26 *370:8 0.000128066
93 *329:26 *370:12 0.000107128
94 *334:32 *3561:B 5.22353e-05
95 *334:32 *370:54 0.00015829
96 *336:36 *370:48 5.33258e-05
97 *337:18 *3582:B 6.83488e-05
98 *339:24 *370:48 0
99 *366:45 *370:54 0
100 *366:75 *3561:B 0
101 *366:75 *370:52 4.18603e-06
102 *366:75 *370:54 0
103 *366:103 *3558:B 8.65961e-05
104 *366:116 *370:90 0
105 *366:129 *370:103 7.20828e-05
106 *366:136 *3557:B 4.66108e-05
107 *366:136 *370:116 7.3151e-05
108 *366:136 *370:125 0.00033961
109 *366:151 *3582:B 4.82863e-05
110 *367:25 *3584:B 0.000110106
111 *367:25 *370:137 6.86518e-05
112 *368:34 *370:48 3.69766e-05
113 *368:67 *370:52 0
114 *368:67 *370:54 3.60648e-06
115 *368:123 *370:125 0.000275553
116 *368:133 *370:133 8.53307e-05
117 *368:137 *3584:B 8.71601e-05
118 *369:28 *370:133 6.72143e-05
*RES
1 *3597:X *370:8 5.235 
2 *370:8 *370:12 3.38 
3 *370:12 *370:16 1.5 
4 *370:16 *3564:B 2.74 
5 *370:16 *3563:B 8.45 
6 *370:12 *370:38 2.175 
7 *370:38 *370:48 3.93337 
8 *370:48 *370:52 0.9375 
9 *370:52 *370:54 2.4 
10 *370:54 *3561:B 7.08 
11 *370:54 *370:71 2.795 
12 *370:71 *3559:B 1.96 
13 *370:71 *370:90 8.81 
14 *370:90 *3556:B 4.395 
15 *370:90 *370:103 4.655 
16 *370:103 *3557:B 4.24 
17 *370:103 *370:116 0.795 
18 *370:116 *3587:B 1.6 
19 *370:116 *370:125 3.57 
20 *370:125 *370:133 9.79 
21 *370:133 *370:137 2.87 
22 *370:137 *3584:B 7.275 
23 *370:137 *3586:B 3.6 
24 *370:133 *3582:B 10.88 
25 *370:125 *3585:B 1.6 
26 *370:52 *3558:B 4.395 
27 *370:48 *3560:B 4.8525 
28 *370:38 *3562:B 2.05 
29 *370:8 *3565:B 3.6 
*END

*D_NET *371 0.0335264
*CONN
*I *3566:B I *D sky130_fd_sc_hd__and4b_1
*I *3568:B I *D sky130_fd_sc_hd__and4b_1
*I *3574:B I *D sky130_fd_sc_hd__and4b_1
*I *3577:B I *D sky130_fd_sc_hd__and4b_1
*I *3576:B I *D sky130_fd_sc_hd__and4b_1
*I *3575:B I *D sky130_fd_sc_hd__and4b_1
*I *3573:B I *D sky130_fd_sc_hd__and4b_1
*I *3572:B I *D sky130_fd_sc_hd__and4b_1
*I *3571:B I *D sky130_fd_sc_hd__and4b_1
*I *3570:B I *D sky130_fd_sc_hd__and4b_1
*I *3569:B I *D sky130_fd_sc_hd__and4b_1
*I *3567:B I *D sky130_fd_sc_hd__and4b_1
*I *3555:A I *D sky130_fd_sc_hd__and2_4
*I *3583:B I *D sky130_fd_sc_hd__and4b_1
*I *3597:A I *D sky130_fd_sc_hd__clkbuf_2
*I *3598:X O *D sky130_fd_sc_hd__clkbuf_4
*CAP
1 *3566:B 0
2 *3568:B 1.1164e-05
3 *3574:B 0
4 *3577:B 0.000449782
5 *3576:B 5.81445e-05
6 *3575:B 0
7 *3573:B 0
8 *3572:B 0
9 *3571:B 0
10 *3570:B 0
11 *3569:B 0
12 *3567:B 0
13 *3555:A 0
14 *3583:B 0.000108724
15 *3597:A 0.00028283
16 *3598:X 0
17 *371:160 0.000933095
18 *371:153 0.00093475
19 *371:139 0.000628697
20 *371:132 0.000230671
21 *371:125 0.000269871
22 *371:118 0.000499291
23 *371:99 0.000552739
24 *371:88 0.000596679
25 *371:76 0.000483997
26 *371:69 0.00042441
27 *371:51 0.000797294
28 *371:42 0.00229202
29 *371:23 0.00229807
30 *371:4 0.000640957
31 *388:DIODE *371:88 0.000149599
32 *388:DIODE *371:99 1.60203e-05
33 *390:DIODE *371:99 2.10152e-05
34 *3553:A *371:42 0
35 *3555:B *371:51 3.09774e-05
36 *3566:D *371:51 4.30166e-05
37 *3566:D *371:69 4.77757e-05
38 *3569:D *371:99 5.63214e-05
39 *3571:D *371:125 1.10377e-05
40 *3572:D *371:132 3.37809e-05
41 *3573:D *371:139 1.32668e-05
42 *3574:D *371:153 2.61944e-05
43 *3576:A_N *371:153 6.59891e-05
44 *3577:A_N *3577:B 0.000254505
45 *3577:D *3577:B 5.05521e-05
46 *3582:B *371:42 0.000228848
47 *3584:B *3583:B 5.06382e-06
48 *3593:A *3597:A 0.000126584
49 *3593:A *371:23 0.000372953
50 *3663:A *371:88 7.56599e-05
51 *3702:A *371:42 0.000135187
52 *3804:A *371:69 1.47446e-05
53 *3808:A *371:99 6.60042e-05
54 *3808:A *371:118 0.000136792
55 *3810:A *371:118 1.91597e-05
56 *3824:A *3583:B 0.000109372
57 *118:39 *371:51 0.00217065
58 *120:40 *3577:B 2.19562e-06
59 *124:23 *3583:B 0.000209499
60 *124:23 *371:23 7.95327e-05
61 *129:40 *371:153 4.55864e-06
62 *129:42 *371:153 4.11336e-05
63 *139:29 *371:153 6.72143e-05
64 *139:43 *371:42 3.38425e-05
65 *143:27 *371:23 3.09164e-05
66 *143:31 *371:23 5.05223e-05
67 *145:73 *3568:B 3.6355e-05
68 *145:73 *371:69 0.000487527
69 *145:73 *371:76 0.000605641
70 *145:73 *371:132 0.000467962
71 *170:28 *371:23 4.92971e-05
72 *244:28 *371:153 0.00060224
73 *312:28 *371:42 0.00209351
74 *327:22 *3597:A 0.000119762
75 *327:43 *3597:A 0.000201503
76 *327:43 *371:23 0.00134547
77 *332:38 *371:23 1.1561e-05
78 *332:38 *371:42 6.2983e-05
79 *367:25 *3583:B 0
80 *367:25 *371:23 0.000970847
81 *367:56 *371:51 8.24703e-05
82 *367:68 *371:51 8.12896e-06
83 *367:103 *371:88 0.000346246
84 *367:113 *371:99 0.000256166
85 *367:128 *371:99 0.000122801
86 *367:128 *371:118 0.000383614
87 *367:137 *371:118 5.0751e-05
88 *367:137 *371:125 0.000199641
89 *367:146 *371:125 4.82369e-05
90 *367:146 *371:132 6.48823e-05
91 *367:159 *371:132 1.47347e-05
92 *367:159 *371:139 0.000182071
93 *367:172 *371:139 6.98693e-05
94 *369:44 *371:51 0.00251918
95 *369:44 *371:69 2.10214e-05
96 *369:51 *371:69 0.000467074
97 *369:51 *371:76 4.99619e-05
98 *369:58 *3568:B 4.66108e-05
99 *369:58 *371:76 0.00056618
100 *369:65 *371:88 0.000505372
101 *369:65 *371:99 4.82863e-05
102 *369:72 *371:99 0.000363362
103 *369:93 *371:125 0.000608214
104 *369:93 *371:132 4.77719e-05
105 *369:100 *371:132 0.000686023
106 *369:100 *371:139 4.82863e-05
107 *369:113 *371:139 0.000483745
108 *369:113 *371:153 2.79046e-05
109 *369:124 *371:160 4.82863e-05
110 *369:137 *3576:B 6.72196e-05
111 *369:137 *3577:B 3.6355e-05
112 *369:137 *371:160 0.000566257
113 *370:133 *371:42 0.000121643
114 *370:137 *3583:B 1.96874e-05
*RES
1 *3598:X *371:4 1.6 
2 *371:4 *3597:A 6.535 
3 *371:4 *371:23 20.52 
4 *371:23 *3583:B 6.255 
5 *371:23 *371:42 31.53 
6 *371:42 *3555:A 1.6 
7 *371:42 *371:51 23.58 
8 *371:51 *371:69 11.875 
9 *371:69 *3567:B 1.6 
10 *371:69 *371:76 5.625 
11 *371:76 *371:88 12.415 
12 *371:88 *3569:B 1.6 
13 *371:88 *371:99 6.69 
14 *371:99 *3570:B 1.6 
15 *371:99 *371:118 10.9 
16 *371:118 *3571:B 1.6 
17 *371:118 *371:125 5.97 
18 *371:125 *3572:B 1.6 
19 *371:125 *371:132 6.66 
20 *371:132 *3573:B 1.6 
21 *371:132 *371:139 4.935 
22 *371:139 *371:153 15.62 
23 *371:153 *3575:B 1.6 
24 *371:153 *371:160 5.625 
25 *371:160 *3576:B 6.47 
26 *371:160 *3577:B 7.225 
27 *371:139 *3574:B 1.6 
28 *371:76 *3568:B 2.05 
29 *371:51 *3566:B 1.6 
*END

*D_NET *372 0.0480453
*CONN
*I *3705:A I *D sky130_fd_sc_hd__dlygate4sd3_1
*I *3796:X O *D sky130_fd_sc_hd__buf_4
*CAP
1 *3705:A 0.00950555
2 *3796:X 0.00950555
3 *3663:A *3705:A 0.000331835
4 *3674:A *3705:A 0.0159103
5 *3693:A *3705:A 0.000631969
6 *3702:A *3705:A 0.00653458
7 *3713:A *3705:A 0.00137171
8 *3796:A *3705:A 1.56477e-05
9 *3812:A *3705:A 0.000194339
10 *3826:A *3705:A 1.5874e-05
11 *111:14 *3705:A 0.000111324
12 *120:42 *3705:A 0.000312626
13 *121:40 *3705:A 0.000313417
14 *121:46 *3705:A 0.000248881
15 *122:29 *3705:A 0
16 *203:14 *3705:A 0.000125407
17 *292:18 *3705:A 0.00024193
18 *305:10 *3705:A 0.000239674
19 *322:14 *3705:A 0.000258039
20 *333:32 *3705:A 0.000106897
21 *350:26 *3705:A 0.0016152
22 *350:30 *3705:A 0.000253473
23 *350:54 *3705:A 0.000201104
*RES
1 *3796:X *3705:A 44.2659 
*END

*D_NET *373 0.00133216
*CONN
*I *3737:SM I *D CF_SRAM_1024x32
*I *3738:LO O *D sky130_fd_sc_hd__conb_1
*CAP
1 *3737:SM 0.000666082
2 *3738:LO 0.000666082
3 *3737:SM *3737:WLOFF 0
4 *3737:SM *3737:ScanInDR 0
*RES
1 *3738:LO *3737:SM 11.1512 
*END

*D_NET *374 0.00166714
*CONN
*I *3737:ScanInCC I *D CF_SRAM_1024x32
*I *3739:LO O *D sky130_fd_sc_hd__conb_1
*CAP
1 *3737:ScanInCC 0.000589286
2 *3739:LO 0.000589286
3 *3737:AD[3] *3737:ScanInCC 0.000476914
4 *113:9 *3737:ScanInCC 0
5 *226:17 *3737:ScanInCC 1.16578e-05
*RES
1 *3739:LO *3737:ScanInCC 11.1175 
*END

*D_NET *375 0.00165453
*CONN
*I *3737:ScanInDL I *D CF_SRAM_1024x32
*I *3740:LO O *D sky130_fd_sc_hd__conb_1
*CAP
1 *3737:ScanInDL 0.000564034
2 *3740:LO 0.000564034
3 *3737:DI[0] *3737:ScanInDL 0.00052646
*RES
1 *3740:LO *3737:ScanInDL 11.7325 
*END

*D_NET *376 0.00166576
*CONN
*I *3737:ScanInDR I *D CF_SRAM_1024x32
*I *3741:LO O *D sky130_fd_sc_hd__conb_1
*CAP
1 *3737:ScanInDR 0.000552635
2 *3741:LO 0.000552635
3 *3737:SM *3737:ScanInDR 0
4 *120:16 *3737:ScanInDR 0.000560495
*RES
1 *3741:LO *3737:ScanInDR 11.92 
*END

*D_NET *377 0.00237857
*CONN
*I *3737:TM I *D CF_SRAM_1024x32
*I *3742:LO O *D sky130_fd_sc_hd__conb_1
*CAP
1 *3737:TM 0.000585004
2 *3742:LO 0.000585004
3 *3737:TM *3737:WLBI 1.92238e-05
4 *3737:CLKin *3737:TM 0
5 *3737:DI[17] *3737:TM 0.000157378
6 *121:20 *3737:TM 0.000841761
7 *248:27 *3737:TM 0.000190198
*RES
1 *3742:LO *3737:TM 17.1875 
*END

*D_NET *378 0.00186995
*CONN
*I *3737:WLBI I *D CF_SRAM_1024x32
*I *3743:LO O *D sky130_fd_sc_hd__conb_1
*CAP
1 *3737:WLBI 0.000598776
2 *3743:LO 0.000598776
3 *3737:TM *3737:WLBI 1.92238e-05
4 *121:20 *3737:WLBI 0.000653173
5 *248:27 *3737:WLBI 0
*RES
1 *3743:LO *3737:WLBI 13.0638 
*END

*D_NET *379 0.00158729
*CONN
*I *3737:WLOFF I *D CF_SRAM_1024x32
*I *3744:LO O *D sky130_fd_sc_hd__conb_1
*CAP
1 *3737:WLOFF 0.000757088
2 *3744:LO 0.000757088
3 *3737:EN *3737:WLOFF 7.31126e-05
4 *3737:R_WB *3737:WLOFF 0
5 *3737:SM *3737:WLOFF 0
6 *195:26 *3737:WLOFF 0
*RES
1 *3744:LO *3737:WLOFF 16.6437 
*END

*D_NET *380 0.0385658
*CONN
*I *3737:vpwrac I *D CF_SRAM_1024x32
*I *3745:HI O *D sky130_fd_sc_hd__conb_1
*CAP
1 *3737:vpwrac 0.00586629
2 *3745:HI 0.00586629
3 *3737:vpwrac *3737:vpwrpc 0.0105656
4 *127:25 *3737:vpwrac 8.43221e-05
5 *160:10 *3737:vpwrac 0.000139074
6 *160:12 *3737:vpwrac 0.000336261
7 *184:12 *3737:vpwrac 0.000337995
8 *195:24 *3737:vpwrac 0.000202939
9 *217:10 *3737:vpwrac 0.000806139
10 *237:12 *3737:vpwrac 0.00074444
11 *237:16 *3737:vpwrac 0.000405911
12 *239:8 *3737:vpwrac 0.00166242
13 *317:50 *3737:vpwrac 0.000306412
14 *326:24 *3737:vpwrac 0.0094167
15 *339:52 *3737:vpwrac 0.000351142
16 *339:54 *3737:vpwrac 0.000695803
17 *350:64 *3737:vpwrac 0.000778041
*RES
1 *3745:HI *3737:vpwrac 35.7023 
*END

*D_NET *381 0.0441915
*CONN
*I *3737:vpwrpc I *D CF_SRAM_1024x32
*I *3746:HI O *D sky130_fd_sc_hd__conb_1
*CAP
1 *3737:vpwrpc 0.00643788
2 *3746:HI 0.00643788
3 *3685:A *3737:vpwrpc 0.000393017
4 *3713:A *3737:vpwrpc 1.67432e-05
5 *3720:A *3737:vpwrpc 0.00554438
6 *3737:vpwrac *3737:vpwrpc 0.0105656
7 *118:15 *3737:vpwrpc 0.000448035
8 *127:25 *3737:vpwrpc 0.00181012
9 *135:13 *3737:vpwrpc 0.000337995
10 *157:12 *3737:vpwrpc 0.000368752
11 *162:24 *3737:vpwrpc 6.84698e-05
12 *168:10 *3737:vpwrpc 0.000336147
13 *193:12 *3737:vpwrpc 0.000475037
14 *193:16 *3737:vpwrpc 0.000817
15 *206:10 *3737:vpwrpc 0.00139471
16 *215:16 *3737:vpwrpc 0.00130954
17 *219:42 *3737:vpwrpc 0.00181503
18 *230:10 *3737:vpwrpc 0.000630533
19 *232:10 *3737:vpwrpc 0.00166416
20 *239:8 *3737:vpwrpc 2.10433e-05
21 *248:10 *3737:vpwrpc 0.000593376
22 *251:8 *3737:vpwrpc 0.000226236
23 *258:30 *3737:vpwrpc 0.00110051
24 *270:38 *3737:vpwrpc 0.0013608
25 *326:24 *3737:vpwrpc 1.51394e-05
26 *328:36 *3737:vpwrpc 3.34313e-06
*RES
1 *3746:HI *3737:vpwrpc 36.6317 
*END

*D_NET *382 8.8299e-05
*CONN
*I *3757:A I *D sky130_fd_sc_hd__buf_2
*I *3599:X O *D sky130_fd_sc_hd__dlygate4sd3_1
*CAP
1 *3757:A 1.91685e-05
2 *3599:X 1.91685e-05
3 *159:12 *3757:A 4.99619e-05
*RES
1 *3599:X *3757:A 3.65 
*END
