*SPEF "ieee 1481-1999"
*DESIGN "CF_SRAM_1024x32_wb_wrapper"
*DATE "17:23:03 Sunday October 04, 2026"
*VENDOR "The OpenROAD Project"
*PROGRAM "OpenROAD"
*VERSION "edf00dff99f6c40d67a30c0e22a8191c5d2ed9d6"
*DESIGN_FLOW "NAME_SCOPE LOCAL" "PIN_CAP NONE"
*DIVIDER /
*DELIMITER :
*BUS_DELIMITER []
*T_UNIT 1 NS
*C_UNIT 1 PF
*R_UNIT 1 OHM
*L_UNIT 1 HENRY

*NAME_MAP
*3 wb_clk_i
*4 wb_rst_i
*5 wbs_ack_o
*6 wbs_adr_i[0]
*7 wbs_adr_i[10]
*8 wbs_adr_i[11]
*9 wbs_adr_i[12]
*10 wbs_adr_i[13]
*11 wbs_adr_i[14]
*12 wbs_adr_i[15]
*13 wbs_adr_i[16]
*14 wbs_adr_i[17]
*15 wbs_adr_i[18]
*16 wbs_adr_i[19]
*17 wbs_adr_i[1]
*18 wbs_adr_i[20]
*19 wbs_adr_i[21]
*20 wbs_adr_i[22]
*21 wbs_adr_i[23]
*22 wbs_adr_i[24]
*23 wbs_adr_i[25]
*24 wbs_adr_i[26]
*25 wbs_adr_i[27]
*26 wbs_adr_i[28]
*27 wbs_adr_i[29]
*28 wbs_adr_i[2]
*29 wbs_adr_i[30]
*30 wbs_adr_i[31]
*31 wbs_adr_i[3]
*32 wbs_adr_i[4]
*33 wbs_adr_i[5]
*34 wbs_adr_i[6]
*35 wbs_adr_i[7]
*36 wbs_adr_i[8]
*37 wbs_adr_i[9]
*38 wbs_cyc_i
*39 wbs_dat_i[0]
*40 wbs_dat_i[10]
*41 wbs_dat_i[11]
*42 wbs_dat_i[12]
*43 wbs_dat_i[13]
*44 wbs_dat_i[14]
*45 wbs_dat_i[15]
*46 wbs_dat_i[16]
*47 wbs_dat_i[17]
*48 wbs_dat_i[18]
*49 wbs_dat_i[19]
*50 wbs_dat_i[1]
*51 wbs_dat_i[20]
*52 wbs_dat_i[21]
*53 wbs_dat_i[22]
*54 wbs_dat_i[23]
*55 wbs_dat_i[24]
*56 wbs_dat_i[25]
*57 wbs_dat_i[26]
*58 wbs_dat_i[27]
*59 wbs_dat_i[28]
*60 wbs_dat_i[29]
*61 wbs_dat_i[2]
*62 wbs_dat_i[30]
*63 wbs_dat_i[31]
*64 wbs_dat_i[3]
*65 wbs_dat_i[4]
*66 wbs_dat_i[5]
*67 wbs_dat_i[6]
*68 wbs_dat_i[7]
*69 wbs_dat_i[8]
*70 wbs_dat_i[9]
*71 wbs_dat_o[0]
*72 wbs_dat_o[10]
*73 wbs_dat_o[11]
*74 wbs_dat_o[12]
*75 wbs_dat_o[13]
*76 wbs_dat_o[14]
*77 wbs_dat_o[15]
*78 wbs_dat_o[16]
*79 wbs_dat_o[17]
*80 wbs_dat_o[18]
*81 wbs_dat_o[19]
*82 wbs_dat_o[1]
*83 wbs_dat_o[20]
*84 wbs_dat_o[21]
*85 wbs_dat_o[22]
*86 wbs_dat_o[23]
*87 wbs_dat_o[24]
*88 wbs_dat_o[25]
*89 wbs_dat_o[26]
*90 wbs_dat_o[27]
*91 wbs_dat_o[28]
*92 wbs_dat_o[29]
*93 wbs_dat_o[2]
*94 wbs_dat_o[30]
*95 wbs_dat_o[31]
*96 wbs_dat_o[3]
*97 wbs_dat_o[4]
*98 wbs_dat_o[5]
*99 wbs_dat_o[6]
*100 wbs_dat_o[7]
*101 wbs_dat_o[8]
*102 wbs_dat_o[9]
*103 wbs_sel_i[0]
*104 wbs_sel_i[1]
*105 wbs_sel_i[2]
*106 wbs_sel_i[3]
*107 wbs_stb_i
*108 wbs_we_i
*109 _00_
*110 clknet_0_wb_clk_i
*111 clknet_1_0__leaf_wb_clk_i
*112 clknet_1_1__leaf_wb_clk_i
*113 i_ram_wb_controller\.DO\[0\]
*114 i_ram_wb_controller\.DO\[10\]
*115 i_ram_wb_controller\.DO\[11\]
*116 i_ram_wb_controller\.DO\[12\]
*117 i_ram_wb_controller\.DO\[13\]
*118 i_ram_wb_controller\.DO\[14\]
*119 i_ram_wb_controller\.DO\[15\]
*120 i_ram_wb_controller\.DO\[16\]
*121 i_ram_wb_controller\.DO\[17\]
*122 i_ram_wb_controller\.DO\[18\]
*123 i_ram_wb_controller\.DO\[19\]
*124 i_ram_wb_controller\.DO\[1\]
*125 i_ram_wb_controller\.DO\[20\]
*126 i_ram_wb_controller\.DO\[21\]
*127 i_ram_wb_controller\.DO\[22\]
*128 i_ram_wb_controller\.DO\[23\]
*129 i_ram_wb_controller\.DO\[24\]
*130 i_ram_wb_controller\.DO\[25\]
*131 i_ram_wb_controller\.DO\[26\]
*132 i_ram_wb_controller\.DO\[27\]
*133 i_ram_wb_controller\.DO\[28\]
*134 i_ram_wb_controller\.DO\[29\]
*135 i_ram_wb_controller\.DO\[2\]
*136 i_ram_wb_controller\.DO\[30\]
*137 i_ram_wb_controller\.DO\[31\]
*138 i_ram_wb_controller\.DO\[3\]
*139 i_ram_wb_controller\.DO\[4\]
*140 i_ram_wb_controller\.DO\[5\]
*141 i_ram_wb_controller\.DO\[6\]
*142 i_ram_wb_controller\.DO\[7\]
*143 i_ram_wb_controller\.DO\[8\]
*144 i_ram_wb_controller\.DO\[9\]
*145 i_ram_wb_controller\.EN
*146 i_ram_wb_controller\.R_WB
*147 net1
*148 net10
*149 net100
*150 net101
*151 net102
*152 net103
*153 net104
*154 net105
*155 net106
*156 net107
*157 net108
*158 net109
*159 net11
*160 net110
*161 net111
*162 net112
*163 net113
*164 net114
*165 net115
*166 net116
*167 net117
*168 net118
*169 net119
*170 net12
*171 net120
*172 net121
*173 net122
*174 net123
*175 net124
*176 net125
*177 net126
*178 net127
*179 net128
*180 net129
*181 net13
*182 net130
*183 net131
*184 net132
*185 net133
*186 net134
*187 net135
*188 net136
*189 net137
*190 net138
*191 net139
*192 net14
*193 net140
*194 net141
*195 net142
*196 net143
*197 net144
*198 net145
*199 net146
*200 net147
*201 net148
*202 net149
*203 net15
*204 net150
*205 net151
*206 net152
*207 net153
*208 net154
*209 net155
*210 net156
*211 net157
*212 net158
*213 net159
*214 net16
*215 net160
*216 net161
*217 net162
*218 net163
*219 net164
*220 net165
*221 net166
*222 net167
*223 net168
*224 net169
*225 net17
*226 net170
*227 net171
*228 net172
*229 net173
*230 net174
*231 net175
*232 net176
*233 net177
*234 net178
*235 net179
*236 net18
*237 net180
*238 net181
*239 net182
*240 net183
*241 net184
*242 net185
*243 net186
*244 net187
*245 net188
*246 net189
*247 net19
*248 net190
*249 net191
*250 net192
*251 net193
*252 net194
*253 net195
*254 net196
*255 net197
*256 net198
*257 net199
*258 net2
*259 net20
*260 net200
*261 net201
*262 net202
*263 net203
*264 net204
*265 net205
*266 net206
*267 net207
*268 net208
*269 net209
*270 net21
*271 net210
*272 net211
*273 net212
*274 net213
*275 net214
*276 net215
*277 net216
*278 net217
*279 net218
*280 net219
*281 net22
*282 net220
*283 net221
*284 net222
*285 net223
*286 net224
*287 net225
*288 net226
*289 net227
*290 net228
*291 net229
*292 net23
*293 net230
*294 net231
*295 net232
*296 net233
*297 net234
*298 net235
*299 net236
*300 net24
*301 net25
*302 net26
*303 net27
*304 net28
*305 net29
*306 net3
*307 net30
*308 net31
*309 net32
*310 net33
*311 net34
*312 net35
*313 net36
*314 net37
*315 net38
*316 net39
*317 net4
*318 net40
*319 net41
*320 net42
*321 net43
*322 net44
*323 net45
*324 net46
*325 net47
*326 net48
*327 net49
*328 net5
*329 net50
*330 net51
*331 net52
*332 net53
*333 net54
*334 net55
*335 net56
*336 net57
*337 net58
*338 net59
*339 net6
*340 net60
*341 net61
*342 net62
*343 net63
*344 net64
*345 net65
*346 net66
*347 net67
*348 net68
*349 net69
*350 net7
*351 net70
*352 net71
*353 net72
*354 net73
*355 net74
*356 net75
*357 net76
*358 net77
*359 net78
*360 net79
*361 net8
*362 net80
*363 net81
*364 net82
*365 net83
*366 net84
*367 net85
*368 net86
*369 net87
*370 net88
*371 net89
*372 net9
*373 net90
*374 net91
*375 net92
*376 net93
*377 net94
*378 net95
*379 net96
*380 net97
*381 net98
*382 net99
*383 sram_scan_out_cc
*384 ANTENNA_1
*385 ANTENNA_10
*386 ANTENNA_100
*387 ANTENNA_101
*388 ANTENNA_102
*389 ANTENNA_103
*390 ANTENNA_104
*391 ANTENNA_105
*392 ANTENNA_106
*393 ANTENNA_107
*394 ANTENNA_11
*395 ANTENNA_12
*396 ANTENNA_13
*397 ANTENNA_14
*398 ANTENNA_15
*399 ANTENNA_16
*400 ANTENNA_17
*401 ANTENNA_18
*402 ANTENNA_19
*403 ANTENNA_2
*404 ANTENNA_20
*405 ANTENNA_21
*406 ANTENNA_22
*407 ANTENNA_23
*408 ANTENNA_24
*409 ANTENNA_25
*410 ANTENNA_26
*411 ANTENNA_27
*412 ANTENNA_28
*413 ANTENNA_29
*414 ANTENNA_3
*415 ANTENNA_30
*416 ANTENNA_31
*417 ANTENNA_32
*418 ANTENNA_33
*419 ANTENNA_34
*420 ANTENNA_35
*421 ANTENNA_36
*422 ANTENNA_37
*423 ANTENNA_38
*424 ANTENNA_39
*425 ANTENNA_4
*426 ANTENNA_40
*427 ANTENNA_41
*428 ANTENNA_42
*429 ANTENNA_43
*430 ANTENNA_44
*431 ANTENNA_45
*432 ANTENNA_46
*433 ANTENNA_47
*434 ANTENNA_48
*435 ANTENNA_49
*436 ANTENNA_5
*437 ANTENNA_50
*438 ANTENNA_51
*439 ANTENNA_52
*440 ANTENNA_53
*441 ANTENNA_54
*442 ANTENNA_55
*443 ANTENNA_56
*444 ANTENNA_57
*445 ANTENNA_58
*446 ANTENNA_59
*447 ANTENNA_6
*448 ANTENNA_60
*449 ANTENNA_61
*450 ANTENNA_62
*451 ANTENNA_63
*452 ANTENNA_64
*453 ANTENNA_65
*454 ANTENNA_66
*455 ANTENNA_67
*456 ANTENNA_68
*457 ANTENNA_69
*458 ANTENNA_7
*459 ANTENNA_70
*460 ANTENNA_71
*461 ANTENNA_72
*462 ANTENNA_73
*463 ANTENNA_74
*464 ANTENNA_75
*465 ANTENNA_76
*466 ANTENNA_77
*467 ANTENNA_78
*468 ANTENNA_79
*469 ANTENNA_8
*470 ANTENNA_80
*471 ANTENNA_81
*472 ANTENNA_82
*473 ANTENNA_83
*474 ANTENNA_84
*475 ANTENNA_85
*476 ANTENNA_86
*477 ANTENNA_87
*478 ANTENNA_88
*479 ANTENNA_89
*480 ANTENNA_9
*481 ANTENNA_90
*482 ANTENNA_91
*483 ANTENNA_92
*484 ANTENNA_93
*485 ANTENNA_94
*486 ANTENNA_95
*487 ANTENNA_96
*488 ANTENNA_97
*489 ANTENNA_98
*490 ANTENNA_99
*491 ANTENNA_clkbuf_0_wb_clk_i_A
*492 ANTENNA_hold100_A
*493 ANTENNA_hold101_A
*494 ANTENNA_hold102_A
*495 ANTENNA_hold103_A
*496 ANTENNA_hold104_A
*497 ANTENNA_hold105_A
*498 ANTENNA_hold106_A
*499 ANTENNA_hold107_A
*500 ANTENNA_hold108_A
*501 ANTENNA_hold109_A
*502 ANTENNA_hold110_A
*503 ANTENNA_hold111_A
*504 ANTENNA_hold112_A
*505 ANTENNA_hold113_A
*506 ANTENNA_hold114_A
*507 ANTENNA_hold115_A
*508 ANTENNA_hold116_A
*509 ANTENNA_hold117_A
*510 ANTENNA_hold118_A
*511 ANTENNA_hold119_A
*512 ANTENNA_hold120_A
*513 ANTENNA_hold121_A
*514 ANTENNA_hold122_A
*515 ANTENNA_hold123_A
*516 ANTENNA_hold124_A
*517 ANTENNA_hold125_A
*518 ANTENNA_hold126_A
*519 ANTENNA_hold127_A
*520 ANTENNA_hold128_A
*521 ANTENNA_hold129_A
*522 ANTENNA_hold130_A
*523 ANTENNA_hold131_A
*524 ANTENNA_hold132_A
*525 ANTENNA_hold133_A
*526 ANTENNA_hold134_A
*527 ANTENNA_hold135_A
*528 ANTENNA_hold136_A
*529 ANTENNA_hold137_A
*530 ANTENNA_hold138_A
*531 ANTENNA_hold87_A
*532 ANTENNA_hold90_A
*533 ANTENNA_hold93_A
*534 ANTENNA_hold96_A
*535 ANTENNA_hold97_A
*536 ANTENNA_hold98_A
*537 ANTENNA_hold99_A
*538 ANTENNA_input12_A
*539 ANTENNA_input1_A
*540 ANTENNA_input49_A
*541 ANTENNA_input50_A
*542 FILLER_0_109
*543 FILLER_0_111
*544 FILLER_0_113
*545 FILLER_0_125
*546 FILLER_0_137
*547 FILLER_0_139
*548 FILLER_0_141
*549 FILLER_0_15
*550 FILLER_0_153
*551 FILLER_0_165
*552 FILLER_0_167
*553 FILLER_0_169
*554 FILLER_0_181
*555 FILLER_0_193
*556 FILLER_0_195
*557 FILLER_0_197
*558 FILLER_0_209
*559 FILLER_0_221
*560 FILLER_0_223
*561 FILLER_0_225
*562 FILLER_0_237
*563 FILLER_0_241
*564 FILLER_0_248
*565 FILLER_0_269
*566 FILLER_0_27
*567 FILLER_0_281
*568 FILLER_0_29
*569 FILLER_0_3
*570 FILLER_0_309
*571 FILLER_0_363
*572 FILLER_0_391
*573 FILLER_0_393
*574 FILLER_0_41
*575 FILLER_0_447
*576 FILLER_0_475
*577 FILLER_0_477
*578 FILLER_0_53
*579 FILLER_0_531
*580 FILLER_0_55
*581 FILLER_0_557
*582 FILLER_0_559
*583 FILLER_0_57
*584 FILLER_0_587
*585 FILLER_0_615
*586 FILLER_0_619
*587 FILLER_0_641
*588 FILLER_0_643
*589 FILLER_0_645
*590 FILLER_0_649
*591 FILLER_0_653
*592 FILLER_0_665
*593 FILLER_0_669
*594 FILLER_0_671
*595 FILLER_0_673
*596 FILLER_0_677
*597 FILLER_0_69
*598 FILLER_0_699
*599 FILLER_0_709
*600 FILLER_0_713
*601 FILLER_0_727
*602 FILLER_0_755
*603 FILLER_0_783
*604 FILLER_0_793
*605 FILLER_0_81
*606 FILLER_0_83
*607 FILLER_0_85
*608 FILLER_0_97
*609 FILLER_100_703
*610 FILLER_100_715
*611 FILLER_100_727
*612 FILLER_100_729
*613 FILLER_100_741
*614 FILLER_100_753
*615 FILLER_100_765
*616 FILLER_100_777
*617 FILLER_100_781
*618 FILLER_100_783
*619 FILLER_100_785
*620 FILLER_100_797
*621 FILLER_101_703
*622 FILLER_101_715
*623 FILLER_101_727
*624 FILLER_101_739
*625 FILLER_101_751
*626 FILLER_101_755
*627 FILLER_101_757
*628 FILLER_101_769
*629 FILLER_101_781
*630 FILLER_101_793
*631 FILLER_102_703
*632 FILLER_102_715
*633 FILLER_102_727
*634 FILLER_102_729
*635 FILLER_102_741
*636 FILLER_102_753
*637 FILLER_102_765
*638 FILLER_102_777
*639 FILLER_102_781
*640 FILLER_102_783
*641 FILLER_102_785
*642 FILLER_102_797
*643 FILLER_103_703
*644 FILLER_103_715
*645 FILLER_103_727
*646 FILLER_103_739
*647 FILLER_103_751
*648 FILLER_103_755
*649 FILLER_103_757
*650 FILLER_103_769
*651 FILLER_103_781
*652 FILLER_103_793
*653 FILLER_104_703
*654 FILLER_104_715
*655 FILLER_104_727
*656 FILLER_104_729
*657 FILLER_104_741
*658 FILLER_104_753
*659 FILLER_104_765
*660 FILLER_104_777
*661 FILLER_104_781
*662 FILLER_104_783
*663 FILLER_104_785
*664 FILLER_104_797
*665 FILLER_105_703
*666 FILLER_105_715
*667 FILLER_105_727
*668 FILLER_105_739
*669 FILLER_105_751
*670 FILLER_105_755
*671 FILLER_105_757
*672 FILLER_105_769
*673 FILLER_105_781
*674 FILLER_105_793
*675 FILLER_106_703
*676 FILLER_106_715
*677 FILLER_106_727
*678 FILLER_106_729
*679 FILLER_106_741
*680 FILLER_106_753
*681 FILLER_106_765
*682 FILLER_106_777
*683 FILLER_106_781
*684 FILLER_106_783
*685 FILLER_106_785
*686 FILLER_106_797
*687 FILLER_107_703
*688 FILLER_107_715
*689 FILLER_107_727
*690 FILLER_107_739
*691 FILLER_107_751
*692 FILLER_107_755
*693 FILLER_107_757
*694 FILLER_107_769
*695 FILLER_107_781
*696 FILLER_107_793
*697 FILLER_108_703
*698 FILLER_108_715
*699 FILLER_108_727
*700 FILLER_108_729
*701 FILLER_108_741
*702 FILLER_108_753
*703 FILLER_108_765
*704 FILLER_108_777
*705 FILLER_108_781
*706 FILLER_108_783
*707 FILLER_108_785
*708 FILLER_108_797
*709 FILLER_109_703
*710 FILLER_109_715
*711 FILLER_109_727
*712 FILLER_109_739
*713 FILLER_109_751
*714 FILLER_109_755
*715 FILLER_109_757
*716 FILLER_109_769
*717 FILLER_109_781
*718 FILLER_109_793
*719 FILLER_10_703
*720 FILLER_10_713
*721 FILLER_10_725
*722 FILLER_10_727
*723 FILLER_10_729
*724 FILLER_10_741
*725 FILLER_10_753
*726 FILLER_10_765
*727 FILLER_10_777
*728 FILLER_10_781
*729 FILLER_10_783
*730 FILLER_10_785
*731 FILLER_10_797
*732 FILLER_110_703
*733 FILLER_110_715
*734 FILLER_110_727
*735 FILLER_110_729
*736 FILLER_110_741
*737 FILLER_110_753
*738 FILLER_110_765
*739 FILLER_110_777
*740 FILLER_110_781
*741 FILLER_110_783
*742 FILLER_110_785
*743 FILLER_110_797
*744 FILLER_111_703
*745 FILLER_111_715
*746 FILLER_111_727
*747 FILLER_111_739
*748 FILLER_111_751
*749 FILLER_111_755
*750 FILLER_111_757
*751 FILLER_111_769
*752 FILLER_111_781
*753 FILLER_111_793
*754 FILLER_112_703
*755 FILLER_112_715
*756 FILLER_112_727
*757 FILLER_112_729
*758 FILLER_112_741
*759 FILLER_112_753
*760 FILLER_112_765
*761 FILLER_112_777
*762 FILLER_112_781
*763 FILLER_112_783
*764 FILLER_112_785
*765 FILLER_112_797
*766 FILLER_113_703
*767 FILLER_113_715
*768 FILLER_113_727
*769 FILLER_113_739
*770 FILLER_113_751
*771 FILLER_113_755
*772 FILLER_113_757
*773 FILLER_113_769
*774 FILLER_113_781
*775 FILLER_113_793
*776 FILLER_114_703
*777 FILLER_114_715
*778 FILLER_114_727
*779 FILLER_114_729
*780 FILLER_114_741
*781 FILLER_114_753
*782 FILLER_114_765
*783 FILLER_114_777
*784 FILLER_114_781
*785 FILLER_114_783
*786 FILLER_114_785
*787 FILLER_114_797
*788 FILLER_115_703
*789 FILLER_115_715
*790 FILLER_115_727
*791 FILLER_115_739
*792 FILLER_115_751
*793 FILLER_115_755
*794 FILLER_115_757
*795 FILLER_115_769
*796 FILLER_115_781
*797 FILLER_115_793
*798 FILLER_116_703
*799 FILLER_116_715
*800 FILLER_116_727
*801 FILLER_116_729
*802 FILLER_116_741
*803 FILLER_116_753
*804 FILLER_116_765
*805 FILLER_116_777
*806 FILLER_116_781
*807 FILLER_116_783
*808 FILLER_116_785
*809 FILLER_116_797
*810 FILLER_117_703
*811 FILLER_117_715
*812 FILLER_117_727
*813 FILLER_117_739
*814 FILLER_117_751
*815 FILLER_117_755
*816 FILLER_117_757
*817 FILLER_117_769
*818 FILLER_117_781
*819 FILLER_117_793
*820 FILLER_118_703
*821 FILLER_118_715
*822 FILLER_118_727
*823 FILLER_118_729
*824 FILLER_118_741
*825 FILLER_118_753
*826 FILLER_118_765
*827 FILLER_118_777
*828 FILLER_118_781
*829 FILLER_118_783
*830 FILLER_118_785
*831 FILLER_118_797
*832 FILLER_119_703
*833 FILLER_119_715
*834 FILLER_119_727
*835 FILLER_119_739
*836 FILLER_119_751
*837 FILLER_119_755
*838 FILLER_119_757
*839 FILLER_119_769
*840 FILLER_119_781
*841 FILLER_119_793
*842 FILLER_11_705
*843 FILLER_11_709
*844 FILLER_11_713
*845 FILLER_11_725
*846 FILLER_11_737
*847 FILLER_11_749
*848 FILLER_11_753
*849 FILLER_11_755
*850 FILLER_11_757
*851 FILLER_11_769
*852 FILLER_11_781
*853 FILLER_11_793
*854 FILLER_120_703
*855 FILLER_120_715
*856 FILLER_120_727
*857 FILLER_120_729
*858 FILLER_120_741
*859 FILLER_120_753
*860 FILLER_120_765
*861 FILLER_120_777
*862 FILLER_120_781
*863 FILLER_120_783
*864 FILLER_120_785
*865 FILLER_120_797
*866 FILLER_121_703
*867 FILLER_121_715
*868 FILLER_121_727
*869 FILLER_121_739
*870 FILLER_121_751
*871 FILLER_121_755
*872 FILLER_121_757
*873 FILLER_121_769
*874 FILLER_121_781
*875 FILLER_121_793
*876 FILLER_122_703
*877 FILLER_122_715
*878 FILLER_122_727
*879 FILLER_122_729
*880 FILLER_122_741
*881 FILLER_122_753
*882 FILLER_122_765
*883 FILLER_122_777
*884 FILLER_122_781
*885 FILLER_122_783
*886 FILLER_122_785
*887 FILLER_122_797
*888 FILLER_123_703
*889 FILLER_123_715
*890 FILLER_123_727
*891 FILLER_123_739
*892 FILLER_123_751
*893 FILLER_123_755
*894 FILLER_123_757
*895 FILLER_123_769
*896 FILLER_123_781
*897 FILLER_123_793
*898 FILLER_124_703
*899 FILLER_124_715
*900 FILLER_124_727
*901 FILLER_124_729
*902 FILLER_124_741
*903 FILLER_124_753
*904 FILLER_124_765
*905 FILLER_124_777
*906 FILLER_124_781
*907 FILLER_124_783
*908 FILLER_124_785
*909 FILLER_124_797
*910 FILLER_125_703
*911 FILLER_125_715
*912 FILLER_125_727
*913 FILLER_125_739
*914 FILLER_125_751
*915 FILLER_125_755
*916 FILLER_125_757
*917 FILLER_125_769
*918 FILLER_125_781
*919 FILLER_125_793
*920 FILLER_126_703
*921 FILLER_126_715
*922 FILLER_126_727
*923 FILLER_126_729
*924 FILLER_126_741
*925 FILLER_126_753
*926 FILLER_126_765
*927 FILLER_126_777
*928 FILLER_126_781
*929 FILLER_126_783
*930 FILLER_126_785
*931 FILLER_126_797
*932 FILLER_127_703
*933 FILLER_127_715
*934 FILLER_127_727
*935 FILLER_127_739
*936 FILLER_127_751
*937 FILLER_127_755
*938 FILLER_127_757
*939 FILLER_127_769
*940 FILLER_127_781
*941 FILLER_127_793
*942 FILLER_128_703
*943 FILLER_128_715
*944 FILLER_128_727
*945 FILLER_128_729
*946 FILLER_128_741
*947 FILLER_128_753
*948 FILLER_128_765
*949 FILLER_128_777
*950 FILLER_128_781
*951 FILLER_128_783
*952 FILLER_128_785
*953 FILLER_128_797
*954 FILLER_129_703
*955 FILLER_129_715
*956 FILLER_129_727
*957 FILLER_129_739
*958 FILLER_129_751
*959 FILLER_129_755
*960 FILLER_129_757
*961 FILLER_129_769
*962 FILLER_129_781
*963 FILLER_129_793
*964 FILLER_12_703
*965 FILLER_12_715
*966 FILLER_12_727
*967 FILLER_12_729
*968 FILLER_12_741
*969 FILLER_12_753
*970 FILLER_12_765
*971 FILLER_12_777
*972 FILLER_12_781
*973 FILLER_12_783
*974 FILLER_12_785
*975 FILLER_12_797
*976 FILLER_130_703
*977 FILLER_130_715
*978 FILLER_130_727
*979 FILLER_130_729
*980 FILLER_130_741
*981 FILLER_130_753
*982 FILLER_130_765
*983 FILLER_130_777
*984 FILLER_130_781
*985 FILLER_130_783
*986 FILLER_130_785
*987 FILLER_130_797
*988 FILLER_131_703
*989 FILLER_131_715
*990 FILLER_131_727
*991 FILLER_131_739
*992 FILLER_131_751
*993 FILLER_131_755
*994 FILLER_131_757
*995 FILLER_131_769
*996 FILLER_131_781
*997 FILLER_131_793
*998 FILLER_132_703
*999 FILLER_132_715
*1000 FILLER_132_727
*1001 FILLER_132_729
*1002 FILLER_132_741
*1003 FILLER_132_753
*1004 FILLER_132_765
*1005 FILLER_132_777
*1006 FILLER_132_781
*1007 FILLER_132_783
*1008 FILLER_132_785
*1009 FILLER_132_797
*1010 FILLER_133_703
*1011 FILLER_133_715
*1012 FILLER_133_727
*1013 FILLER_133_739
*1014 FILLER_133_751
*1015 FILLER_133_755
*1016 FILLER_133_757
*1017 FILLER_133_769
*1018 FILLER_133_781
*1019 FILLER_133_793
*1020 FILLER_134_703
*1021 FILLER_134_715
*1022 FILLER_134_727
*1023 FILLER_134_729
*1024 FILLER_134_741
*1025 FILLER_134_753
*1026 FILLER_134_765
*1027 FILLER_134_777
*1028 FILLER_134_781
*1029 FILLER_134_783
*1030 FILLER_134_785
*1031 FILLER_134_797
*1032 FILLER_135_703
*1033 FILLER_135_715
*1034 FILLER_135_727
*1035 FILLER_135_739
*1036 FILLER_135_751
*1037 FILLER_135_755
*1038 FILLER_135_757
*1039 FILLER_135_769
*1040 FILLER_135_781
*1041 FILLER_135_793
*1042 FILLER_136_703
*1043 FILLER_136_715
*1044 FILLER_136_727
*1045 FILLER_136_729
*1046 FILLER_136_741
*1047 FILLER_136_753
*1048 FILLER_136_765
*1049 FILLER_136_777
*1050 FILLER_136_781
*1051 FILLER_136_783
*1052 FILLER_136_785
*1053 FILLER_136_797
*1054 FILLER_137_703
*1055 FILLER_137_715
*1056 FILLER_137_727
*1057 FILLER_137_739
*1058 FILLER_137_751
*1059 FILLER_137_755
*1060 FILLER_137_757
*1061 FILLER_137_769
*1062 FILLER_137_781
*1063 FILLER_137_793
*1064 FILLER_138_703
*1065 FILLER_138_715
*1066 FILLER_138_727
*1067 FILLER_138_729
*1068 FILLER_138_741
*1069 FILLER_138_753
*1070 FILLER_138_765
*1071 FILLER_138_777
*1072 FILLER_138_781
*1073 FILLER_138_783
*1074 FILLER_138_785
*1075 FILLER_138_797
*1076 FILLER_139_703
*1077 FILLER_139_715
*1078 FILLER_139_727
*1079 FILLER_139_739
*1080 FILLER_139_751
*1081 FILLER_139_755
*1082 FILLER_139_757
*1083 FILLER_139_769
*1084 FILLER_139_781
*1085 FILLER_139_793
*1086 FILLER_13_703
*1087 FILLER_13_715
*1088 FILLER_13_727
*1089 FILLER_13_739
*1090 FILLER_13_751
*1091 FILLER_13_755
*1092 FILLER_13_757
*1093 FILLER_13_769
*1094 FILLER_13_781
*1095 FILLER_13_793
*1096 FILLER_140_703
*1097 FILLER_140_715
*1098 FILLER_140_727
*1099 FILLER_140_729
*1100 FILLER_140_741
*1101 FILLER_140_753
*1102 FILLER_140_765
*1103 FILLER_140_777
*1104 FILLER_140_781
*1105 FILLER_140_783
*1106 FILLER_140_785
*1107 FILLER_140_797
*1108 FILLER_141_703
*1109 FILLER_141_715
*1110 FILLER_141_727
*1111 FILLER_141_739
*1112 FILLER_141_751
*1113 FILLER_141_755
*1114 FILLER_141_757
*1115 FILLER_141_769
*1116 FILLER_141_781
*1117 FILLER_141_793
*1118 FILLER_142_703
*1119 FILLER_142_715
*1120 FILLER_142_727
*1121 FILLER_142_729
*1122 FILLER_142_741
*1123 FILLER_142_753
*1124 FILLER_142_765
*1125 FILLER_142_777
*1126 FILLER_142_781
*1127 FILLER_142_783
*1128 FILLER_142_785
*1129 FILLER_142_797
*1130 FILLER_143_703
*1131 FILLER_143_715
*1132 FILLER_143_727
*1133 FILLER_143_739
*1134 FILLER_143_751
*1135 FILLER_143_755
*1136 FILLER_143_757
*1137 FILLER_143_769
*1138 FILLER_143_781
*1139 FILLER_143_793
*1140 FILLER_144_703
*1141 FILLER_144_715
*1142 FILLER_144_727
*1143 FILLER_144_729
*1144 FILLER_144_741
*1145 FILLER_144_753
*1146 FILLER_144_765
*1147 FILLER_144_777
*1148 FILLER_144_781
*1149 FILLER_144_783
*1150 FILLER_144_785
*1151 FILLER_144_797
*1152 FILLER_145_703
*1153 FILLER_145_715
*1154 FILLER_145_727
*1155 FILLER_145_739
*1156 FILLER_145_751
*1157 FILLER_145_755
*1158 FILLER_145_757
*1159 FILLER_145_769
*1160 FILLER_145_781
*1161 FILLER_145_793
*1162 FILLER_146_703
*1163 FILLER_146_715
*1164 FILLER_146_727
*1165 FILLER_146_729
*1166 FILLER_146_741
*1167 FILLER_146_753
*1168 FILLER_146_765
*1169 FILLER_146_777
*1170 FILLER_146_781
*1171 FILLER_146_783
*1172 FILLER_146_785
*1173 FILLER_146_797
*1174 FILLER_147_703
*1175 FILLER_147_715
*1176 FILLER_147_727
*1177 FILLER_147_739
*1178 FILLER_147_751
*1179 FILLER_147_755
*1180 FILLER_147_757
*1181 FILLER_147_769
*1182 FILLER_147_781
*1183 FILLER_147_793
*1184 FILLER_148_703
*1185 FILLER_148_715
*1186 FILLER_148_727
*1187 FILLER_148_729
*1188 FILLER_148_741
*1189 FILLER_148_753
*1190 FILLER_148_765
*1191 FILLER_148_777
*1192 FILLER_148_781
*1193 FILLER_148_783
*1194 FILLER_148_785
*1195 FILLER_148_797
*1196 FILLER_149_703
*1197 FILLER_149_715
*1198 FILLER_149_727
*1199 FILLER_149_739
*1200 FILLER_149_751
*1201 FILLER_149_755
*1202 FILLER_149_757
*1203 FILLER_149_769
*1204 FILLER_149_781
*1205 FILLER_149_793
*1206 FILLER_14_703
*1207 FILLER_14_715
*1208 FILLER_14_727
*1209 FILLER_14_729
*1210 FILLER_14_741
*1211 FILLER_14_753
*1212 FILLER_14_765
*1213 FILLER_14_777
*1214 FILLER_14_781
*1215 FILLER_14_783
*1216 FILLER_14_785
*1217 FILLER_14_797
*1218 FILLER_150_703
*1219 FILLER_150_715
*1220 FILLER_150_727
*1221 FILLER_150_729
*1222 FILLER_150_741
*1223 FILLER_150_753
*1224 FILLER_150_765
*1225 FILLER_150_777
*1226 FILLER_150_781
*1227 FILLER_150_783
*1228 FILLER_150_785
*1229 FILLER_150_797
*1230 FILLER_151_703
*1231 FILLER_151_715
*1232 FILLER_151_727
*1233 FILLER_151_739
*1234 FILLER_151_751
*1235 FILLER_151_755
*1236 FILLER_151_757
*1237 FILLER_151_769
*1238 FILLER_151_781
*1239 FILLER_151_793
*1240 FILLER_152_703
*1241 FILLER_152_715
*1242 FILLER_152_727
*1243 FILLER_152_729
*1244 FILLER_152_741
*1245 FILLER_152_753
*1246 FILLER_152_765
*1247 FILLER_152_777
*1248 FILLER_152_781
*1249 FILLER_152_783
*1250 FILLER_152_785
*1251 FILLER_152_797
*1252 FILLER_153_703
*1253 FILLER_153_715
*1254 FILLER_153_727
*1255 FILLER_153_739
*1256 FILLER_153_751
*1257 FILLER_153_755
*1258 FILLER_153_757
*1259 FILLER_153_769
*1260 FILLER_153_781
*1261 FILLER_153_793
*1262 FILLER_154_703
*1263 FILLER_154_715
*1264 FILLER_154_727
*1265 FILLER_154_729
*1266 FILLER_154_741
*1267 FILLER_154_753
*1268 FILLER_154_765
*1269 FILLER_154_777
*1270 FILLER_154_781
*1271 FILLER_154_783
*1272 FILLER_154_785
*1273 FILLER_154_797
*1274 FILLER_155_703
*1275 FILLER_155_715
*1276 FILLER_155_727
*1277 FILLER_155_729
*1278 FILLER_155_741
*1279 FILLER_155_753
*1280 FILLER_155_755
*1281 FILLER_155_757
*1282 FILLER_155_769
*1283 FILLER_155_781
*1284 FILLER_155_783
*1285 FILLER_155_785
*1286 FILLER_155_797
*1287 FILLER_15_703
*1288 FILLER_15_715
*1289 FILLER_15_727
*1290 FILLER_15_739
*1291 FILLER_15_751
*1292 FILLER_15_755
*1293 FILLER_15_757
*1294 FILLER_15_769
*1295 FILLER_15_781
*1296 FILLER_15_793
*1297 FILLER_16_703
*1298 FILLER_16_715
*1299 FILLER_16_727
*1300 FILLER_16_729
*1301 FILLER_16_741
*1302 FILLER_16_753
*1303 FILLER_16_765
*1304 FILLER_16_777
*1305 FILLER_16_781
*1306 FILLER_16_783
*1307 FILLER_16_785
*1308 FILLER_16_797
*1309 FILLER_17_703
*1310 FILLER_17_715
*1311 FILLER_17_727
*1312 FILLER_17_739
*1313 FILLER_17_751
*1314 FILLER_17_755
*1315 FILLER_17_757
*1316 FILLER_17_769
*1317 FILLER_17_781
*1318 FILLER_17_793
*1319 FILLER_18_703
*1320 FILLER_18_715
*1321 FILLER_18_727
*1322 FILLER_18_729
*1323 FILLER_18_741
*1324 FILLER_18_753
*1325 FILLER_18_765
*1326 FILLER_18_777
*1327 FILLER_18_781
*1328 FILLER_18_783
*1329 FILLER_18_785
*1330 FILLER_18_797
*1331 FILLER_19_703
*1332 FILLER_19_715
*1333 FILLER_19_727
*1334 FILLER_19_739
*1335 FILLER_19_751
*1336 FILLER_19_755
*1337 FILLER_19_757
*1338 FILLER_19_769
*1339 FILLER_19_781
*1340 FILLER_19_793
*1341 FILLER_1_105
*1342 FILLER_1_109
*1343 FILLER_1_111
*1344 FILLER_1_113
*1345 FILLER_1_125
*1346 FILLER_1_137
*1347 FILLER_1_149
*1348 FILLER_1_15
*1349 FILLER_1_161
*1350 FILLER_1_165
*1351 FILLER_1_167
*1352 FILLER_1_169
*1353 FILLER_1_181
*1354 FILLER_1_193
*1355 FILLER_1_205
*1356 FILLER_1_217
*1357 FILLER_1_221
*1358 FILLER_1_223
*1359 FILLER_1_225
*1360 FILLER_1_237
*1361 FILLER_1_249
*1362 FILLER_1_251
*1363 FILLER_1_27
*1364 FILLER_1_3
*1365 FILLER_1_303
*1366 FILLER_1_339
*1367 FILLER_1_358
*1368 FILLER_1_39
*1369 FILLER_1_447
*1370 FILLER_1_449
*1371 FILLER_1_509
*1372 FILLER_1_51
*1373 FILLER_1_55
*1374 FILLER_1_556
*1375 FILLER_1_569
*1376 FILLER_1_57
*1377 FILLER_1_627
*1378 FILLER_1_633
*1379 FILLER_1_643
*1380 FILLER_1_659
*1381 FILLER_1_671
*1382 FILLER_1_673
*1383 FILLER_1_677
*1384 FILLER_1_69
*1385 FILLER_1_697
*1386 FILLER_1_701
*1387 FILLER_1_727
*1388 FILLER_1_781
*1389 FILLER_1_783
*1390 FILLER_1_785
*1391 FILLER_1_797
*1392 FILLER_1_81
*1393 FILLER_1_93
*1394 FILLER_20_703
*1395 FILLER_20_715
*1396 FILLER_20_727
*1397 FILLER_20_729
*1398 FILLER_20_741
*1399 FILLER_20_753
*1400 FILLER_20_765
*1401 FILLER_20_777
*1402 FILLER_20_781
*1403 FILLER_20_783
*1404 FILLER_20_785
*1405 FILLER_20_797
*1406 FILLER_21_703
*1407 FILLER_21_715
*1408 FILLER_21_727
*1409 FILLER_21_739
*1410 FILLER_21_751
*1411 FILLER_21_755
*1412 FILLER_21_757
*1413 FILLER_21_769
*1414 FILLER_21_781
*1415 FILLER_21_793
*1416 FILLER_22_703
*1417 FILLER_22_715
*1418 FILLER_22_727
*1419 FILLER_22_729
*1420 FILLER_22_741
*1421 FILLER_22_753
*1422 FILLER_22_765
*1423 FILLER_22_777
*1424 FILLER_22_781
*1425 FILLER_22_783
*1426 FILLER_22_785
*1427 FILLER_22_797
*1428 FILLER_23_703
*1429 FILLER_23_715
*1430 FILLER_23_727
*1431 FILLER_23_739
*1432 FILLER_23_751
*1433 FILLER_23_755
*1434 FILLER_23_757
*1435 FILLER_23_769
*1436 FILLER_23_781
*1437 FILLER_23_793
*1438 FILLER_24_703
*1439 FILLER_24_715
*1440 FILLER_24_727
*1441 FILLER_24_729
*1442 FILLER_24_741
*1443 FILLER_24_753
*1444 FILLER_24_765
*1445 FILLER_24_777
*1446 FILLER_24_781
*1447 FILLER_24_783
*1448 FILLER_24_785
*1449 FILLER_24_797
*1450 FILLER_25_703
*1451 FILLER_25_715
*1452 FILLER_25_727
*1453 FILLER_25_739
*1454 FILLER_25_751
*1455 FILLER_25_755
*1456 FILLER_25_757
*1457 FILLER_25_769
*1458 FILLER_25_781
*1459 FILLER_25_793
*1460 FILLER_26_703
*1461 FILLER_26_715
*1462 FILLER_26_727
*1463 FILLER_26_729
*1464 FILLER_26_741
*1465 FILLER_26_753
*1466 FILLER_26_765
*1467 FILLER_26_777
*1468 FILLER_26_781
*1469 FILLER_26_783
*1470 FILLER_26_785
*1471 FILLER_26_797
*1472 FILLER_27_703
*1473 FILLER_27_715
*1474 FILLER_27_727
*1475 FILLER_27_739
*1476 FILLER_27_751
*1477 FILLER_27_755
*1478 FILLER_27_757
*1479 FILLER_27_769
*1480 FILLER_27_781
*1481 FILLER_27_793
*1482 FILLER_28_703
*1483 FILLER_28_715
*1484 FILLER_28_727
*1485 FILLER_28_729
*1486 FILLER_28_741
*1487 FILLER_28_753
*1488 FILLER_28_765
*1489 FILLER_28_777
*1490 FILLER_28_781
*1491 FILLER_28_783
*1492 FILLER_28_785
*1493 FILLER_28_797
*1494 FILLER_29_703
*1495 FILLER_29_715
*1496 FILLER_29_727
*1497 FILLER_29_739
*1498 FILLER_29_751
*1499 FILLER_29_755
*1500 FILLER_29_757
*1501 FILLER_29_769
*1502 FILLER_29_781
*1503 FILLER_29_793
*1504 FILLER_2_109
*1505 FILLER_2_121
*1506 FILLER_2_133
*1507 FILLER_2_137
*1508 FILLER_2_139
*1509 FILLER_2_141
*1510 FILLER_2_15
*1511 FILLER_2_153
*1512 FILLER_2_165
*1513 FILLER_2_177
*1514 FILLER_2_189
*1515 FILLER_2_193
*1516 FILLER_2_195
*1517 FILLER_2_197
*1518 FILLER_2_209
*1519 FILLER_2_221
*1520 FILLER_2_233
*1521 FILLER_2_245
*1522 FILLER_2_249
*1523 FILLER_2_251
*1524 FILLER_2_253
*1525 FILLER_2_255
*1526 FILLER_2_27
*1527 FILLER_2_29
*1528 FILLER_2_296
*1529 FILLER_2_3
*1530 FILLER_2_309
*1531 FILLER_2_360
*1532 FILLER_2_365
*1533 FILLER_2_367
*1534 FILLER_2_408
*1535 FILLER_2_41
*1536 FILLER_2_418
*1537 FILLER_2_423
*1538 FILLER_2_431
*1539 FILLER_2_474
*1540 FILLER_2_477
*1541 FILLER_2_501
*1542 FILLER_2_513
*1543 FILLER_2_529
*1544 FILLER_2_53
*1545 FILLER_2_531
*1546 FILLER_2_533
*1547 FILLER_2_544
*1548 FILLER_2_548
*1549 FILLER_2_564
*1550 FILLER_2_568
*1551 FILLER_2_570
*1552 FILLER_2_587
*1553 FILLER_2_597
*1554 FILLER_2_641
*1555 FILLER_2_643
*1556 FILLER_2_645
*1557 FILLER_2_65
*1558 FILLER_2_673
*1559 FILLER_2_677
*1560 FILLER_2_697
*1561 FILLER_2_699
*1562 FILLER_2_709
*1563 FILLER_2_735
*1564 FILLER_2_737
*1565 FILLER_2_763
*1566 FILLER_2_77
*1567 FILLER_2_771
*1568 FILLER_2_779
*1569 FILLER_2_791
*1570 FILLER_2_799
*1571 FILLER_2_81
*1572 FILLER_2_83
*1573 FILLER_2_85
*1574 FILLER_2_97
*1575 FILLER_30_703
*1576 FILLER_30_715
*1577 FILLER_30_727
*1578 FILLER_30_729
*1579 FILLER_30_741
*1580 FILLER_30_753
*1581 FILLER_30_765
*1582 FILLER_30_777
*1583 FILLER_30_781
*1584 FILLER_30_783
*1585 FILLER_30_785
*1586 FILLER_30_797
*1587 FILLER_31_703
*1588 FILLER_31_715
*1589 FILLER_31_727
*1590 FILLER_31_739
*1591 FILLER_31_751
*1592 FILLER_31_755
*1593 FILLER_31_757
*1594 FILLER_31_769
*1595 FILLER_31_781
*1596 FILLER_31_793
*1597 FILLER_32_703
*1598 FILLER_32_715
*1599 FILLER_32_727
*1600 FILLER_32_729
*1601 FILLER_32_741
*1602 FILLER_32_753
*1603 FILLER_32_765
*1604 FILLER_32_777
*1605 FILLER_32_781
*1606 FILLER_32_783
*1607 FILLER_32_785
*1608 FILLER_32_797
*1609 FILLER_33_703
*1610 FILLER_33_715
*1611 FILLER_33_727
*1612 FILLER_33_739
*1613 FILLER_33_751
*1614 FILLER_33_755
*1615 FILLER_33_757
*1616 FILLER_33_769
*1617 FILLER_33_781
*1618 FILLER_33_793
*1619 FILLER_34_703
*1620 FILLER_34_715
*1621 FILLER_34_727
*1622 FILLER_34_729
*1623 FILLER_34_741
*1624 FILLER_34_753
*1625 FILLER_34_765
*1626 FILLER_34_777
*1627 FILLER_34_781
*1628 FILLER_34_783
*1629 FILLER_34_785
*1630 FILLER_34_797
*1631 FILLER_35_703
*1632 FILLER_35_715
*1633 FILLER_35_727
*1634 FILLER_35_739
*1635 FILLER_35_751
*1636 FILLER_35_755
*1637 FILLER_35_757
*1638 FILLER_35_769
*1639 FILLER_35_781
*1640 FILLER_35_793
*1641 FILLER_36_703
*1642 FILLER_36_715
*1643 FILLER_36_727
*1644 FILLER_36_729
*1645 FILLER_36_741
*1646 FILLER_36_753
*1647 FILLER_36_765
*1648 FILLER_36_777
*1649 FILLER_36_781
*1650 FILLER_36_783
*1651 FILLER_36_785
*1652 FILLER_36_797
*1653 FILLER_37_703
*1654 FILLER_37_715
*1655 FILLER_37_727
*1656 FILLER_37_739
*1657 FILLER_37_751
*1658 FILLER_37_755
*1659 FILLER_37_757
*1660 FILLER_37_769
*1661 FILLER_37_781
*1662 FILLER_37_793
*1663 FILLER_38_703
*1664 FILLER_38_715
*1665 FILLER_38_727
*1666 FILLER_38_729
*1667 FILLER_38_741
*1668 FILLER_38_753
*1669 FILLER_38_765
*1670 FILLER_38_777
*1671 FILLER_38_781
*1672 FILLER_38_783
*1673 FILLER_38_785
*1674 FILLER_38_797
*1675 FILLER_39_711
*1676 FILLER_39_723
*1677 FILLER_39_735
*1678 FILLER_39_747
*1679 FILLER_39_755
*1680 FILLER_39_757
*1681 FILLER_39_769
*1682 FILLER_39_781
*1683 FILLER_39_793
*1684 FILLER_3_105
*1685 FILLER_3_109
*1686 FILLER_3_111
*1687 FILLER_3_113
*1688 FILLER_3_125
*1689 FILLER_3_137
*1690 FILLER_3_149
*1691 FILLER_3_15
*1692 FILLER_3_161
*1693 FILLER_3_165
*1694 FILLER_3_167
*1695 FILLER_3_169
*1696 FILLER_3_181
*1697 FILLER_3_193
*1698 FILLER_3_205
*1699 FILLER_3_217
*1700 FILLER_3_221
*1701 FILLER_3_223
*1702 FILLER_3_225
*1703 FILLER_3_237
*1704 FILLER_3_249
*1705 FILLER_3_261
*1706 FILLER_3_265
*1707 FILLER_3_27
*1708 FILLER_3_287
*1709 FILLER_3_3
*1710 FILLER_3_337
*1711 FILLER_3_372
*1712 FILLER_3_379
*1713 FILLER_3_388
*1714 FILLER_3_39
*1715 FILLER_3_407
*1716 FILLER_3_415
*1717 FILLER_3_427
*1718 FILLER_3_435
*1719 FILLER_3_459
*1720 FILLER_3_463
*1721 FILLER_3_465
*1722 FILLER_3_484
*1723 FILLER_3_496
*1724 FILLER_3_505
*1725 FILLER_3_51
*1726 FILLER_3_517
*1727 FILLER_3_529
*1728 FILLER_3_541
*1729 FILLER_3_55
*1730 FILLER_3_553
*1731 FILLER_3_557
*1732 FILLER_3_559
*1733 FILLER_3_561
*1734 FILLER_3_57
*1735 FILLER_3_573
*1736 FILLER_3_585
*1737 FILLER_3_597
*1738 FILLER_3_599
*1739 FILLER_3_625
*1740 FILLER_3_629
*1741 FILLER_3_639
*1742 FILLER_3_649
*1743 FILLER_3_653
*1744 FILLER_3_657
*1745 FILLER_3_661
*1746 FILLER_3_665
*1747 FILLER_3_669
*1748 FILLER_3_671
*1749 FILLER_3_673
*1750 FILLER_3_677
*1751 FILLER_3_69
*1752 FILLER_3_707
*1753 FILLER_3_713
*1754 FILLER_3_717
*1755 FILLER_3_726
*1756 FILLER_3_729
*1757 FILLER_3_741
*1758 FILLER_3_753
*1759 FILLER_3_765
*1760 FILLER_3_777
*1761 FILLER_3_781
*1762 FILLER_3_783
*1763 FILLER_3_785
*1764 FILLER_3_797
*1765 FILLER_3_81
*1766 FILLER_3_93
*1767 FILLER_40_721
*1768 FILLER_40_725
*1769 FILLER_40_727
*1770 FILLER_40_729
*1771 FILLER_40_741
*1772 FILLER_40_753
*1773 FILLER_40_765
*1774 FILLER_40_777
*1775 FILLER_40_781
*1776 FILLER_40_783
*1777 FILLER_40_785
*1778 FILLER_40_797
*1779 FILLER_41_727
*1780 FILLER_41_739
*1781 FILLER_41_751
*1782 FILLER_41_755
*1783 FILLER_41_757
*1784 FILLER_41_769
*1785 FILLER_41_781
*1786 FILLER_41_793
*1787 FILLER_42_721
*1788 FILLER_42_725
*1789 FILLER_42_727
*1790 FILLER_42_729
*1791 FILLER_42_741
*1792 FILLER_42_753
*1793 FILLER_42_765
*1794 FILLER_42_777
*1795 FILLER_42_781
*1796 FILLER_42_783
*1797 FILLER_42_785
*1798 FILLER_42_797
*1799 FILLER_43_713
*1800 FILLER_43_725
*1801 FILLER_43_737
*1802 FILLER_43_749
*1803 FILLER_43_753
*1804 FILLER_43_755
*1805 FILLER_43_757
*1806 FILLER_43_769
*1807 FILLER_43_781
*1808 FILLER_43_793
*1809 FILLER_44_713
*1810 FILLER_44_725
*1811 FILLER_44_727
*1812 FILLER_44_729
*1813 FILLER_44_741
*1814 FILLER_44_753
*1815 FILLER_44_765
*1816 FILLER_44_777
*1817 FILLER_44_781
*1818 FILLER_44_783
*1819 FILLER_44_785
*1820 FILLER_44_797
*1821 FILLER_45_703
*1822 FILLER_45_715
*1823 FILLER_45_727
*1824 FILLER_45_739
*1825 FILLER_45_751
*1826 FILLER_45_755
*1827 FILLER_45_757
*1828 FILLER_45_769
*1829 FILLER_45_781
*1830 FILLER_45_793
*1831 FILLER_46_711
*1832 FILLER_46_723
*1833 FILLER_46_727
*1834 FILLER_46_729
*1835 FILLER_46_741
*1836 FILLER_46_753
*1837 FILLER_46_765
*1838 FILLER_46_777
*1839 FILLER_46_781
*1840 FILLER_46_783
*1841 FILLER_46_785
*1842 FILLER_46_797
*1843 FILLER_47_719
*1844 FILLER_47_731
*1845 FILLER_47_743
*1846 FILLER_47_755
*1847 FILLER_47_757
*1848 FILLER_47_769
*1849 FILLER_47_781
*1850 FILLER_47_793
*1851 FILLER_48_711
*1852 FILLER_48_723
*1853 FILLER_48_727
*1854 FILLER_48_729
*1855 FILLER_48_741
*1856 FILLER_48_753
*1857 FILLER_48_765
*1858 FILLER_48_777
*1859 FILLER_48_781
*1860 FILLER_48_783
*1861 FILLER_48_785
*1862 FILLER_48_797
*1863 FILLER_49_711
*1864 FILLER_49_723
*1865 FILLER_49_735
*1866 FILLER_49_747
*1867 FILLER_49_755
*1868 FILLER_49_757
*1869 FILLER_49_769
*1870 FILLER_49_781
*1871 FILLER_49_793
*1872 FILLER_4_109
*1873 FILLER_4_121
*1874 FILLER_4_133
*1875 FILLER_4_137
*1876 FILLER_4_139
*1877 FILLER_4_141
*1878 FILLER_4_15
*1879 FILLER_4_153
*1880 FILLER_4_165
*1881 FILLER_4_177
*1882 FILLER_4_189
*1883 FILLER_4_193
*1884 FILLER_4_195
*1885 FILLER_4_197
*1886 FILLER_4_209
*1887 FILLER_4_221
*1888 FILLER_4_233
*1889 FILLER_4_245
*1890 FILLER_4_249
*1891 FILLER_4_251
*1892 FILLER_4_253
*1893 FILLER_4_265
*1894 FILLER_4_269
*1895 FILLER_4_27
*1896 FILLER_4_271
*1897 FILLER_4_274
*1898 FILLER_4_278
*1899 FILLER_4_29
*1900 FILLER_4_3
*1901 FILLER_4_375
*1902 FILLER_4_391
*1903 FILLER_4_395
*1904 FILLER_4_397
*1905 FILLER_4_404
*1906 FILLER_4_41
*1907 FILLER_4_416
*1908 FILLER_4_421
*1909 FILLER_4_433
*1910 FILLER_4_443
*1911 FILLER_4_449
*1912 FILLER_4_461
*1913 FILLER_4_473
*1914 FILLER_4_475
*1915 FILLER_4_477
*1916 FILLER_4_489
*1917 FILLER_4_501
*1918 FILLER_4_515
*1919 FILLER_4_527
*1920 FILLER_4_53
*1921 FILLER_4_531
*1922 FILLER_4_533
*1923 FILLER_4_545
*1924 FILLER_4_549
*1925 FILLER_4_561
*1926 FILLER_4_573
*1927 FILLER_4_585
*1928 FILLER_4_587
*1929 FILLER_4_589
*1930 FILLER_4_597
*1931 FILLER_4_600
*1932 FILLER_4_614
*1933 FILLER_4_616
*1934 FILLER_4_619
*1935 FILLER_4_633
*1936 FILLER_4_641
*1937 FILLER_4_643
*1938 FILLER_4_645
*1939 FILLER_4_649
*1940 FILLER_4_65
*1941 FILLER_4_661
*1942 FILLER_4_665
*1943 FILLER_4_677
*1944 FILLER_4_689
*1945 FILLER_4_699
*1946 FILLER_4_701
*1947 FILLER_4_709
*1948 FILLER_4_713
*1949 FILLER_4_725
*1950 FILLER_4_737
*1951 FILLER_4_749
*1952 FILLER_4_753
*1953 FILLER_4_755
*1954 FILLER_4_757
*1955 FILLER_4_769
*1956 FILLER_4_77
*1957 FILLER_4_781
*1958 FILLER_4_793
*1959 FILLER_4_81
*1960 FILLER_4_83
*1961 FILLER_4_85
*1962 FILLER_4_97
*1963 FILLER_50_723
*1964 FILLER_50_727
*1965 FILLER_50_729
*1966 FILLER_50_741
*1967 FILLER_50_753
*1968 FILLER_50_765
*1969 FILLER_50_777
*1970 FILLER_50_781
*1971 FILLER_50_783
*1972 FILLER_50_785
*1973 FILLER_50_797
*1974 FILLER_51_705
*1975 FILLER_51_717
*1976 FILLER_51_729
*1977 FILLER_51_741
*1978 FILLER_51_753
*1979 FILLER_51_755
*1980 FILLER_51_757
*1981 FILLER_51_769
*1982 FILLER_51_781
*1983 FILLER_51_793
*1984 FILLER_52_711
*1985 FILLER_52_723
*1986 FILLER_52_727
*1987 FILLER_52_729
*1988 FILLER_52_741
*1989 FILLER_52_753
*1990 FILLER_52_765
*1991 FILLER_52_777
*1992 FILLER_52_781
*1993 FILLER_52_783
*1994 FILLER_52_785
*1995 FILLER_52_797
*1996 FILLER_53_703
*1997 FILLER_53_715
*1998 FILLER_53_727
*1999 FILLER_53_739
*2000 FILLER_53_751
*2001 FILLER_53_755
*2002 FILLER_53_757
*2003 FILLER_53_769
*2004 FILLER_53_781
*2005 FILLER_53_793
*2006 FILLER_54_711
*2007 FILLER_54_723
*2008 FILLER_54_727
*2009 FILLER_54_729
*2010 FILLER_54_741
*2011 FILLER_54_753
*2012 FILLER_54_765
*2013 FILLER_54_777
*2014 FILLER_54_781
*2015 FILLER_54_783
*2016 FILLER_54_785
*2017 FILLER_54_797
*2018 FILLER_55_703
*2019 FILLER_55_715
*2020 FILLER_55_727
*2021 FILLER_55_739
*2022 FILLER_55_751
*2023 FILLER_55_755
*2024 FILLER_55_757
*2025 FILLER_55_769
*2026 FILLER_55_781
*2027 FILLER_55_793
*2028 FILLER_56_711
*2029 FILLER_56_723
*2030 FILLER_56_727
*2031 FILLER_56_729
*2032 FILLER_56_741
*2033 FILLER_56_753
*2034 FILLER_56_765
*2035 FILLER_56_777
*2036 FILLER_56_781
*2037 FILLER_56_783
*2038 FILLER_56_785
*2039 FILLER_56_797
*2040 FILLER_57_703
*2041 FILLER_57_715
*2042 FILLER_57_727
*2043 FILLER_57_739
*2044 FILLER_57_751
*2045 FILLER_57_755
*2046 FILLER_57_757
*2047 FILLER_57_769
*2048 FILLER_57_781
*2049 FILLER_57_793
*2050 FILLER_58_711
*2051 FILLER_58_723
*2052 FILLER_58_727
*2053 FILLER_58_729
*2054 FILLER_58_741
*2055 FILLER_58_753
*2056 FILLER_58_765
*2057 FILLER_58_777
*2058 FILLER_58_781
*2059 FILLER_58_783
*2060 FILLER_58_785
*2061 FILLER_58_797
*2062 FILLER_59_703
*2063 FILLER_59_715
*2064 FILLER_59_727
*2065 FILLER_59_739
*2066 FILLER_59_751
*2067 FILLER_59_755
*2068 FILLER_59_757
*2069 FILLER_59_769
*2070 FILLER_59_781
*2071 FILLER_59_793
*2072 FILLER_5_105
*2073 FILLER_5_109
*2074 FILLER_5_111
*2075 FILLER_5_113
*2076 FILLER_5_125
*2077 FILLER_5_137
*2078 FILLER_5_149
*2079 FILLER_5_15
*2080 FILLER_5_161
*2081 FILLER_5_165
*2082 FILLER_5_167
*2083 FILLER_5_169
*2084 FILLER_5_181
*2085 FILLER_5_193
*2086 FILLER_5_205
*2087 FILLER_5_217
*2088 FILLER_5_221
*2089 FILLER_5_223
*2090 FILLER_5_225
*2091 FILLER_5_237
*2092 FILLER_5_249
*2093 FILLER_5_261
*2094 FILLER_5_27
*2095 FILLER_5_273
*2096 FILLER_5_277
*2097 FILLER_5_279
*2098 FILLER_5_281
*2099 FILLER_5_283
*2100 FILLER_5_298
*2101 FILLER_5_3
*2102 FILLER_5_337
*2103 FILLER_5_388
*2104 FILLER_5_39
*2105 FILLER_5_393
*2106 FILLER_5_405
*2107 FILLER_5_417
*2108 FILLER_5_425
*2109 FILLER_5_433
*2110 FILLER_5_445
*2111 FILLER_5_447
*2112 FILLER_5_449
*2113 FILLER_5_461
*2114 FILLER_5_473
*2115 FILLER_5_485
*2116 FILLER_5_493
*2117 FILLER_5_505
*2118 FILLER_5_509
*2119 FILLER_5_51
*2120 FILLER_5_521
*2121 FILLER_5_525
*2122 FILLER_5_527
*2123 FILLER_5_538
*2124 FILLER_5_546
*2125 FILLER_5_55
*2126 FILLER_5_555
*2127 FILLER_5_559
*2128 FILLER_5_561
*2129 FILLER_5_57
*2130 FILLER_5_572
*2131 FILLER_5_576
*2132 FILLER_5_578
*2133 FILLER_5_589
*2134 FILLER_5_597
*2135 FILLER_5_606
*2136 FILLER_5_614
*2137 FILLER_5_625
*2138 FILLER_5_629
*2139 FILLER_5_639
*2140 FILLER_5_655
*2141 FILLER_5_665
*2142 FILLER_5_669
*2143 FILLER_5_671
*2144 FILLER_5_673
*2145 FILLER_5_677
*2146 FILLER_5_687
*2147 FILLER_5_69
*2148 FILLER_5_699
*2149 FILLER_5_703
*2150 FILLER_5_713
*2151 FILLER_5_725
*2152 FILLER_5_729
*2153 FILLER_5_743
*2154 FILLER_5_755
*2155 FILLER_5_767
*2156 FILLER_5_779
*2157 FILLER_5_783
*2158 FILLER_5_785
*2159 FILLER_5_797
*2160 FILLER_5_81
*2161 FILLER_5_93
*2162 FILLER_60_711
*2163 FILLER_60_723
*2164 FILLER_60_727
*2165 FILLER_60_729
*2166 FILLER_60_741
*2167 FILLER_60_753
*2168 FILLER_60_765
*2169 FILLER_60_777
*2170 FILLER_60_781
*2171 FILLER_60_783
*2172 FILLER_60_785
*2173 FILLER_60_797
*2174 FILLER_61_711
*2175 FILLER_61_723
*2176 FILLER_61_735
*2177 FILLER_61_747
*2178 FILLER_61_755
*2179 FILLER_61_757
*2180 FILLER_61_769
*2181 FILLER_61_781
*2182 FILLER_61_793
*2183 FILLER_62_719
*2184 FILLER_62_727
*2185 FILLER_62_729
*2186 FILLER_62_741
*2187 FILLER_62_753
*2188 FILLER_62_765
*2189 FILLER_62_777
*2190 FILLER_62_781
*2191 FILLER_62_783
*2192 FILLER_62_785
*2193 FILLER_62_797
*2194 FILLER_63_723
*2195 FILLER_63_735
*2196 FILLER_63_747
*2197 FILLER_63_755
*2198 FILLER_63_757
*2199 FILLER_63_769
*2200 FILLER_63_781
*2201 FILLER_63_793
*2202 FILLER_64_711
*2203 FILLER_64_723
*2204 FILLER_64_727
*2205 FILLER_64_729
*2206 FILLER_64_741
*2207 FILLER_64_753
*2208 FILLER_64_765
*2209 FILLER_64_777
*2210 FILLER_64_781
*2211 FILLER_64_783
*2212 FILLER_64_785
*2213 FILLER_64_797
*2214 FILLER_65_703
*2215 FILLER_65_715
*2216 FILLER_65_727
*2217 FILLER_65_739
*2218 FILLER_65_751
*2219 FILLER_65_755
*2220 FILLER_65_757
*2221 FILLER_65_769
*2222 FILLER_65_781
*2223 FILLER_65_793
*2224 FILLER_66_703
*2225 FILLER_66_715
*2226 FILLER_66_727
*2227 FILLER_66_729
*2228 FILLER_66_741
*2229 FILLER_66_753
*2230 FILLER_66_765
*2231 FILLER_66_777
*2232 FILLER_66_781
*2233 FILLER_66_783
*2234 FILLER_66_785
*2235 FILLER_66_797
*2236 FILLER_67_711
*2237 FILLER_67_723
*2238 FILLER_67_735
*2239 FILLER_67_747
*2240 FILLER_67_755
*2241 FILLER_67_757
*2242 FILLER_67_769
*2243 FILLER_67_781
*2244 FILLER_67_793
*2245 FILLER_68_711
*2246 FILLER_68_723
*2247 FILLER_68_727
*2248 FILLER_68_729
*2249 FILLER_68_741
*2250 FILLER_68_753
*2251 FILLER_68_765
*2252 FILLER_68_777
*2253 FILLER_68_781
*2254 FILLER_68_783
*2255 FILLER_68_785
*2256 FILLER_68_797
*2257 FILLER_69_703
*2258 FILLER_69_715
*2259 FILLER_69_727
*2260 FILLER_69_739
*2261 FILLER_69_751
*2262 FILLER_69_755
*2263 FILLER_69_757
*2264 FILLER_69_769
*2265 FILLER_69_781
*2266 FILLER_69_793
*2267 FILLER_6_109
*2268 FILLER_6_121
*2269 FILLER_6_133
*2270 FILLER_6_137
*2271 FILLER_6_139
*2272 FILLER_6_141
*2273 FILLER_6_15
*2274 FILLER_6_153
*2275 FILLER_6_165
*2276 FILLER_6_177
*2277 FILLER_6_189
*2278 FILLER_6_193
*2279 FILLER_6_195
*2280 FILLER_6_197
*2281 FILLER_6_209
*2282 FILLER_6_221
*2283 FILLER_6_233
*2284 FILLER_6_245
*2285 FILLER_6_249
*2286 FILLER_6_251
*2287 FILLER_6_253
*2288 FILLER_6_265
*2289 FILLER_6_27
*2290 FILLER_6_277
*2291 FILLER_6_289
*2292 FILLER_6_29
*2293 FILLER_6_297
*2294 FILLER_6_3
*2295 FILLER_6_309
*2296 FILLER_6_333
*2297 FILLER_6_335
*2298 FILLER_6_344
*2299 FILLER_6_348
*2300 FILLER_6_360
*2301 FILLER_6_373
*2302 FILLER_6_385
*2303 FILLER_6_397
*2304 FILLER_6_409
*2305 FILLER_6_41
*2306 FILLER_6_417
*2307 FILLER_6_419
*2308 FILLER_6_421
*2309 FILLER_6_433
*2310 FILLER_6_445
*2311 FILLER_6_457
*2312 FILLER_6_469
*2313 FILLER_6_473
*2314 FILLER_6_475
*2315 FILLER_6_477
*2316 FILLER_6_481
*2317 FILLER_6_483
*2318 FILLER_6_500
*2319 FILLER_6_504
*2320 FILLER_6_521
*2321 FILLER_6_529
*2322 FILLER_6_53
*2323 FILLER_6_531
*2324 FILLER_6_533
*2325 FILLER_6_545
*2326 FILLER_6_557
*2327 FILLER_6_569
*2328 FILLER_6_581
*2329 FILLER_6_585
*2330 FILLER_6_587
*2331 FILLER_6_589
*2332 FILLER_6_601
*2333 FILLER_6_613
*2334 FILLER_6_619
*2335 FILLER_6_633
*2336 FILLER_6_641
*2337 FILLER_6_643
*2338 FILLER_6_645
*2339 FILLER_6_649
*2340 FILLER_6_65
*2341 FILLER_6_661
*2342 FILLER_6_671
*2343 FILLER_6_681
*2344 FILLER_6_693
*2345 FILLER_6_697
*2346 FILLER_6_699
*2347 FILLER_6_709
*2348 FILLER_6_719
*2349 FILLER_6_723
*2350 FILLER_6_725
*2351 FILLER_6_734
*2352 FILLER_6_738
*2353 FILLER_6_740
*2354 FILLER_6_749
*2355 FILLER_6_753
*2356 FILLER_6_755
*2357 FILLER_6_757
*2358 FILLER_6_769
*2359 FILLER_6_77
*2360 FILLER_6_781
*2361 FILLER_6_793
*2362 FILLER_6_81
*2363 FILLER_6_83
*2364 FILLER_6_85
*2365 FILLER_6_97
*2366 FILLER_70_711
*2367 FILLER_70_723
*2368 FILLER_70_727
*2369 FILLER_70_729
*2370 FILLER_70_741
*2371 FILLER_70_753
*2372 FILLER_70_765
*2373 FILLER_70_777
*2374 FILLER_70_781
*2375 FILLER_70_783
*2376 FILLER_70_785
*2377 FILLER_70_797
*2378 FILLER_71_703
*2379 FILLER_71_715
*2380 FILLER_71_727
*2381 FILLER_71_739
*2382 FILLER_71_751
*2383 FILLER_71_755
*2384 FILLER_71_757
*2385 FILLER_71_769
*2386 FILLER_71_781
*2387 FILLER_71_793
*2388 FILLER_72_703
*2389 FILLER_72_719
*2390 FILLER_72_727
*2391 FILLER_72_729
*2392 FILLER_72_741
*2393 FILLER_72_753
*2394 FILLER_72_765
*2395 FILLER_72_777
*2396 FILLER_72_781
*2397 FILLER_72_783
*2398 FILLER_72_785
*2399 FILLER_72_797
*2400 FILLER_73_703
*2401 FILLER_73_715
*2402 FILLER_73_727
*2403 FILLER_73_739
*2404 FILLER_73_751
*2405 FILLER_73_755
*2406 FILLER_73_757
*2407 FILLER_73_769
*2408 FILLER_73_781
*2409 FILLER_73_793
*2410 FILLER_74_703
*2411 FILLER_74_711
*2412 FILLER_74_713
*2413 FILLER_74_722
*2414 FILLER_74_726
*2415 FILLER_74_729
*2416 FILLER_74_741
*2417 FILLER_74_753
*2418 FILLER_74_765
*2419 FILLER_74_777
*2420 FILLER_74_781
*2421 FILLER_74_783
*2422 FILLER_74_785
*2423 FILLER_74_797
*2424 FILLER_75_703
*2425 FILLER_75_715
*2426 FILLER_75_727
*2427 FILLER_75_739
*2428 FILLER_75_751
*2429 FILLER_75_755
*2430 FILLER_75_757
*2431 FILLER_75_769
*2432 FILLER_75_781
*2433 FILLER_75_793
*2434 FILLER_76_706
*2435 FILLER_76_718
*2436 FILLER_76_726
*2437 FILLER_76_737
*2438 FILLER_76_749
*2439 FILLER_76_761
*2440 FILLER_76_773
*2441 FILLER_76_781
*2442 FILLER_76_783
*2443 FILLER_76_785
*2444 FILLER_76_797
*2445 FILLER_77_703
*2446 FILLER_77_715
*2447 FILLER_77_727
*2448 FILLER_77_739
*2449 FILLER_77_751
*2450 FILLER_77_755
*2451 FILLER_77_757
*2452 FILLER_77_769
*2453 FILLER_77_781
*2454 FILLER_77_793
*2455 FILLER_78_706
*2456 FILLER_78_718
*2457 FILLER_78_726
*2458 FILLER_78_729
*2459 FILLER_78_741
*2460 FILLER_78_753
*2461 FILLER_78_765
*2462 FILLER_78_777
*2463 FILLER_78_781
*2464 FILLER_78_783
*2465 FILLER_78_785
*2466 FILLER_78_797
*2467 FILLER_79_703
*2468 FILLER_79_715
*2469 FILLER_79_727
*2470 FILLER_79_739
*2471 FILLER_79_751
*2472 FILLER_79_755
*2473 FILLER_79_757
*2474 FILLER_79_769
*2475 FILLER_79_781
*2476 FILLER_79_793
*2477 FILLER_7_105
*2478 FILLER_7_109
*2479 FILLER_7_111
*2480 FILLER_7_113
*2481 FILLER_7_125
*2482 FILLER_7_137
*2483 FILLER_7_149
*2484 FILLER_7_15
*2485 FILLER_7_161
*2486 FILLER_7_165
*2487 FILLER_7_167
*2488 FILLER_7_169
*2489 FILLER_7_181
*2490 FILLER_7_193
*2491 FILLER_7_205
*2492 FILLER_7_217
*2493 FILLER_7_221
*2494 FILLER_7_223
*2495 FILLER_7_225
*2496 FILLER_7_237
*2497 FILLER_7_249
*2498 FILLER_7_261
*2499 FILLER_7_27
*2500 FILLER_7_273
*2501 FILLER_7_277
*2502 FILLER_7_279
*2503 FILLER_7_281
*2504 FILLER_7_293
*2505 FILLER_7_3
*2506 FILLER_7_305
*2507 FILLER_7_309
*2508 FILLER_7_312
*2509 FILLER_7_324
*2510 FILLER_7_327
*2511 FILLER_7_343
*2512 FILLER_7_355
*2513 FILLER_7_363
*2514 FILLER_7_367
*2515 FILLER_7_379
*2516 FILLER_7_39
*2517 FILLER_7_391
*2518 FILLER_7_393
*2519 FILLER_7_405
*2520 FILLER_7_417
*2521 FILLER_7_429
*2522 FILLER_7_441
*2523 FILLER_7_445
*2524 FILLER_7_447
*2525 FILLER_7_449
*2526 FILLER_7_461
*2527 FILLER_7_473
*2528 FILLER_7_51
*2529 FILLER_7_523
*2530 FILLER_7_535
*2531 FILLER_7_537
*2532 FILLER_7_546
*2533 FILLER_7_55
*2534 FILLER_7_558
*2535 FILLER_7_561
*2536 FILLER_7_57
*2537 FILLER_7_573
*2538 FILLER_7_577
*2539 FILLER_7_587
*2540 FILLER_7_599
*2541 FILLER_7_611
*2542 FILLER_7_615
*2543 FILLER_7_619
*2544 FILLER_7_633
*2545 FILLER_7_645
*2546 FILLER_7_649
*2547 FILLER_7_661
*2548 FILLER_7_665
*2549 FILLER_7_669
*2550 FILLER_7_671
*2551 FILLER_7_673
*2552 FILLER_7_677
*2553 FILLER_7_681
*2554 FILLER_7_69
*2555 FILLER_7_693
*2556 FILLER_7_705
*2557 FILLER_7_709
*2558 FILLER_7_713
*2559 FILLER_7_725
*2560 FILLER_7_727
*2561 FILLER_7_729
*2562 FILLER_7_741
*2563 FILLER_7_753
*2564 FILLER_7_765
*2565 FILLER_7_777
*2566 FILLER_7_781
*2567 FILLER_7_783
*2568 FILLER_7_785
*2569 FILLER_7_797
*2570 FILLER_7_81
*2571 FILLER_7_93
*2572 FILLER_80_703
*2573 FILLER_80_715
*2574 FILLER_80_727
*2575 FILLER_80_729
*2576 FILLER_80_741
*2577 FILLER_80_753
*2578 FILLER_80_765
*2579 FILLER_80_777
*2580 FILLER_80_781
*2581 FILLER_80_783
*2582 FILLER_80_785
*2583 FILLER_80_797
*2584 FILLER_81_703
*2585 FILLER_81_715
*2586 FILLER_81_727
*2587 FILLER_81_739
*2588 FILLER_81_751
*2589 FILLER_81_755
*2590 FILLER_81_757
*2591 FILLER_81_769
*2592 FILLER_81_781
*2593 FILLER_81_793
*2594 FILLER_82_703
*2595 FILLER_82_715
*2596 FILLER_82_727
*2597 FILLER_82_729
*2598 FILLER_82_741
*2599 FILLER_82_753
*2600 FILLER_82_765
*2601 FILLER_82_777
*2602 FILLER_82_781
*2603 FILLER_82_783
*2604 FILLER_82_785
*2605 FILLER_82_797
*2606 FILLER_83_703
*2607 FILLER_83_715
*2608 FILLER_83_727
*2609 FILLER_83_739
*2610 FILLER_83_751
*2611 FILLER_83_755
*2612 FILLER_83_757
*2613 FILLER_83_769
*2614 FILLER_83_781
*2615 FILLER_83_793
*2616 FILLER_84_709
*2617 FILLER_84_721
*2618 FILLER_84_725
*2619 FILLER_84_727
*2620 FILLER_84_729
*2621 FILLER_84_741
*2622 FILLER_84_753
*2623 FILLER_84_765
*2624 FILLER_84_777
*2625 FILLER_84_781
*2626 FILLER_84_783
*2627 FILLER_84_785
*2628 FILLER_84_797
*2629 FILLER_85_703
*2630 FILLER_85_715
*2631 FILLER_85_727
*2632 FILLER_85_739
*2633 FILLER_85_751
*2634 FILLER_85_755
*2635 FILLER_85_757
*2636 FILLER_85_769
*2637 FILLER_85_781
*2638 FILLER_85_793
*2639 FILLER_86_703
*2640 FILLER_86_715
*2641 FILLER_86_727
*2642 FILLER_86_729
*2643 FILLER_86_741
*2644 FILLER_86_753
*2645 FILLER_86_765
*2646 FILLER_86_777
*2647 FILLER_86_781
*2648 FILLER_86_783
*2649 FILLER_86_785
*2650 FILLER_86_797
*2651 FILLER_87_703
*2652 FILLER_87_715
*2653 FILLER_87_727
*2654 FILLER_87_739
*2655 FILLER_87_751
*2656 FILLER_87_755
*2657 FILLER_87_757
*2658 FILLER_87_769
*2659 FILLER_87_781
*2660 FILLER_87_793
*2661 FILLER_88_706
*2662 FILLER_88_718
*2663 FILLER_88_726
*2664 FILLER_88_729
*2665 FILLER_88_741
*2666 FILLER_88_753
*2667 FILLER_88_765
*2668 FILLER_88_777
*2669 FILLER_88_781
*2670 FILLER_88_783
*2671 FILLER_88_785
*2672 FILLER_88_797
*2673 FILLER_89_706
*2674 FILLER_89_718
*2675 FILLER_89_730
*2676 FILLER_89_742
*2677 FILLER_89_754
*2678 FILLER_89_757
*2679 FILLER_89_769
*2680 FILLER_89_781
*2681 FILLER_89_793
*2682 FILLER_8_109
*2683 FILLER_8_111
*2684 FILLER_8_113
*2685 FILLER_8_125
*2686 FILLER_8_137
*2687 FILLER_8_139
*2688 FILLER_8_141
*2689 FILLER_8_15
*2690 FILLER_8_153
*2691 FILLER_8_165
*2692 FILLER_8_167
*2693 FILLER_8_169
*2694 FILLER_8_181
*2695 FILLER_8_193
*2696 FILLER_8_195
*2697 FILLER_8_197
*2698 FILLER_8_209
*2699 FILLER_8_221
*2700 FILLER_8_223
*2701 FILLER_8_225
*2702 FILLER_8_237
*2703 FILLER_8_249
*2704 FILLER_8_251
*2705 FILLER_8_253
*2706 FILLER_8_265
*2707 FILLER_8_27
*2708 FILLER_8_277
*2709 FILLER_8_279
*2710 FILLER_8_281
*2711 FILLER_8_29
*2712 FILLER_8_293
*2713 FILLER_8_3
*2714 FILLER_8_305
*2715 FILLER_8_307
*2716 FILLER_8_309
*2717 FILLER_8_321
*2718 FILLER_8_333
*2719 FILLER_8_335
*2720 FILLER_8_337
*2721 FILLER_8_349
*2722 FILLER_8_361
*2723 FILLER_8_363
*2724 FILLER_8_365
*2725 FILLER_8_377
*2726 FILLER_8_389
*2727 FILLER_8_391
*2728 FILLER_8_393
*2729 FILLER_8_405
*2730 FILLER_8_41
*2731 FILLER_8_417
*2732 FILLER_8_419
*2733 FILLER_8_421
*2734 FILLER_8_433
*2735 FILLER_8_445
*2736 FILLER_8_447
*2737 FILLER_8_449
*2738 FILLER_8_457
*2739 FILLER_8_465
*2740 FILLER_8_467
*2741 FILLER_8_477
*2742 FILLER_8_479
*2743 FILLER_8_505
*2744 FILLER_8_517
*2745 FILLER_8_529
*2746 FILLER_8_53
*2747 FILLER_8_531
*2748 FILLER_8_55
*2749 FILLER_8_557
*2750 FILLER_8_559
*2751 FILLER_8_57
*2752 FILLER_8_587
*2753 FILLER_8_613
*2754 FILLER_8_615
*2755 FILLER_8_625
*2756 FILLER_8_629
*2757 FILLER_8_639
*2758 FILLER_8_643
*2759 FILLER_8_645
*2760 FILLER_8_655
*2761 FILLER_8_671
*2762 FILLER_8_673
*2763 FILLER_8_677
*2764 FILLER_8_685
*2765 FILLER_8_69
*2766 FILLER_8_697
*2767 FILLER_8_699
*2768 FILLER_8_701
*2769 FILLER_8_709
*2770 FILLER_8_713
*2771 FILLER_8_725
*2772 FILLER_8_727
*2773 FILLER_8_729
*2774 FILLER_8_741
*2775 FILLER_8_753
*2776 FILLER_8_755
*2777 FILLER_8_757
*2778 FILLER_8_769
*2779 FILLER_8_781
*2780 FILLER_8_783
*2781 FILLER_8_785
*2782 FILLER_8_797
*2783 FILLER_8_81
*2784 FILLER_8_83
*2785 FILLER_8_85
*2786 FILLER_8_97
*2787 FILLER_90_706
*2788 FILLER_90_718
*2789 FILLER_90_726
*2790 FILLER_90_729
*2791 FILLER_90_741
*2792 FILLER_90_753
*2793 FILLER_90_765
*2794 FILLER_90_777
*2795 FILLER_90_781
*2796 FILLER_90_783
*2797 FILLER_90_785
*2798 FILLER_90_797
*2799 FILLER_91_703
*2800 FILLER_91_715
*2801 FILLER_91_727
*2802 FILLER_91_739
*2803 FILLER_91_751
*2804 FILLER_91_755
*2805 FILLER_91_757
*2806 FILLER_91_769
*2807 FILLER_91_781
*2808 FILLER_91_793
*2809 FILLER_92_703
*2810 FILLER_92_715
*2811 FILLER_92_727
*2812 FILLER_92_729
*2813 FILLER_92_741
*2814 FILLER_92_753
*2815 FILLER_92_765
*2816 FILLER_92_777
*2817 FILLER_92_781
*2818 FILLER_92_783
*2819 FILLER_92_785
*2820 FILLER_92_797
*2821 FILLER_93_703
*2822 FILLER_93_715
*2823 FILLER_93_727
*2824 FILLER_93_739
*2825 FILLER_93_751
*2826 FILLER_93_755
*2827 FILLER_93_757
*2828 FILLER_93_769
*2829 FILLER_93_781
*2830 FILLER_93_793
*2831 FILLER_94_709
*2832 FILLER_94_721
*2833 FILLER_94_725
*2834 FILLER_94_727
*2835 FILLER_94_729
*2836 FILLER_94_741
*2837 FILLER_94_753
*2838 FILLER_94_765
*2839 FILLER_94_777
*2840 FILLER_94_781
*2841 FILLER_94_783
*2842 FILLER_94_785
*2843 FILLER_94_797
*2844 FILLER_95_703
*2845 FILLER_95_715
*2846 FILLER_95_727
*2847 FILLER_95_739
*2848 FILLER_95_751
*2849 FILLER_95_755
*2850 FILLER_95_757
*2851 FILLER_95_769
*2852 FILLER_95_781
*2853 FILLER_95_793
*2854 FILLER_96_703
*2855 FILLER_96_715
*2856 FILLER_96_727
*2857 FILLER_96_729
*2858 FILLER_96_741
*2859 FILLER_96_753
*2860 FILLER_96_765
*2861 FILLER_96_777
*2862 FILLER_96_781
*2863 FILLER_96_783
*2864 FILLER_96_785
*2865 FILLER_96_797
*2866 FILLER_97_703
*2867 FILLER_97_715
*2868 FILLER_97_727
*2869 FILLER_97_739
*2870 FILLER_97_751
*2871 FILLER_97_755
*2872 FILLER_97_757
*2873 FILLER_97_769
*2874 FILLER_97_781
*2875 FILLER_97_793
*2876 FILLER_98_703
*2877 FILLER_98_715
*2878 FILLER_98_727
*2879 FILLER_98_729
*2880 FILLER_98_741
*2881 FILLER_98_753
*2882 FILLER_98_765
*2883 FILLER_98_777
*2884 FILLER_98_781
*2885 FILLER_98_783
*2886 FILLER_98_785
*2887 FILLER_98_797
*2888 FILLER_99_703
*2889 FILLER_99_715
*2890 FILLER_99_727
*2891 FILLER_99_739
*2892 FILLER_99_751
*2893 FILLER_99_755
*2894 FILLER_99_757
*2895 FILLER_99_769
*2896 FILLER_99_781
*2897 FILLER_99_793
*2898 FILLER_9_703
*2899 FILLER_9_713
*2900 FILLER_9_725
*2901 FILLER_9_737
*2902 FILLER_9_749
*2903 FILLER_9_753
*2904 FILLER_9_755
*2905 FILLER_9_757
*2906 FILLER_9_769
*2907 FILLER_9_781
*2908 FILLER_9_793
*2909 PHY_EDGE_ROW_0_Left_0
*2910 PHY_EDGE_ROW_0_Right_9
*2911 PHY_EDGE_ROW_100_2_Left_255
*2912 PHY_EDGE_ROW_100_2_Right_108
*2913 PHY_EDGE_ROW_101_2_Left_256
*2914 PHY_EDGE_ROW_101_2_Right_109
*2915 PHY_EDGE_ROW_102_2_Left_257
*2916 PHY_EDGE_ROW_102_2_Right_110
*2917 PHY_EDGE_ROW_103_2_Left_258
*2918 PHY_EDGE_ROW_103_2_Right_111
*2919 PHY_EDGE_ROW_104_2_Left_259
*2920 PHY_EDGE_ROW_104_2_Right_112
*2921 PHY_EDGE_ROW_105_2_Left_260
*2922 PHY_EDGE_ROW_105_2_Right_113
*2923 PHY_EDGE_ROW_106_2_Left_261
*2924 PHY_EDGE_ROW_106_2_Right_114
*2925 PHY_EDGE_ROW_107_2_Left_262
*2926 PHY_EDGE_ROW_107_2_Right_115
*2927 PHY_EDGE_ROW_108_2_Left_263
*2928 PHY_EDGE_ROW_108_2_Right_116
*2929 PHY_EDGE_ROW_109_2_Left_264
*2930 PHY_EDGE_ROW_109_2_Right_117
*2931 PHY_EDGE_ROW_10_2_Left_165
*2932 PHY_EDGE_ROW_10_2_Right_18
*2933 PHY_EDGE_ROW_110_2_Left_265
*2934 PHY_EDGE_ROW_110_2_Right_118
*2935 PHY_EDGE_ROW_111_2_Left_266
*2936 PHY_EDGE_ROW_111_2_Right_119
*2937 PHY_EDGE_ROW_112_2_Left_267
*2938 PHY_EDGE_ROW_112_2_Right_120
*2939 PHY_EDGE_ROW_113_2_Left_268
*2940 PHY_EDGE_ROW_113_2_Right_121
*2941 PHY_EDGE_ROW_114_2_Left_269
*2942 PHY_EDGE_ROW_114_2_Right_122
*2943 PHY_EDGE_ROW_115_2_Left_270
*2944 PHY_EDGE_ROW_115_2_Right_123
*2945 PHY_EDGE_ROW_116_2_Left_271
*2946 PHY_EDGE_ROW_116_2_Right_124
*2947 PHY_EDGE_ROW_117_2_Left_272
*2948 PHY_EDGE_ROW_117_2_Right_125
*2949 PHY_EDGE_ROW_118_2_Left_273
*2950 PHY_EDGE_ROW_118_2_Right_126
*2951 PHY_EDGE_ROW_119_2_Left_274
*2952 PHY_EDGE_ROW_119_2_Right_127
*2953 PHY_EDGE_ROW_11_2_Left_166
*2954 PHY_EDGE_ROW_11_2_Right_19
*2955 PHY_EDGE_ROW_120_2_Left_275
*2956 PHY_EDGE_ROW_120_2_Right_128
*2957 PHY_EDGE_ROW_121_2_Left_276
*2958 PHY_EDGE_ROW_121_2_Right_129
*2959 PHY_EDGE_ROW_122_2_Left_277
*2960 PHY_EDGE_ROW_122_2_Right_130
*2961 PHY_EDGE_ROW_123_2_Left_278
*2962 PHY_EDGE_ROW_123_2_Right_131
*2963 PHY_EDGE_ROW_124_2_Left_279
*2964 PHY_EDGE_ROW_124_2_Right_132
*2965 PHY_EDGE_ROW_125_2_Left_280
*2966 PHY_EDGE_ROW_125_2_Right_133
*2967 PHY_EDGE_ROW_126_2_Left_281
*2968 PHY_EDGE_ROW_126_2_Right_134
*2969 PHY_EDGE_ROW_127_2_Left_282
*2970 PHY_EDGE_ROW_127_2_Right_135
*2971 PHY_EDGE_ROW_128_2_Left_283
*2972 PHY_EDGE_ROW_128_2_Right_136
*2973 PHY_EDGE_ROW_129_2_Left_284
*2974 PHY_EDGE_ROW_129_2_Right_137
*2975 PHY_EDGE_ROW_12_2_Left_167
*2976 PHY_EDGE_ROW_12_2_Right_20
*2977 PHY_EDGE_ROW_130_2_Left_285
*2978 PHY_EDGE_ROW_130_2_Right_138
*2979 PHY_EDGE_ROW_131_2_Left_286
*2980 PHY_EDGE_ROW_131_2_Right_139
*2981 PHY_EDGE_ROW_132_2_Left_287
*2982 PHY_EDGE_ROW_132_2_Right_140
*2983 PHY_EDGE_ROW_133_2_Left_288
*2984 PHY_EDGE_ROW_133_2_Right_141
*2985 PHY_EDGE_ROW_134_2_Left_289
*2986 PHY_EDGE_ROW_134_2_Right_142
*2987 PHY_EDGE_ROW_135_2_Left_290
*2988 PHY_EDGE_ROW_135_2_Right_143
*2989 PHY_EDGE_ROW_136_2_Left_291
*2990 PHY_EDGE_ROW_136_2_Right_144
*2991 PHY_EDGE_ROW_137_2_Left_292
*2992 PHY_EDGE_ROW_137_2_Right_145
*2993 PHY_EDGE_ROW_138_2_Left_293
*2994 PHY_EDGE_ROW_138_2_Right_146
*2995 PHY_EDGE_ROW_139_2_Left_294
*2996 PHY_EDGE_ROW_139_2_Right_147
*2997 PHY_EDGE_ROW_13_2_Left_168
*2998 PHY_EDGE_ROW_13_2_Right_21
*2999 PHY_EDGE_ROW_140_2_Left_295
*3000 PHY_EDGE_ROW_140_2_Right_148
*3001 PHY_EDGE_ROW_141_2_Left_296
*3002 PHY_EDGE_ROW_141_2_Right_149
*3003 PHY_EDGE_ROW_142_2_Left_297
*3004 PHY_EDGE_ROW_142_2_Right_150
*3005 PHY_EDGE_ROW_143_2_Left_298
*3006 PHY_EDGE_ROW_143_2_Right_151
*3007 PHY_EDGE_ROW_144_2_Left_299
*3008 PHY_EDGE_ROW_144_2_Right_152
*3009 PHY_EDGE_ROW_145_2_Left_300
*3010 PHY_EDGE_ROW_145_2_Right_153
*3011 PHY_EDGE_ROW_146_2_Left_301
*3012 PHY_EDGE_ROW_146_2_Right_154
*3013 PHY_EDGE_ROW_147_2_Left_302
*3014 PHY_EDGE_ROW_147_2_Right_155
*3015 PHY_EDGE_ROW_148_2_Left_303
*3016 PHY_EDGE_ROW_148_2_Right_156
*3017 PHY_EDGE_ROW_149_2_Left_304
*3018 PHY_EDGE_ROW_149_2_Right_157
*3019 PHY_EDGE_ROW_14_2_Left_169
*3020 PHY_EDGE_ROW_14_2_Right_22
*3021 PHY_EDGE_ROW_150_2_Left_305
*3022 PHY_EDGE_ROW_150_2_Right_158
*3023 PHY_EDGE_ROW_151_2_Left_306
*3024 PHY_EDGE_ROW_151_2_Right_159
*3025 PHY_EDGE_ROW_152_2_Left_307
*3026 PHY_EDGE_ROW_152_2_Right_160
*3027 PHY_EDGE_ROW_153_2_Left_308
*3028 PHY_EDGE_ROW_153_2_Right_161
*3029 PHY_EDGE_ROW_154_2_Left_309
*3030 PHY_EDGE_ROW_154_2_Right_162
*3031 PHY_EDGE_ROW_155_2_Left_310
*3032 PHY_EDGE_ROW_155_2_Right_163
*3033 PHY_EDGE_ROW_15_2_Left_170
*3034 PHY_EDGE_ROW_15_2_Right_23
*3035 PHY_EDGE_ROW_16_2_Left_171
*3036 PHY_EDGE_ROW_16_2_Right_24
*3037 PHY_EDGE_ROW_17_2_Left_172
*3038 PHY_EDGE_ROW_17_2_Right_25
*3039 PHY_EDGE_ROW_18_2_Left_173
*3040 PHY_EDGE_ROW_18_2_Right_26
*3041 PHY_EDGE_ROW_19_2_Left_174
*3042 PHY_EDGE_ROW_19_2_Right_27
*3043 PHY_EDGE_ROW_1_Left_1
*3044 PHY_EDGE_ROW_1_Right_10
*3045 PHY_EDGE_ROW_20_2_Left_175
*3046 PHY_EDGE_ROW_20_2_Right_28
*3047 PHY_EDGE_ROW_21_2_Left_176
*3048 PHY_EDGE_ROW_21_2_Right_29
*3049 PHY_EDGE_ROW_22_2_Left_177
*3050 PHY_EDGE_ROW_22_2_Right_30
*3051 PHY_EDGE_ROW_23_2_Left_178
*3052 PHY_EDGE_ROW_23_2_Right_31
*3053 PHY_EDGE_ROW_24_2_Left_179
*3054 PHY_EDGE_ROW_24_2_Right_32
*3055 PHY_EDGE_ROW_25_2_Left_180
*3056 PHY_EDGE_ROW_25_2_Right_33
*3057 PHY_EDGE_ROW_26_2_Left_181
*3058 PHY_EDGE_ROW_26_2_Right_34
*3059 PHY_EDGE_ROW_27_2_Left_182
*3060 PHY_EDGE_ROW_27_2_Right_35
*3061 PHY_EDGE_ROW_28_2_Left_183
*3062 PHY_EDGE_ROW_28_2_Right_36
*3063 PHY_EDGE_ROW_29_2_Left_184
*3064 PHY_EDGE_ROW_29_2_Right_37
*3065 PHY_EDGE_ROW_2_Left_2
*3066 PHY_EDGE_ROW_2_Right_11
*3067 PHY_EDGE_ROW_30_2_Left_185
*3068 PHY_EDGE_ROW_30_2_Right_38
*3069 PHY_EDGE_ROW_31_2_Left_186
*3070 PHY_EDGE_ROW_31_2_Right_39
*3071 PHY_EDGE_ROW_32_2_Left_187
*3072 PHY_EDGE_ROW_32_2_Right_40
*3073 PHY_EDGE_ROW_33_2_Left_188
*3074 PHY_EDGE_ROW_33_2_Right_41
*3075 PHY_EDGE_ROW_34_2_Left_189
*3076 PHY_EDGE_ROW_34_2_Right_42
*3077 PHY_EDGE_ROW_35_2_Left_190
*3078 PHY_EDGE_ROW_35_2_Right_43
*3079 PHY_EDGE_ROW_36_2_Left_191
*3080 PHY_EDGE_ROW_36_2_Right_44
*3081 PHY_EDGE_ROW_37_2_Left_192
*3082 PHY_EDGE_ROW_37_2_Right_45
*3083 PHY_EDGE_ROW_38_2_Left_193
*3084 PHY_EDGE_ROW_38_2_Right_46
*3085 PHY_EDGE_ROW_39_2_Left_194
*3086 PHY_EDGE_ROW_39_2_Right_47
*3087 PHY_EDGE_ROW_3_Left_3
*3088 PHY_EDGE_ROW_3_Right_12
*3089 PHY_EDGE_ROW_40_2_Left_195
*3090 PHY_EDGE_ROW_40_2_Right_48
*3091 PHY_EDGE_ROW_41_2_Left_196
*3092 PHY_EDGE_ROW_41_2_Right_49
*3093 PHY_EDGE_ROW_42_2_Left_197
*3094 PHY_EDGE_ROW_42_2_Right_50
*3095 PHY_EDGE_ROW_43_2_Left_198
*3096 PHY_EDGE_ROW_43_2_Right_51
*3097 PHY_EDGE_ROW_44_2_Left_199
*3098 PHY_EDGE_ROW_44_2_Right_52
*3099 PHY_EDGE_ROW_45_2_Left_200
*3100 PHY_EDGE_ROW_45_2_Right_53
*3101 PHY_EDGE_ROW_46_2_Left_201
*3102 PHY_EDGE_ROW_46_2_Right_54
*3103 PHY_EDGE_ROW_47_2_Left_202
*3104 PHY_EDGE_ROW_47_2_Right_55
*3105 PHY_EDGE_ROW_48_2_Left_203
*3106 PHY_EDGE_ROW_48_2_Right_56
*3107 PHY_EDGE_ROW_49_2_Left_204
*3108 PHY_EDGE_ROW_49_2_Right_57
*3109 PHY_EDGE_ROW_4_Left_4
*3110 PHY_EDGE_ROW_4_Right_13
*3111 PHY_EDGE_ROW_50_2_Left_205
*3112 PHY_EDGE_ROW_50_2_Right_58
*3113 PHY_EDGE_ROW_51_2_Left_206
*3114 PHY_EDGE_ROW_51_2_Right_59
*3115 PHY_EDGE_ROW_52_2_Left_207
*3116 PHY_EDGE_ROW_52_2_Right_60
*3117 PHY_EDGE_ROW_53_2_Left_208
*3118 PHY_EDGE_ROW_53_2_Right_61
*3119 PHY_EDGE_ROW_54_2_Left_209
*3120 PHY_EDGE_ROW_54_2_Right_62
*3121 PHY_EDGE_ROW_55_2_Left_210
*3122 PHY_EDGE_ROW_55_2_Right_63
*3123 PHY_EDGE_ROW_56_2_Left_211
*3124 PHY_EDGE_ROW_56_2_Right_64
*3125 PHY_EDGE_ROW_57_2_Left_212
*3126 PHY_EDGE_ROW_57_2_Right_65
*3127 PHY_EDGE_ROW_58_2_Left_213
*3128 PHY_EDGE_ROW_58_2_Right_66
*3129 PHY_EDGE_ROW_59_2_Left_214
*3130 PHY_EDGE_ROW_59_2_Right_67
*3131 PHY_EDGE_ROW_5_Left_5
*3132 PHY_EDGE_ROW_5_Right_14
*3133 PHY_EDGE_ROW_60_2_Left_215
*3134 PHY_EDGE_ROW_60_2_Right_68
*3135 PHY_EDGE_ROW_61_2_Left_216
*3136 PHY_EDGE_ROW_61_2_Right_69
*3137 PHY_EDGE_ROW_62_2_Left_217
*3138 PHY_EDGE_ROW_62_2_Right_70
*3139 PHY_EDGE_ROW_63_2_Left_218
*3140 PHY_EDGE_ROW_63_2_Right_71
*3141 PHY_EDGE_ROW_64_2_Left_219
*3142 PHY_EDGE_ROW_64_2_Right_72
*3143 PHY_EDGE_ROW_65_2_Left_220
*3144 PHY_EDGE_ROW_65_2_Right_73
*3145 PHY_EDGE_ROW_66_2_Left_221
*3146 PHY_EDGE_ROW_66_2_Right_74
*3147 PHY_EDGE_ROW_67_2_Left_222
*3148 PHY_EDGE_ROW_67_2_Right_75
*3149 PHY_EDGE_ROW_68_2_Left_223
*3150 PHY_EDGE_ROW_68_2_Right_76
*3151 PHY_EDGE_ROW_69_2_Left_224
*3152 PHY_EDGE_ROW_69_2_Right_77
*3153 PHY_EDGE_ROW_6_Left_6
*3154 PHY_EDGE_ROW_6_Right_15
*3155 PHY_EDGE_ROW_70_2_Left_225
*3156 PHY_EDGE_ROW_70_2_Right_78
*3157 PHY_EDGE_ROW_71_2_Left_226
*3158 PHY_EDGE_ROW_71_2_Right_79
*3159 PHY_EDGE_ROW_72_2_Left_227
*3160 PHY_EDGE_ROW_72_2_Right_80
*3161 PHY_EDGE_ROW_73_2_Left_228
*3162 PHY_EDGE_ROW_73_2_Right_81
*3163 PHY_EDGE_ROW_74_2_Left_229
*3164 PHY_EDGE_ROW_74_2_Right_82
*3165 PHY_EDGE_ROW_75_2_Left_230
*3166 PHY_EDGE_ROW_75_2_Right_83
*3167 PHY_EDGE_ROW_76_2_Left_231
*3168 PHY_EDGE_ROW_76_2_Right_84
*3169 PHY_EDGE_ROW_77_2_Left_232
*3170 PHY_EDGE_ROW_77_2_Right_85
*3171 PHY_EDGE_ROW_78_2_Left_233
*3172 PHY_EDGE_ROW_78_2_Right_86
*3173 PHY_EDGE_ROW_79_2_Left_234
*3174 PHY_EDGE_ROW_79_2_Right_87
*3175 PHY_EDGE_ROW_7_Left_7
*3176 PHY_EDGE_ROW_7_Right_16
*3177 PHY_EDGE_ROW_80_2_Left_235
*3178 PHY_EDGE_ROW_80_2_Right_88
*3179 PHY_EDGE_ROW_81_2_Left_236
*3180 PHY_EDGE_ROW_81_2_Right_89
*3181 PHY_EDGE_ROW_82_2_Left_237
*3182 PHY_EDGE_ROW_82_2_Right_90
*3183 PHY_EDGE_ROW_83_2_Left_238
*3184 PHY_EDGE_ROW_83_2_Right_91
*3185 PHY_EDGE_ROW_84_2_Left_239
*3186 PHY_EDGE_ROW_84_2_Right_92
*3187 PHY_EDGE_ROW_85_2_Left_240
*3188 PHY_EDGE_ROW_85_2_Right_93
*3189 PHY_EDGE_ROW_86_2_Left_241
*3190 PHY_EDGE_ROW_86_2_Right_94
*3191 PHY_EDGE_ROW_87_2_Left_242
*3192 PHY_EDGE_ROW_87_2_Right_95
*3193 PHY_EDGE_ROW_88_2_Left_243
*3194 PHY_EDGE_ROW_88_2_Right_96
*3195 PHY_EDGE_ROW_89_2_Left_244
*3196 PHY_EDGE_ROW_89_2_Right_97
*3197 PHY_EDGE_ROW_8_Left_8
*3198 PHY_EDGE_ROW_8_Right_17
*3199 PHY_EDGE_ROW_90_2_Left_245
*3200 PHY_EDGE_ROW_90_2_Right_98
*3201 PHY_EDGE_ROW_91_2_Left_246
*3202 PHY_EDGE_ROW_91_2_Right_99
*3203 PHY_EDGE_ROW_92_2_Left_247
*3204 PHY_EDGE_ROW_92_2_Right_100
*3205 PHY_EDGE_ROW_93_2_Left_248
*3206 PHY_EDGE_ROW_93_2_Right_101
*3207 PHY_EDGE_ROW_94_2_Left_249
*3208 PHY_EDGE_ROW_94_2_Right_102
*3209 PHY_EDGE_ROW_95_2_Left_250
*3210 PHY_EDGE_ROW_95_2_Right_103
*3211 PHY_EDGE_ROW_96_2_Left_251
*3212 PHY_EDGE_ROW_96_2_Right_104
*3213 PHY_EDGE_ROW_97_2_Left_252
*3214 PHY_EDGE_ROW_97_2_Right_105
*3215 PHY_EDGE_ROW_98_2_Left_253
*3216 PHY_EDGE_ROW_98_2_Right_106
*3217 PHY_EDGE_ROW_99_2_Left_254
*3218 PHY_EDGE_ROW_99_2_Right_107
*3219 PHY_EDGE_ROW_9_2_Left_311
*3220 PHY_EDGE_ROW_9_2_Right_164
*3221 TAP_TAPCELL_ROW_0_312
*3222 TAP_TAPCELL_ROW_0_313
*3223 TAP_TAPCELL_ROW_0_314
*3224 TAP_TAPCELL_ROW_0_315
*3225 TAP_TAPCELL_ROW_0_316
*3226 TAP_TAPCELL_ROW_0_317
*3227 TAP_TAPCELL_ROW_0_318
*3228 TAP_TAPCELL_ROW_0_319
*3229 TAP_TAPCELL_ROW_0_320
*3230 TAP_TAPCELL_ROW_0_321
*3231 TAP_TAPCELL_ROW_0_322
*3232 TAP_TAPCELL_ROW_0_323
*3233 TAP_TAPCELL_ROW_0_324
*3234 TAP_TAPCELL_ROW_0_325
*3235 TAP_TAPCELL_ROW_0_326
*3236 TAP_TAPCELL_ROW_0_327
*3237 TAP_TAPCELL_ROW_0_328
*3238 TAP_TAPCELL_ROW_0_329
*3239 TAP_TAPCELL_ROW_0_330
*3240 TAP_TAPCELL_ROW_0_331
*3241 TAP_TAPCELL_ROW_0_332
*3242 TAP_TAPCELL_ROW_0_333
*3243 TAP_TAPCELL_ROW_0_334
*3244 TAP_TAPCELL_ROW_0_335
*3245 TAP_TAPCELL_ROW_0_336
*3246 TAP_TAPCELL_ROW_0_337
*3247 TAP_TAPCELL_ROW_0_338
*3248 TAP_TAPCELL_ROW_0_339
*3249 TAP_TAPCELL_ROW_100_2_601
*3250 TAP_TAPCELL_ROW_100_2_602
*3251 TAP_TAPCELL_ROW_101_2_603
*3252 TAP_TAPCELL_ROW_102_2_604
*3253 TAP_TAPCELL_ROW_102_2_605
*3254 TAP_TAPCELL_ROW_103_2_606
*3255 TAP_TAPCELL_ROW_104_2_607
*3256 TAP_TAPCELL_ROW_104_2_608
*3257 TAP_TAPCELL_ROW_105_2_609
*3258 TAP_TAPCELL_ROW_106_2_610
*3259 TAP_TAPCELL_ROW_106_2_611
*3260 TAP_TAPCELL_ROW_107_2_612
*3261 TAP_TAPCELL_ROW_108_2_613
*3262 TAP_TAPCELL_ROW_108_2_614
*3263 TAP_TAPCELL_ROW_109_2_615
*3264 TAP_TAPCELL_ROW_10_2_466
*3265 TAP_TAPCELL_ROW_10_2_467
*3266 TAP_TAPCELL_ROW_110_2_616
*3267 TAP_TAPCELL_ROW_110_2_617
*3268 TAP_TAPCELL_ROW_111_2_618
*3269 TAP_TAPCELL_ROW_112_2_619
*3270 TAP_TAPCELL_ROW_112_2_620
*3271 TAP_TAPCELL_ROW_113_2_621
*3272 TAP_TAPCELL_ROW_114_2_622
*3273 TAP_TAPCELL_ROW_114_2_623
*3274 TAP_TAPCELL_ROW_115_2_624
*3275 TAP_TAPCELL_ROW_116_2_625
*3276 TAP_TAPCELL_ROW_116_2_626
*3277 TAP_TAPCELL_ROW_117_2_627
*3278 TAP_TAPCELL_ROW_118_2_628
*3279 TAP_TAPCELL_ROW_118_2_629
*3280 TAP_TAPCELL_ROW_119_2_630
*3281 TAP_TAPCELL_ROW_11_2_468
*3282 TAP_TAPCELL_ROW_120_2_631
*3283 TAP_TAPCELL_ROW_120_2_632
*3284 TAP_TAPCELL_ROW_121_2_633
*3285 TAP_TAPCELL_ROW_122_2_634
*3286 TAP_TAPCELL_ROW_122_2_635
*3287 TAP_TAPCELL_ROW_123_2_636
*3288 TAP_TAPCELL_ROW_124_2_637
*3289 TAP_TAPCELL_ROW_124_2_638
*3290 TAP_TAPCELL_ROW_125_2_639
*3291 TAP_TAPCELL_ROW_126_2_640
*3292 TAP_TAPCELL_ROW_126_2_641
*3293 TAP_TAPCELL_ROW_127_2_642
*3294 TAP_TAPCELL_ROW_128_2_643
*3295 TAP_TAPCELL_ROW_128_2_644
*3296 TAP_TAPCELL_ROW_129_2_645
*3297 TAP_TAPCELL_ROW_12_2_469
*3298 TAP_TAPCELL_ROW_12_2_470
*3299 TAP_TAPCELL_ROW_130_2_646
*3300 TAP_TAPCELL_ROW_130_2_647
*3301 TAP_TAPCELL_ROW_131_2_648
*3302 TAP_TAPCELL_ROW_132_2_649
*3303 TAP_TAPCELL_ROW_132_2_650
*3304 TAP_TAPCELL_ROW_133_2_651
*3305 TAP_TAPCELL_ROW_134_2_652
*3306 TAP_TAPCELL_ROW_134_2_653
*3307 TAP_TAPCELL_ROW_135_2_654
*3308 TAP_TAPCELL_ROW_136_2_655
*3309 TAP_TAPCELL_ROW_136_2_656
*3310 TAP_TAPCELL_ROW_137_2_657
*3311 TAP_TAPCELL_ROW_138_2_658
*3312 TAP_TAPCELL_ROW_138_2_659
*3313 TAP_TAPCELL_ROW_139_2_660
*3314 TAP_TAPCELL_ROW_13_2_471
*3315 TAP_TAPCELL_ROW_140_2_661
*3316 TAP_TAPCELL_ROW_140_2_662
*3317 TAP_TAPCELL_ROW_141_2_663
*3318 TAP_TAPCELL_ROW_142_2_664
*3319 TAP_TAPCELL_ROW_142_2_665
*3320 TAP_TAPCELL_ROW_143_2_666
*3321 TAP_TAPCELL_ROW_144_2_667
*3322 TAP_TAPCELL_ROW_144_2_668
*3323 TAP_TAPCELL_ROW_145_2_669
*3324 TAP_TAPCELL_ROW_146_2_670
*3325 TAP_TAPCELL_ROW_146_2_671
*3326 TAP_TAPCELL_ROW_147_2_672
*3327 TAP_TAPCELL_ROW_148_2_673
*3328 TAP_TAPCELL_ROW_148_2_674
*3329 TAP_TAPCELL_ROW_149_2_675
*3330 TAP_TAPCELL_ROW_14_2_472
*3331 TAP_TAPCELL_ROW_14_2_473
*3332 TAP_TAPCELL_ROW_150_2_676
*3333 TAP_TAPCELL_ROW_150_2_677
*3334 TAP_TAPCELL_ROW_151_2_678
*3335 TAP_TAPCELL_ROW_152_2_679
*3336 TAP_TAPCELL_ROW_152_2_680
*3337 TAP_TAPCELL_ROW_153_2_681
*3338 TAP_TAPCELL_ROW_154_2_682
*3339 TAP_TAPCELL_ROW_154_2_683
*3340 TAP_TAPCELL_ROW_155_2_684
*3341 TAP_TAPCELL_ROW_155_2_685
*3342 TAP_TAPCELL_ROW_155_2_686
*3343 TAP_TAPCELL_ROW_15_2_474
*3344 TAP_TAPCELL_ROW_16_2_475
*3345 TAP_TAPCELL_ROW_16_2_476
*3346 TAP_TAPCELL_ROW_17_2_477
*3347 TAP_TAPCELL_ROW_18_2_478
*3348 TAP_TAPCELL_ROW_18_2_479
*3349 TAP_TAPCELL_ROW_19_2_480
*3350 TAP_TAPCELL_ROW_1_340
*3351 TAP_TAPCELL_ROW_1_341
*3352 TAP_TAPCELL_ROW_1_342
*3353 TAP_TAPCELL_ROW_1_343
*3354 TAP_TAPCELL_ROW_1_344
*3355 TAP_TAPCELL_ROW_1_345
*3356 TAP_TAPCELL_ROW_1_346
*3357 TAP_TAPCELL_ROW_1_347
*3358 TAP_TAPCELL_ROW_1_348
*3359 TAP_TAPCELL_ROW_1_349
*3360 TAP_TAPCELL_ROW_1_350
*3361 TAP_TAPCELL_ROW_1_351
*3362 TAP_TAPCELL_ROW_1_352
*3363 TAP_TAPCELL_ROW_1_353
*3364 TAP_TAPCELL_ROW_20_2_481
*3365 TAP_TAPCELL_ROW_20_2_482
*3366 TAP_TAPCELL_ROW_21_2_483
*3367 TAP_TAPCELL_ROW_22_2_484
*3368 TAP_TAPCELL_ROW_22_2_485
*3369 TAP_TAPCELL_ROW_23_2_486
*3370 TAP_TAPCELL_ROW_24_2_487
*3371 TAP_TAPCELL_ROW_24_2_488
*3372 TAP_TAPCELL_ROW_25_2_489
*3373 TAP_TAPCELL_ROW_26_2_490
*3374 TAP_TAPCELL_ROW_26_2_491
*3375 TAP_TAPCELL_ROW_27_2_492
*3376 TAP_TAPCELL_ROW_28_2_493
*3377 TAP_TAPCELL_ROW_28_2_494
*3378 TAP_TAPCELL_ROW_29_2_495
*3379 TAP_TAPCELL_ROW_2_354
*3380 TAP_TAPCELL_ROW_2_355
*3381 TAP_TAPCELL_ROW_2_356
*3382 TAP_TAPCELL_ROW_2_357
*3383 TAP_TAPCELL_ROW_2_358
*3384 TAP_TAPCELL_ROW_2_359
*3385 TAP_TAPCELL_ROW_2_360
*3386 TAP_TAPCELL_ROW_2_361
*3387 TAP_TAPCELL_ROW_2_362
*3388 TAP_TAPCELL_ROW_2_363
*3389 TAP_TAPCELL_ROW_2_364
*3390 TAP_TAPCELL_ROW_2_365
*3391 TAP_TAPCELL_ROW_2_366
*3392 TAP_TAPCELL_ROW_2_367
*3393 TAP_TAPCELL_ROW_30_2_496
*3394 TAP_TAPCELL_ROW_30_2_497
*3395 TAP_TAPCELL_ROW_31_2_498
*3396 TAP_TAPCELL_ROW_32_2_499
*3397 TAP_TAPCELL_ROW_32_2_500
*3398 TAP_TAPCELL_ROW_33_2_501
*3399 TAP_TAPCELL_ROW_34_2_502
*3400 TAP_TAPCELL_ROW_34_2_503
*3401 TAP_TAPCELL_ROW_35_2_504
*3402 TAP_TAPCELL_ROW_36_2_505
*3403 TAP_TAPCELL_ROW_36_2_506
*3404 TAP_TAPCELL_ROW_37_2_507
*3405 TAP_TAPCELL_ROW_38_2_508
*3406 TAP_TAPCELL_ROW_38_2_509
*3407 TAP_TAPCELL_ROW_39_2_510
*3408 TAP_TAPCELL_ROW_3_368
*3409 TAP_TAPCELL_ROW_3_369
*3410 TAP_TAPCELL_ROW_3_370
*3411 TAP_TAPCELL_ROW_3_371
*3412 TAP_TAPCELL_ROW_3_372
*3413 TAP_TAPCELL_ROW_3_373
*3414 TAP_TAPCELL_ROW_3_374
*3415 TAP_TAPCELL_ROW_3_375
*3416 TAP_TAPCELL_ROW_3_376
*3417 TAP_TAPCELL_ROW_3_377
*3418 TAP_TAPCELL_ROW_3_378
*3419 TAP_TAPCELL_ROW_3_379
*3420 TAP_TAPCELL_ROW_3_380
*3421 TAP_TAPCELL_ROW_3_381
*3422 TAP_TAPCELL_ROW_40_2_511
*3423 TAP_TAPCELL_ROW_40_2_512
*3424 TAP_TAPCELL_ROW_41_2_513
*3425 TAP_TAPCELL_ROW_42_2_514
*3426 TAP_TAPCELL_ROW_42_2_515
*3427 TAP_TAPCELL_ROW_43_2_516
*3428 TAP_TAPCELL_ROW_44_2_517
*3429 TAP_TAPCELL_ROW_44_2_518
*3430 TAP_TAPCELL_ROW_45_2_519
*3431 TAP_TAPCELL_ROW_46_2_520
*3432 TAP_TAPCELL_ROW_46_2_521
*3433 TAP_TAPCELL_ROW_47_2_522
*3434 TAP_TAPCELL_ROW_48_2_523
*3435 TAP_TAPCELL_ROW_48_2_524
*3436 TAP_TAPCELL_ROW_49_2_525
*3437 TAP_TAPCELL_ROW_4_382
*3438 TAP_TAPCELL_ROW_4_383
*3439 TAP_TAPCELL_ROW_4_384
*3440 TAP_TAPCELL_ROW_4_385
*3441 TAP_TAPCELL_ROW_4_386
*3442 TAP_TAPCELL_ROW_4_387
*3443 TAP_TAPCELL_ROW_4_388
*3444 TAP_TAPCELL_ROW_4_389
*3445 TAP_TAPCELL_ROW_4_390
*3446 TAP_TAPCELL_ROW_4_391
*3447 TAP_TAPCELL_ROW_4_392
*3448 TAP_TAPCELL_ROW_4_393
*3449 TAP_TAPCELL_ROW_4_394
*3450 TAP_TAPCELL_ROW_4_395
*3451 TAP_TAPCELL_ROW_50_2_526
*3452 TAP_TAPCELL_ROW_50_2_527
*3453 TAP_TAPCELL_ROW_51_2_528
*3454 TAP_TAPCELL_ROW_52_2_529
*3455 TAP_TAPCELL_ROW_52_2_530
*3456 TAP_TAPCELL_ROW_53_2_531
*3457 TAP_TAPCELL_ROW_54_2_532
*3458 TAP_TAPCELL_ROW_54_2_533
*3459 TAP_TAPCELL_ROW_55_2_534
*3460 TAP_TAPCELL_ROW_56_2_535
*3461 TAP_TAPCELL_ROW_56_2_536
*3462 TAP_TAPCELL_ROW_57_2_537
*3463 TAP_TAPCELL_ROW_58_2_538
*3464 TAP_TAPCELL_ROW_58_2_539
*3465 TAP_TAPCELL_ROW_59_2_540
*3466 TAP_TAPCELL_ROW_5_396
*3467 TAP_TAPCELL_ROW_5_397
*3468 TAP_TAPCELL_ROW_5_398
*3469 TAP_TAPCELL_ROW_5_399
*3470 TAP_TAPCELL_ROW_5_400
*3471 TAP_TAPCELL_ROW_5_401
*3472 TAP_TAPCELL_ROW_5_402
*3473 TAP_TAPCELL_ROW_5_403
*3474 TAP_TAPCELL_ROW_5_404
*3475 TAP_TAPCELL_ROW_5_405
*3476 TAP_TAPCELL_ROW_5_406
*3477 TAP_TAPCELL_ROW_5_407
*3478 TAP_TAPCELL_ROW_5_408
*3479 TAP_TAPCELL_ROW_5_409
*3480 TAP_TAPCELL_ROW_60_2_541
*3481 TAP_TAPCELL_ROW_60_2_542
*3482 TAP_TAPCELL_ROW_61_2_543
*3483 TAP_TAPCELL_ROW_62_2_544
*3484 TAP_TAPCELL_ROW_62_2_545
*3485 TAP_TAPCELL_ROW_63_2_546
*3486 TAP_TAPCELL_ROW_64_2_547
*3487 TAP_TAPCELL_ROW_64_2_548
*3488 TAP_TAPCELL_ROW_65_2_549
*3489 TAP_TAPCELL_ROW_66_2_550
*3490 TAP_TAPCELL_ROW_66_2_551
*3491 TAP_TAPCELL_ROW_67_2_552
*3492 TAP_TAPCELL_ROW_68_2_553
*3493 TAP_TAPCELL_ROW_68_2_554
*3494 TAP_TAPCELL_ROW_69_2_555
*3495 TAP_TAPCELL_ROW_6_410
*3496 TAP_TAPCELL_ROW_6_411
*3497 TAP_TAPCELL_ROW_6_412
*3498 TAP_TAPCELL_ROW_6_413
*3499 TAP_TAPCELL_ROW_6_414
*3500 TAP_TAPCELL_ROW_6_415
*3501 TAP_TAPCELL_ROW_6_416
*3502 TAP_TAPCELL_ROW_6_417
*3503 TAP_TAPCELL_ROW_6_418
*3504 TAP_TAPCELL_ROW_6_419
*3505 TAP_TAPCELL_ROW_6_420
*3506 TAP_TAPCELL_ROW_6_421
*3507 TAP_TAPCELL_ROW_6_422
*3508 TAP_TAPCELL_ROW_6_423
*3509 TAP_TAPCELL_ROW_70_2_556
*3510 TAP_TAPCELL_ROW_70_2_557
*3511 TAP_TAPCELL_ROW_71_2_558
*3512 TAP_TAPCELL_ROW_72_2_559
*3513 TAP_TAPCELL_ROW_72_2_560
*3514 TAP_TAPCELL_ROW_73_2_561
*3515 TAP_TAPCELL_ROW_74_2_562
*3516 TAP_TAPCELL_ROW_74_2_563
*3517 TAP_TAPCELL_ROW_75_2_564
*3518 TAP_TAPCELL_ROW_76_2_565
*3519 TAP_TAPCELL_ROW_76_2_566
*3520 TAP_TAPCELL_ROW_77_2_567
*3521 TAP_TAPCELL_ROW_78_2_568
*3522 TAP_TAPCELL_ROW_78_2_569
*3523 TAP_TAPCELL_ROW_79_2_570
*3524 TAP_TAPCELL_ROW_7_424
*3525 TAP_TAPCELL_ROW_7_425
*3526 TAP_TAPCELL_ROW_7_426
*3527 TAP_TAPCELL_ROW_7_427
*3528 TAP_TAPCELL_ROW_7_428
*3529 TAP_TAPCELL_ROW_7_429
*3530 TAP_TAPCELL_ROW_7_430
*3531 TAP_TAPCELL_ROW_7_431
*3532 TAP_TAPCELL_ROW_7_432
*3533 TAP_TAPCELL_ROW_7_433
*3534 TAP_TAPCELL_ROW_7_434
*3535 TAP_TAPCELL_ROW_7_435
*3536 TAP_TAPCELL_ROW_7_436
*3537 TAP_TAPCELL_ROW_7_437
*3538 TAP_TAPCELL_ROW_80_2_571
*3539 TAP_TAPCELL_ROW_80_2_572
*3540 TAP_TAPCELL_ROW_81_2_573
*3541 TAP_TAPCELL_ROW_82_2_574
*3542 TAP_TAPCELL_ROW_82_2_575
*3543 TAP_TAPCELL_ROW_83_2_576
*3544 TAP_TAPCELL_ROW_84_2_577
*3545 TAP_TAPCELL_ROW_84_2_578
*3546 TAP_TAPCELL_ROW_85_2_579
*3547 TAP_TAPCELL_ROW_86_2_580
*3548 TAP_TAPCELL_ROW_86_2_581
*3549 TAP_TAPCELL_ROW_87_2_582
*3550 TAP_TAPCELL_ROW_88_2_583
*3551 TAP_TAPCELL_ROW_88_2_584
*3552 TAP_TAPCELL_ROW_89_2_585
*3553 TAP_TAPCELL_ROW_8_438
*3554 TAP_TAPCELL_ROW_8_439
*3555 TAP_TAPCELL_ROW_8_440
*3556 TAP_TAPCELL_ROW_8_441
*3557 TAP_TAPCELL_ROW_8_442
*3558 TAP_TAPCELL_ROW_8_443
*3559 TAP_TAPCELL_ROW_8_444
*3560 TAP_TAPCELL_ROW_8_445
*3561 TAP_TAPCELL_ROW_8_446
*3562 TAP_TAPCELL_ROW_8_447
*3563 TAP_TAPCELL_ROW_8_448
*3564 TAP_TAPCELL_ROW_8_449
*3565 TAP_TAPCELL_ROW_8_450
*3566 TAP_TAPCELL_ROW_8_451
*3567 TAP_TAPCELL_ROW_8_452
*3568 TAP_TAPCELL_ROW_8_453
*3569 TAP_TAPCELL_ROW_8_454
*3570 TAP_TAPCELL_ROW_8_455
*3571 TAP_TAPCELL_ROW_8_456
*3572 TAP_TAPCELL_ROW_8_457
*3573 TAP_TAPCELL_ROW_8_458
*3574 TAP_TAPCELL_ROW_8_459
*3575 TAP_TAPCELL_ROW_8_460
*3576 TAP_TAPCELL_ROW_8_461
*3577 TAP_TAPCELL_ROW_8_462
*3578 TAP_TAPCELL_ROW_8_463
*3579 TAP_TAPCELL_ROW_8_464
*3580 TAP_TAPCELL_ROW_8_465
*3581 TAP_TAPCELL_ROW_90_2_586
*3582 TAP_TAPCELL_ROW_90_2_587
*3583 TAP_TAPCELL_ROW_91_2_588
*3584 TAP_TAPCELL_ROW_92_2_589
*3585 TAP_TAPCELL_ROW_92_2_590
*3586 TAP_TAPCELL_ROW_93_2_591
*3587 TAP_TAPCELL_ROW_94_2_592
*3588 TAP_TAPCELL_ROW_94_2_593
*3589 TAP_TAPCELL_ROW_95_2_594
*3590 TAP_TAPCELL_ROW_96_2_595
*3591 TAP_TAPCELL_ROW_96_2_596
*3592 TAP_TAPCELL_ROW_97_2_597
*3593 TAP_TAPCELL_ROW_98_2_598
*3594 TAP_TAPCELL_ROW_98_2_599
*3595 TAP_TAPCELL_ROW_99_2_600
*3596 TAP_TAPCELL_ROW_9_2_687
*3597 _10_
*3598 _11_
*3599 _12_
*3600 _13_
*3601 _14_
*3602 _15_
*3603 _16_
*3604 _17_
*3605 _18_
*3606 _19_
*3607 _20_
*3608 _21_
*3609 _22_
*3610 _23_
*3611 _24_
*3612 _25_
*3613 _26_
*3614 _27_
*3615 _28_
*3616 _29_
*3617 _30_
*3618 _31_
*3619 _32_
*3620 _33_
*3621 _34_
*3622 _35_
*3623 _36_
*3624 _37_
*3625 _38_
*3626 _39_
*3627 _40_
*3628 _41_
*3629 _42_
*3630 _43_
*3631 _44_
*3632 _45_
*3633 clkbuf_0_wb_clk_i
*3634 clkbuf_1_0__f_wb_clk_i
*3635 clkbuf_1_1__f_wb_clk_i
*3636 clkload0
*3637 fanout84
*3638 fanout85
*3639 fanout86
*3640 fanout87
*3641 fanout88
*3642 fanout89
*3643 hold1
*3644 hold10
*3645 hold100
*3646 hold101
*3647 hold102
*3648 hold103
*3649 hold104
*3650 hold105
*3651 hold106
*3652 hold107
*3653 hold108
*3654 hold109
*3655 hold11
*3656 hold110
*3657 hold111
*3658 hold112
*3659 hold113
*3660 hold114
*3661 hold115
*3662 hold116
*3663 hold117
*3664 hold118
*3665 hold119
*3666 hold12
*3667 hold120
*3668 hold121
*3669 hold122
*3670 hold123
*3671 hold124
*3672 hold125
*3673 hold126
*3674 hold127
*3675 hold128
*3676 hold129
*3677 hold13
*3678 hold130
*3679 hold131
*3680 hold132
*3681 hold133
*3682 hold134
*3683 hold135
*3684 hold136
*3685 hold137
*3686 hold138
*3687 hold14
*3688 hold15
*3689 hold16
*3690 hold17
*3691 hold18
*3692 hold19
*3693 hold2
*3694 hold20
*3695 hold21
*3696 hold22
*3697 hold23
*3698 hold24
*3699 hold25
*3700 hold26
*3701 hold27
*3702 hold28
*3703 hold29
*3704 hold3
*3705 hold30
*3706 hold31
*3707 hold32
*3708 hold33
*3709 hold34
*3710 hold35
*3711 hold36
*3712 hold37
*3713 hold38
*3714 hold39
*3715 hold4
*3716 hold40
*3717 hold41
*3718 hold42
*3719 hold43
*3720 hold44
*3721 hold45
*3722 hold46
*3723 hold47
*3724 hold48
*3725 hold49
*3726 hold5
*3727 hold50
*3728 hold51
*3729 hold52
*3730 hold53
*3731 hold54
*3732 hold55
*3733 hold56
*3734 hold57
*3735 hold58
*3736 hold59
*3737 hold6
*3738 hold60
*3739 hold61
*3740 hold62
*3741 hold63
*3742 hold64
*3743 hold65
*3744 hold66
*3745 hold67
*3746 hold68
*3747 hold69
*3748 hold7
*3749 hold70
*3750 hold71
*3751 hold72
*3752 hold73
*3753 hold74
*3754 hold75
*3755 hold76
*3756 hold77
*3757 hold78
*3758 hold79
*3759 hold8
*3760 hold80
*3761 hold81
*3762 hold82
*3763 hold83
*3764 hold84
*3765 hold85
*3766 hold86
*3767 hold87
*3768 hold88
*3769 hold89
*3770 hold9
*3771 hold90
*3772 hold91
*3773 hold92
*3774 hold93
*3775 hold94
*3776 hold95
*3777 hold96
*3778 hold97
*3779 hold98
*3780 hold99
*3781 i_sram
*3782 i_sram_90
*3783 i_sram_91
*3784 i_sram_92
*3785 i_sram_93
*3786 i_sram_94
*3787 i_sram_95
*3788 i_sram_96
*3789 i_sram_97
*3790 i_sram_98
*3791 input1
*3792 input10
*3793 input11
*3794 input12
*3795 input13
*3796 input14
*3797 input15
*3798 input16
*3799 input17
*3800 input18
*3801 input19
*3802 input2
*3803 input20
*3804 input21
*3805 input22
*3806 input23
*3807 input24
*3808 input25
*3809 input26
*3810 input27
*3811 input28
*3812 input29
*3813 input3
*3814 input30
*3815 input31
*3816 input32
*3817 input33
*3818 input34
*3819 input35
*3820 input36
*3821 input37
*3822 input38
*3823 input39
*3824 input4
*3825 input40
*3826 input41
*3827 input42
*3828 input43
*3829 input44
*3830 input45
*3831 input46
*3832 input47
*3833 input48
*3834 input49
*3835 input5
*3836 input50
*3837 input6
*3838 input7
*3839 input8
*3840 input9
*3841 output51
*3842 output52
*3843 output53
*3844 output54
*3845 output55
*3846 output56
*3847 output57
*3848 output58
*3849 output59
*3850 output60
*3851 output61
*3852 output62
*3853 output63
*3854 output64
*3855 output65
*3856 output66
*3857 output67
*3858 output68
*3859 output69
*3860 output70
*3861 output71
*3862 output72
*3863 output73
*3864 output74
*3865 output75
*3866 output76
*3867 output77
*3868 output78
*3869 output79
*3870 output80
*3871 output81
*3872 output82
*3873 output83

*PORTS
wb_clk_i I
wb_rst_i I
wbs_ack_o O
wbs_adr_i[0] I
wbs_adr_i[10] I
wbs_adr_i[11] I
wbs_adr_i[12] I
wbs_adr_i[13] I
wbs_adr_i[14] I
wbs_adr_i[15] I
wbs_adr_i[16] I
wbs_adr_i[17] I
wbs_adr_i[18] I
wbs_adr_i[19] I
wbs_adr_i[1] I
wbs_adr_i[20] I
wbs_adr_i[21] I
wbs_adr_i[22] I
wbs_adr_i[23] I
wbs_adr_i[24] I
wbs_adr_i[25] I
wbs_adr_i[26] I
wbs_adr_i[27] I
wbs_adr_i[28] I
wbs_adr_i[29] I
wbs_adr_i[2] I
wbs_adr_i[30] I
wbs_adr_i[31] I
wbs_adr_i[3] I
wbs_adr_i[4] I
wbs_adr_i[5] I
wbs_adr_i[6] I
wbs_adr_i[7] I
wbs_adr_i[8] I
wbs_adr_i[9] I
wbs_cyc_i I
wbs_dat_i[0] I
wbs_dat_i[10] I
wbs_dat_i[11] I
wbs_dat_i[12] I
wbs_dat_i[13] I
wbs_dat_i[14] I
wbs_dat_i[15] I
wbs_dat_i[16] I
wbs_dat_i[17] I
wbs_dat_i[18] I
wbs_dat_i[19] I
wbs_dat_i[1] I
wbs_dat_i[20] I
wbs_dat_i[21] I
wbs_dat_i[22] I
wbs_dat_i[23] I
wbs_dat_i[24] I
wbs_dat_i[25] I
wbs_dat_i[26] I
wbs_dat_i[27] I
wbs_dat_i[28] I
wbs_dat_i[29] I
wbs_dat_i[2] I
wbs_dat_i[30] I
wbs_dat_i[31] I
wbs_dat_i[3] I
wbs_dat_i[4] I
wbs_dat_i[5] I
wbs_dat_i[6] I
wbs_dat_i[7] I
wbs_dat_i[8] I
wbs_dat_i[9] I
wbs_dat_o[0] O
wbs_dat_o[10] O
wbs_dat_o[11] O
wbs_dat_o[12] O
wbs_dat_o[13] O
wbs_dat_o[14] O
wbs_dat_o[15] O
wbs_dat_o[16] O
wbs_dat_o[17] O
wbs_dat_o[18] O
wbs_dat_o[19] O
wbs_dat_o[1] O
wbs_dat_o[20] O
wbs_dat_o[21] O
wbs_dat_o[22] O
wbs_dat_o[23] O
wbs_dat_o[24] O
wbs_dat_o[25] O
wbs_dat_o[26] O
wbs_dat_o[27] O
wbs_dat_o[28] O
wbs_dat_o[29] O
wbs_dat_o[2] O
wbs_dat_o[30] O
wbs_dat_o[31] O
wbs_dat_o[3] O
wbs_dat_o[4] O
wbs_dat_o[5] O
wbs_dat_o[6] O
wbs_dat_o[7] O
wbs_dat_o[8] O
wbs_dat_o[9] O
wbs_sel_i[0] I
wbs_sel_i[1] I
wbs_sel_i[2] I
wbs_sel_i[3] I
wbs_stb_i I
wbs_we_i I

*D_NET *3 0.0518734
*CONN
*P wb_clk_i I
*I *491:DIODE I *D sky130_fd_sc_hd__diode_2
*I *3633:A I *D sky130_fd_sc_hd__clkbuf_16
*CAP
1 wb_clk_i 0.000225781
2 *491:DIODE 5.62722e-05
3 *3633:A 0
4 *3:17 0.00407279
5 *3:15 0.00401652
6 *3:13 0.0100319
7 *3:11 0.0102576
8 *491:DIODE *190:14 0.000185095
9 *491:DIODE *234:10 0.00019654
10 *3:13 *28:13 0.00190147
11 *3:13 *335:30 0
12 *3:17 wbs_dat_o[27] 0.000603181
13 *3:17 *3668:A 0
14 *3:17 *110:12 0.00024203
15 *3:17 *134:48 0
16 *3:17 *170:88 0.000214244
17 *3:17 *190:14 0.000114083
18 *3:17 *219:50 1.06354e-05
19 *3:17 *234:10 0.00159106
20 *3:17 *279:8 0.000179786
21 *3:17 *284:10 0
22 *3:17 *292:22 0.000648383
23 *3:17 *325:68 7.21753e-05
24 *3:17 *325:70 0.00836231
25 *3:17 *326:24 0.00135334
26 *3:17 *327:77 0.000164282
27 *3:17 *327:83 5.94125e-05
28 *3:17 *328:50 0.00672611
29 *3:17 *352:14 0.000588389
*RES
1 wb_clk_i *3:11 20.5929 
2 *3:11 *3:13 220.731 
3 *3:13 *3:15 15 
4 *3:15 *3:17 146.989 
5 *3:17 *3633:A 38 
6 *3:17 *491:DIODE 40.61 
*END

*D_NET *4 0.000424245
*CONN
*P wb_rst_i I
*I *3791:A I *D sky130_fd_sc_hd__buf_1
*I *539:DIODE I *D sky130_fd_sc_hd__diode_2
*CAP
1 wb_rst_i 0.000132777
2 *3791:A 6.76239e-05
3 *539:DIODE 0
4 *4:7 0.000200401
5 *3791:A *147:16 2.34437e-05
6 *4:7 wbs_ack_o 0
*RES
1 wb_rst_i *4:7 17.3614 
2 *4:7 *539:DIODE 23 
3 *4:7 *3791:A 24.4707 
*END

*D_NET *5 0.001001
*CONN
*P wbs_ack_o O
*I *3841:X O *D sky130_fd_sc_hd__buf_12
*CAP
1 wbs_ack_o 0.000370376
2 *3841:X 0.000370376
3 wbs_ack_o *38:9 0
4 wbs_ack_o *147:16 0.00026025
5 *4:7 wbs_ack_o 0
*RES
1 *3841:X wbs_ack_o 44.4214 
*END

*D_NET *7 0.00382113
*CONN
*P wbs_adr_i[10] I
*I *522:DIODE I *D sky130_fd_sc_hd__diode_2
*I *3678:A I *D sky130_fd_sc_hd__dlygate4sd3_1
*CAP
1 wbs_adr_i[10] 0.000285237
2 *522:DIODE 6.88649e-05
3 *3678:A 0
4 *7:21 0.000655408
5 *7:13 0.00087178
6 *522:DIODE *117:59 4.67488e-05
7 *7:13 wbs_dat_o[10] 0
8 *7:13 *8:5 0.000108681
9 *7:13 *325:26 0.000608057
10 *7:13 *334:46 0.000609758
11 *7:21 *102:6 0.000268074
12 *7:21 *117:59 8.70841e-05
13 *7:21 *290:10 0.000142419
14 *7:21 *323:16 6.90217e-05
*RES
1 wbs_adr_i[10] *7:13 39.3214 
2 *7:13 *7:21 24.715 
3 *7:21 *3678:A 23 
4 *7:21 *522:DIODE 24.0979 
*END

*D_NET *8 0.00265207
*CONN
*P wbs_adr_i[11] I
*I *521:DIODE I *D sky130_fd_sc_hd__diode_2
*I *3676:A I *D sky130_fd_sc_hd__dlygate4sd3_1
*CAP
1 wbs_adr_i[11] 0.000534128
2 *521:DIODE 0.000221529
3 *3676:A 3.72901e-05
4 *8:5 0.000792947
5 *521:DIODE *40:13 0
6 *521:DIODE *111:14 0.000139357
7 *521:DIODE *148:10 4.9346e-05
8 *521:DIODE *152:8 0
9 *521:DIODE *260:8 8.35096e-05
10 *521:DIODE *365:22 0
11 *3676:A *159:10 0.000103647
12 *3676:A *339:16 0.000185434
13 *8:5 wbs_dat_o[10] 0
14 *8:5 *41:13 0
15 *8:5 *290:10 0.000396203
16 *7:13 *8:5 0.000108681
*RES
1 wbs_adr_i[11] *8:5 8.7 
2 *8:5 *3676:A 40.0507 
3 *8:5 *521:DIODE 42.5364 
*END

*D_NET *28 0.00615275
*CONN
*P wbs_adr_i[2] I
*I *3686:A I *D sky130_fd_sc_hd__dlygate4sd3_1
*I *530:DIODE I *D sky130_fd_sc_hd__diode_2
*CAP
1 wbs_adr_i[2] 0.000841917
2 *3686:A 0.000210572
3 *530:DIODE 0.00051405
4 *28:17 0.000946024
5 *28:13 0.00106332
6 *530:DIODE *147:16 0.000323279
7 *3686:A *39:9 0
8 *3686:A *107:7 0
9 *3686:A *108:13 0.000132674
10 *3686:A *330:28 1.62015e-05
11 *28:13 *61:11 0
12 *28:13 *330:22 0
13 *28:17 *39:9 0
14 *28:17 *108:13 0.00017784
15 *28:17 *330:28 2.54046e-05
16 *3:13 *28:13 0.00190147
*RES
1 wbs_adr_i[2] *28:13 40.8721 
2 *28:13 *28:17 20.4271 
3 *28:17 *530:DIODE 44.815 
4 *28:17 *3686:A 41.6664 
*END

*D_NET *31 0.00465215
*CONN
*P wbs_adr_i[3] I
*I *529:DIODE I *D sky130_fd_sc_hd__diode_2
*I *3685:A I *D sky130_fd_sc_hd__dlygate4sd3_1
*CAP
1 wbs_adr_i[3] 0.000475305
2 *529:DIODE 8.88788e-05
3 *3685:A 0
4 *31:17 0.000447794
5 *31:9 0.00101198
6 *529:DIODE *324:10 0.000219836
7 *529:DIODE *331:26 3.84918e-05
8 *529:DIODE *355:20 9.41704e-05
9 *31:9 wbs_dat_o[2] 0
10 *31:9 *3832:A 0
11 *31:9 *64:9 0
12 *31:9 *105:13 0
13 *31:9 *115:69 0
14 *31:9 *117:87 0
15 *31:9 *250:8 0
16 *31:9 *324:10 0.000141165
17 *31:9 *331:26 5.47927e-05
18 *31:17 *436:DIODE 0.00010018
19 *31:17 *511:DIODE 0.000199258
20 *31:17 *3775:A 0.000313872
21 *31:17 *64:9 3.66426e-05
22 *31:17 *109:14 8.48502e-06
23 *31:17 *115:73 0.000476721
24 *31:17 *115:97 1.41129e-05
25 *31:17 *327:20 9.11362e-05
26 *31:17 *329:22 0.000733281
27 *31:17 *336:28 7.57281e-06
28 *31:17 *339:12 9.84794e-05
*RES
1 wbs_adr_i[3] *31:9 23.1614 
2 *31:9 *31:17 44.3136 
3 *31:17 *3685:A 23 
4 *31:9 *529:DIODE 25.5271 
*END

*D_NET *32 0.00213463
*CONN
*P wbs_adr_i[4] I
*I *528:DIODE I *D sky130_fd_sc_hd__diode_2
*I *3684:A I *D sky130_fd_sc_hd__dlygate4sd3_1
*CAP
1 wbs_adr_i[4] 0.000143691
2 *528:DIODE 0
3 *3684:A 6.63812e-05
4 *32:24 0.000219354
5 *32:7 0.000429426
6 *3684:A *250:14 4.37033e-05
7 *3684:A *323:14 6.7063e-05
8 *3684:A *325:16 0.000240318
9 *32:7 *65:5 0
10 *32:7 *106:9 0
11 *32:7 *330:16 0.000161121
12 *32:7 *335:28 0
13 *32:24 *65:5 0.000118889
14 *32:24 *323:14 0.000105492
15 *32:24 *325:16 0.000295601
16 *32:24 *334:44 0.000243587
*RES
1 wbs_adr_i[4] *32:7 17.7136 
2 *32:7 *3684:A 26.0243 
3 *32:7 *32:24 36.7943 
4 *32:24 *528:DIODE 23 
*END

*D_NET *33 0.00632187
*CONN
*P wbs_adr_i[5] I
*I *526:DIODE I *D sky130_fd_sc_hd__diode_2
*I *3682:A I *D sky130_fd_sc_hd__dlygate4sd3_1
*CAP
1 wbs_adr_i[5] 0.000119095
2 *526:DIODE 0.000234267
3 *3682:A 0
4 *33:19 7.2179e-05
5 *33:13 0.00169487
6 *33:9 0.00197605
7 *526:DIODE *66:5 0
8 *526:DIODE *323:14 6.70361e-05
9 *526:DIODE *325:16 1.24376e-05
10 *526:DIODE *325:24 6.08617e-05
11 *33:9 wbs_dat_o[4] 0
12 *33:9 *66:5 0
13 *33:13 *106:9 0.00134937
14 *33:13 *330:22 0.0001396
15 *33:13 *334:44 0.000352421
16 *33:13 *335:30 6.16164e-05
17 *33:19 *61:11 0.000138727
18 *33:19 *106:28 4.334e-05
*RES
1 wbs_adr_i[5] *33:9 2.07143 
2 *33:9 *33:13 39.9193 
3 *33:13 *33:19 31.9057 
4 *33:19 *3682:A 23 
5 *33:9 *526:DIODE 41.48 
*END

*D_NET *34 0.0026563
*CONN
*P wbs_adr_i[6] I
*I *3683:A I *D sky130_fd_sc_hd__dlygate4sd3_1
*I *527:DIODE I *D sky130_fd_sc_hd__diode_2
*CAP
1 wbs_adr_i[6] 0.00059026
2 *3683:A 0.000266347
3 *527:DIODE 0
4 *34:5 0.000856607
5 *3683:A *111:14 0.000308039
6 *3683:A *183:8 0
7 *3683:A *187:14 1.34395e-05
8 *3683:A *296:8 0.000137242
9 *3683:A *360:18 0
10 *3683:A *364:18 6.01895e-05
11 *3683:A *364:26 0.000308039
12 *34:5 wbs_dat_o[5] 0
13 *34:5 wbs_dat_o[6] 0
14 *34:5 *67:17 0
15 *34:5 *115:63 3.83778e-05
16 *34:5 *264:10 1.59312e-05
17 *34:5 *324:18 6.18306e-05
18 *34:5 *360:18 0
*RES
1 wbs_adr_i[6] *34:5 7.99571 
2 *34:5 *527:DIODE 38 
3 *34:5 *3683:A 45.1464 
*END

*D_NET *35 0.00325185
*CONN
*P wbs_adr_i[7] I
*I *525:DIODE I *D sky130_fd_sc_hd__diode_2
*I *3681:A I *D sky130_fd_sc_hd__dlygate4sd3_1
*CAP
1 wbs_adr_i[7] 0.000328123
2 *525:DIODE 0.000271257
3 *3681:A 0.000103437
4 *35:9 0.000702817
5 *525:DIODE *497:DIODE 0.000185428
6 *525:DIODE *3747:A 5.50106e-05
7 *525:DIODE *294:8 0
8 *525:DIODE *339:12 0.000119303
9 *525:DIODE *364:26 0.000256023
10 *3681:A wbs_dat_o[6] 0.000270682
11 *3681:A *117:79 0.000443673
12 *3681:A *362:24 9.74625e-05
13 *35:9 wbs_dat_o[6] 0
14 *35:9 *68:9 0
15 *35:9 *325:24 8.4047e-05
16 *35:9 *364:26 0.000334584
*RES
1 wbs_adr_i[7] *35:9 6.29714 
2 *35:9 *3681:A 43.4064 
3 *35:9 *525:DIODE 44.67 
*END

*D_NET *36 0.00176162
*CONN
*P wbs_adr_i[8] I
*I *3680:A I *D sky130_fd_sc_hd__dlygate4sd3_1
*I *524:DIODE I *D sky130_fd_sc_hd__diode_2
*CAP
1 wbs_adr_i[8] 0.000556487
2 *3680:A 4.20902e-05
3 *524:DIODE 9.19425e-05
4 *36:9 0.00069052
5 *524:DIODE *323:16 3.0538e-05
6 *36:9 wbs_dat_o[7] 0.000142577
7 *36:9 *293:14 0.000115715
8 *36:9 *323:16 9.17484e-05
*RES
1 wbs_adr_i[8] *36:9 23.2236 
2 *36:9 *524:DIODE 24.0979 
3 *36:9 *3680:A 23.8493 
*END

*D_NET *37 0.00411336
*CONN
*P wbs_adr_i[9] I
*I *523:DIODE I *D sky130_fd_sc_hd__diode_2
*I *3679:A I *D sky130_fd_sc_hd__dlygate4sd3_1
*CAP
1 wbs_adr_i[9] 0.000192946
2 *523:DIODE 0.000633676
3 *3679:A 0.000146845
4 *37:5 0.000973466
5 *523:DIODE *69:9 0
6 *523:DIODE *69:17 2.54007e-05
7 *523:DIODE *324:24 0
8 *523:DIODE *339:12 0.000162885
9 *523:DIODE *339:16 0.000139035
10 *3679:A wbs_dat_o[8] 0.000316483
11 *3679:A *70:9 6.50258e-05
12 *3679:A *102:6 0.000402329
13 *3679:A *323:16 0.000840907
14 *3679:A *326:14 0.000170252
15 *37:5 wbs_dat_o[9] 0
16 *37:5 *70:9 0
17 *37:5 *364:34 4.41053e-05
*RES
1 wbs_adr_i[9] *37:5 3.06571 
2 *37:5 *3679:A 47.1971 
3 *37:5 *523:DIODE 47.0314 
*END

*D_NET *38 0.0016104
*CONN
*P wbs_cyc_i I
*I *538:DIODE I *D sky130_fd_sc_hd__diode_2
*I *3794:A I *D sky130_fd_sc_hd__buf_2
*CAP
1 wbs_cyc_i 0.000485228
2 *538:DIODE 0.000141294
3 *3794:A 8.15888e-05
4 *38:9 0.00070811
5 *538:DIODE *107:7 2.28702e-05
6 *3794:A *3688:A 1.4638e-05
7 *3794:A *170:20 1.59094e-05
8 *38:9 *107:7 0.000140757
9 wbs_ack_o *38:9 0
*RES
1 wbs_cyc_i *38:9 7.83 
2 *38:9 *3794:A 39.1186 
3 *38:9 *538:DIODE 39.5536 
*END

*D_NET *39 0.00265423
*CONN
*P wbs_dat_i[0] I
*I *517:DIODE I *D sky130_fd_sc_hd__diode_2
*I *3672:A I *D sky130_fd_sc_hd__dlygate4sd3_1
*CAP
1 wbs_dat_i[0] 0.00063295
2 *517:DIODE 0
3 *3672:A 0
4 *39:22 0.000255263
5 *39:9 0.000888212
6 *39:9 wbs_dat_o[0] 0
7 *39:9 *541:DIODE 0.000205094
8 *39:9 *108:13 0.000131538
9 *39:9 *327:16 0.000104463
10 *39:9 *327:20 7.58643e-05
11 *39:22 wbs_dat_o[0] 5.50106e-05
12 *39:22 *3795:A 0.000249909
13 *39:22 *103:11 4.06512e-05
14 *39:22 *327:20 1.52719e-05
15 *3686:A *39:9 0
16 *28:17 *39:9 0
*RES
1 wbs_dat_i[0] *39:9 25.7507 
2 *39:9 *3672:A 23 
3 *39:9 *39:22 36.1729 
4 *39:22 *517:DIODE 23 
*END

*D_NET *40 0.0034676
*CONN
*P wbs_dat_i[10] I
*I *494:DIODE I *D sky130_fd_sc_hd__diode_2
*I *3647:A I *D sky130_fd_sc_hd__dlygate4sd3_1
*CAP
1 wbs_dat_i[10] 0.00104936
2 *494:DIODE 0.000327033
3 *3647:A 1.80182e-05
4 *40:13 0.00139441
5 *494:DIODE *152:8 1.17256e-05
6 *3647:A *3796:A 5.50106e-05
7 *3647:A *111:14 2.93845e-05
8 *40:13 wbs_dat_o[10] 0.000415769
9 *40:13 *152:8 7.01835e-05
10 *40:13 *365:22 9.66965e-05
11 *521:DIODE *40:13 0
*RES
1 wbs_dat_i[10] *40:13 15.7636 
2 *40:13 *3647:A 38.6214 
3 *40:13 *494:DIODE 41.6664 
*END

*D_NET *41 0.00366108
*CONN
*P wbs_dat_i[11] I
*I *493:DIODE I *D sky130_fd_sc_hd__diode_2
*I *3646:A I *D sky130_fd_sc_hd__dlygate4sd3_1
*CAP
1 wbs_dat_i[11] 0.000737885
2 *493:DIODE 7.59209e-06
3 *3646:A 0
4 *41:13 0.000745477
5 *493:DIODE *321:16 4.34745e-05
6 *493:DIODE *336:34 3.22879e-05
7 *41:13 wbs_dat_o[11] 0.000309209
8 *41:13 *321:16 0.00122021
9 *41:13 *323:24 0.000321926
10 *41:13 *333:34 0.00011925
11 *41:13 *336:34 0.00012377
12 *8:5 *41:13 0
*RES
1 wbs_dat_i[11] *41:13 35.6107 
2 *41:13 *3646:A 23 
3 *41:13 *493:DIODE 23.6214 
*END

*D_NET *42 0.0030081
*CONN
*P wbs_dat_i[12] I
*I *3645:A I *D sky130_fd_sc_hd__dlygate4sd3_1
*I *492:DIODE I *D sky130_fd_sc_hd__diode_2
*CAP
1 wbs_dat_i[12] 0.000303928
2 *3645:A 0.000266369
3 *492:DIODE 0
4 *42:9 0.000570297
5 *3645:A wbs_dat_o[12] 0.000451518
6 *3645:A *75:8 0.000366666
7 *3645:A *117:59 0.000288754
8 *3645:A *256:8 0.000620855
9 *3645:A *325:34 8.99287e-05
10 *42:9 wbs_dat_o[12] 0
11 *42:9 *117:59 4.97789e-05
*RES
1 wbs_dat_i[12] *42:9 19.4121 
2 *42:9 *492:DIODE 23 
3 *42:9 *3645:A 36.7129 
*END

*D_NET *43 0.00156427
*CONN
*P wbs_dat_i[13] I
*I *3780:A I *D sky130_fd_sc_hd__dlygate4sd3_1
*I *537:DIODE I *D sky130_fd_sc_hd__diode_2
*CAP
1 wbs_dat_i[13] 0.000478484
2 *3780:A 0
3 *537:DIODE 0
4 *43:17 0.000192579
5 *43:11 0.000671063
6 *43:11 wbs_dat_o[13] 0
7 *43:11 *321:16 0.000222141
8 *43:11 *334:54 0
9 *43:17 *3701:A 0
*RES
1 wbs_dat_i[13] *43:11 22.6021 
2 *43:11 *43:17 32.2579 
3 *43:17 *537:DIODE 23 
4 *43:11 *3780:A 23 
*END

*D_NET *44 0.00140767
*CONN
*P wbs_dat_i[14] I
*I *3779:A I *D sky130_fd_sc_hd__dlygate4sd3_1
*I *536:DIODE I *D sky130_fd_sc_hd__diode_2
*CAP
1 wbs_dat_i[14] 0.000485712
2 *3779:A 6.66473e-05
3 *536:DIODE 0
4 *44:7 0.00055236
5 *3779:A *339:18 5.73288e-05
6 *44:7 wbs_dat_o[13] 0
7 *44:7 *165:10 0
8 *44:7 *236:8 3.29127e-05
9 *44:7 *335:36 0.000212711
*RES
1 wbs_dat_i[14] *44:7 22.9957 
2 *44:7 *536:DIODE 23 
3 *44:7 *3779:A 24.4707 
*END

*D_NET *45 0.00218991
*CONN
*P wbs_dat_i[15] I
*I *3778:A I *D sky130_fd_sc_hd__dlygate4sd3_1
*I *535:DIODE I *D sky130_fd_sc_hd__diode_2
*CAP
1 wbs_dat_i[15] 0.000440458
2 *3778:A 0
3 *535:DIODE 0
4 *45:30 0.000303356
5 *45:17 0.000743814
6 *45:17 wbs_dat_o[14] 0
7 *45:17 wbs_dat_o[15] 0.000174679
8 *45:17 *3690:A 4.21378e-05
9 *45:17 *340:22 0.000187754
10 *45:30 wbs_dat_o[15] 0
11 *45:30 *46:7 0.000106315
12 *45:30 *337:50 4.6907e-05
13 *45:30 *340:22 0.000144494
*RES
1 wbs_dat_i[15] *45:17 23.9071 
2 *45:17 *535:DIODE 23 
3 *45:17 *45:30 35.2407 
4 *45:30 *3778:A 23 
*END

*D_NET *46 0.00211348
*CONN
*P wbs_dat_i[16] I
*I *505:DIODE I *D sky130_fd_sc_hd__diode_2
*I *3659:A I *D sky130_fd_sc_hd__dlygate4sd3_1
*CAP
1 wbs_dat_i[16] 0.000589325
2 *505:DIODE 5.30118e-05
3 *3659:A 0
4 *46:7 0.000642337
5 *505:DIODE *236:22 0.000361247
6 *505:DIODE *339:18 0.000361247
7 *46:7 wbs_dat_o[15] 0
8 *46:7 wbs_dat_o[16] 0
9 *46:7 *200:10 0
10 *46:7 *337:50 0
11 *45:30 *46:7 0.000106315
*RES
1 wbs_dat_i[16] *46:7 23.7 
2 *46:7 *3659:A 23 
3 *46:7 *505:DIODE 26.9564 
*END

*D_NET *47 0.00254868
*CONN
*P wbs_dat_i[17] I
*I *3656:A I *D sky130_fd_sc_hd__dlygate4sd3_1
*I *502:DIODE I *D sky130_fd_sc_hd__diode_2
*CAP
1 wbs_dat_i[17] 0.000690558
2 *3656:A 0.000183045
3 *502:DIODE 0
4 *47:9 0.000873604
5 *3656:A *225:16 0.000399415
6 *47:9 wbs_dat_o[16] 0
7 *47:9 wbs_dat_o[17] 0
8 *47:9 *79:14 0
9 *47:9 *225:6 0.000389772
10 *47:9 *225:16 1.22822e-05
11 *47:9 *272:8 0
*RES
1 wbs_dat_i[17] *47:9 25.0879 
2 *47:9 *502:DIODE 23 
3 *47:9 *3656:A 27.8057 
*END

*D_NET *48 0.00238317
*CONN
*P wbs_dat_i[18] I
*I *499:DIODE I *D sky130_fd_sc_hd__diode_2
*I *3652:A I *D sky130_fd_sc_hd__dlygate4sd3_1
*CAP
1 wbs_dat_i[18] 0.000775088
2 *499:DIODE 6.9148e-05
3 *3652:A 4.23027e-05
4 *48:9 0.000886539
5 *499:DIODE wbs_dat_o[19] 5.50106e-05
6 *499:DIODE *342:20 1.57571e-05
7 *48:9 *79:14 0.000317087
8 *48:9 *265:10 0.000131304
9 *48:9 *342:20 9.0936e-05
*RES
1 wbs_dat_i[18] *48:9 26.5586 
2 *48:9 *3652:A 23.8493 
3 *48:9 *499:DIODE 24.0979 
*END

*D_NET *49 0.00239471
*CONN
*P wbs_dat_i[19] I
*I *503:DIODE I *D sky130_fd_sc_hd__diode_2
*I *3657:A I *D sky130_fd_sc_hd__dlygate4sd3_1
*CAP
1 wbs_dat_i[19] 0.0005816
2 *503:DIODE 0.000313617
3 *3657:A 3.72901e-05
4 *49:13 0.000932507
5 *503:DIODE *225:20 0
6 *503:DIODE *270:14 0.000143163
7 *3657:A *225:16 0.000185434
8 *3657:A *259:10 0.000103647
9 *49:13 wbs_dat_o[18] 0
10 *49:13 wbs_dat_o[19] 9.74537e-05
*RES
1 wbs_dat_i[19] *49:13 9.30071 
2 *49:13 *3657:A 40.0507 
3 *49:13 *503:DIODE 41.8321 
*END

*D_NET *50 0.00280688
*CONN
*P wbs_dat_i[1] I
*I *3669:A I *D sky130_fd_sc_hd__dlygate4sd3_1
*I *514:DIODE I *D sky130_fd_sc_hd__diode_2
*CAP
1 wbs_dat_i[1] 0.000488597
2 *3669:A 0
3 *514:DIODE 0.000152136
4 *50:30 0.000124985
5 *50:13 0.000765717
6 *514:DIODE *3774:A 0.000137914
7 *514:DIODE *108:13 4.81123e-05
8 *514:DIODE *147:16 4.92795e-05
9 *50:13 wbs_dat_o[1] 0
10 *50:13 *3774:A 5.25956e-05
11 *50:13 *103:11 0
12 *50:13 *105:13 0.000484539
13 *50:13 *147:30 2.96369e-05
14 *50:13 *249:10 0.000140259
15 *50:13 *252:8 0.000141954
16 *50:30 wbs_dat_o[0] 0.000191157
*RES
1 wbs_dat_i[1] *50:13 26.4757 
2 *50:13 *514:DIODE 27.1221 
3 *50:13 *50:30 32.61 
4 *50:30 *3669:A 23 
*END

*D_NET *51 0.00188345
*CONN
*P wbs_dat_i[20] I
*I *501:DIODE I *D sky130_fd_sc_hd__diode_2
*I *3654:A I *D sky130_fd_sc_hd__dlygate4sd3_1
*CAP
1 wbs_dat_i[20] 0.000297983
2 *501:DIODE 9.48879e-05
3 *3654:A 0
4 *51:9 0.000392871
5 *501:DIODE *117:59 0.000196642
6 *501:DIODE *267:8 5.67058e-05
7 *501:DIODE *325:52 0.000156821
8 *51:9 wbs_dat_o[19] 0.000231039
9 *51:9 wbs_dat_o[20] 0
10 *51:9 *117:59 0.000272024
11 *51:9 *325:48 3.76854e-05
12 *51:9 *325:52 0.00014679
*RES
1 wbs_dat_i[20] *51:9 23.4514 
2 *51:9 *3654:A 23 
3 *51:9 *501:DIODE 26.9564 
*END

*D_NET *52 0.0032559
*CONN
*P wbs_dat_i[21] I
*I *506:DIODE I *D sky130_fd_sc_hd__diode_2
*I *3660:A I *D sky130_fd_sc_hd__dlygate4sd3_1
*CAP
1 wbs_dat_i[21] 0.000443781
2 *506:DIODE 0
3 *3660:A 0
4 *52:24 0.000327879
5 *52:9 0.00077166
6 *52:9 wbs_dat_o[20] 0
7 *52:9 *84:14 0.000424999
8 *52:9 *115:47 0.000228903
9 *52:9 *292:6 0.000482844
10 *52:24 *410:DIODE 7.7501e-06
11 *52:24 *53:9 0.000286104
12 *52:24 *115:47 0.000140259
13 *52:24 *292:6 0.000129522
14 *52:24 *339:18 1.21972e-05
*RES
1 wbs_dat_i[21] *52:9 26.2686 
2 *52:9 *3660:A 23 
3 *52:9 *52:24 35.8829 
4 *52:24 *506:DIODE 23 
*END

*D_NET *53 0.00230843
*CONN
*P wbs_dat_i[22] I
*I *3658:A I *D sky130_fd_sc_hd__dlygate4sd3_1
*I *504:DIODE I *D sky130_fd_sc_hd__diode_2
*CAP
1 wbs_dat_i[22] 0.000526908
2 *3658:A 8.96755e-05
3 *504:DIODE 0
4 *53:9 0.000616583
5 *3658:A *259:36 0.000180829
6 *3658:A *281:26 5.99365e-05
7 *53:9 wbs_dat_o[21] 0
8 *53:9 wbs_dat_o[22] 0
9 *53:9 *410:DIODE 0
10 *53:9 *3728:A 0.0003995
11 *53:9 *259:36 5.3304e-05
12 *53:9 *281:26 4.59139e-05
13 *53:9 *339:18 4.96717e-05
14 *52:24 *53:9 0.000286104
*RES
1 wbs_dat_i[22] *53:9 25.875 
2 *53:9 *504:DIODE 23 
3 *53:9 *3658:A 25.5479 
*END

*D_NET *54 0.00253142
*CONN
*P wbs_dat_i[23] I
*I *508:DIODE I *D sky130_fd_sc_hd__diode_2
*I *3662:A I *D sky130_fd_sc_hd__dlygate4sd3_1
*CAP
1 wbs_dat_i[23] 0.000477006
2 *508:DIODE 7.96867e-05
3 *3662:A 0
4 *54:9 0.000556693
5 *508:DIODE *115:47 0.000253936
6 *508:DIODE *281:34 0.000312348
7 *54:9 wbs_dat_o[22] 0
8 *54:9 wbs_dat_o[23] 0
9 *54:9 *434:DIODE 0
10 *54:9 *115:47 0.000487153
11 *54:9 *207:8 0
12 *54:9 *270:24 6.17437e-06
13 *54:9 *281:34 0.000358425
*RES
1 wbs_dat_i[23] *54:9 26.2686 
2 *54:9 *3662:A 23 
3 *54:9 *508:DIODE 26.48 
*END

*D_NET *55 0.00176468
*CONN
*P wbs_dat_i[24] I
*I *509:DIODE I *D sky130_fd_sc_hd__diode_2
*I *3663:A I *D sky130_fd_sc_hd__dlygate4sd3_1
*CAP
1 wbs_dat_i[24] 0.000205591
2 *509:DIODE 0.000384859
3 *3663:A 0
4 *55:9 0.00059045
5 *509:DIODE wbs_dat_o[24] 0
6 *509:DIODE *434:DIODE 0
7 *509:DIODE *115:39 0.000166513
8 *509:DIODE *159:26 0.000179579
9 *509:DIODE *275:8 0.000126166
10 *509:DIODE *276:10 2.75733e-06
11 *509:DIODE *347:24 0
12 *509:DIODE *348:16 6.32291e-05
13 *55:9 wbs_dat_o[23] 0
14 *55:9 wbs_dat_o[24] 0
15 *55:9 *276:10 4.55317e-05
*RES
1 wbs_dat_i[24] *55:9 3.83214 
2 *55:9 *3663:A 38 
3 *55:9 *509:DIODE 45.8921 
*END

*D_NET *56 0.00378057
*CONN
*P wbs_dat_i[25] I
*I *3667:A I *D sky130_fd_sc_hd__dlygate4sd3_1
*I *512:DIODE I *D sky130_fd_sc_hd__diode_2
*CAP
1 wbs_dat_i[25] 0.0010807
2 *3667:A 0.000197603
3 *512:DIODE 0
4 *56:9 0.0012783
5 *3667:A *513:DIODE 0.000355078
6 *3667:A *115:39 0.000237122
7 *56:9 wbs_dat_o[25] 0
8 *56:9 *115:39 0.000225871
9 *56:9 *325:60 0.000108681
10 *56:9 *347:24 0.000297222
*RES
1 wbs_dat_i[25] *56:9 30.8464 
2 *56:9 *512:DIODE 23 
3 *56:9 *3667:A 28.9036 
*END

*D_NET *57 0.00182526
*CONN
*P wbs_dat_i[26] I
*I *3671:A I *D sky130_fd_sc_hd__dlygate4sd3_1
*I *516:DIODE I *D sky130_fd_sc_hd__diode_2
*CAP
1 wbs_dat_i[26] 0.000779436
2 *3671:A 0
3 *516:DIODE 1.91513e-05
4 *57:9 0.000798588
5 *516:DIODE *317:44 5.67058e-05
6 *57:9 wbs_dat_o[25] 0
7 *57:9 wbs_dat_o[26] 0
8 *57:9 *459:DIODE 0
9 *57:9 *87:10 0.000113231
10 *57:9 *117:43 1.6374e-05
11 *57:9 *132:49 0
12 *57:9 *132:51 0
13 *57:9 *317:44 4.17736e-05
*RES
1 wbs_dat_i[26] *57:9 27.1386 
2 *57:9 *516:DIODE 23.6214 
3 *57:9 *3671:A 23 
*END

*D_NET *58 0.00283887
*CONN
*P wbs_dat_i[27] I
*I *3668:A I *D sky130_fd_sc_hd__dlygate4sd3_1
*I *513:DIODE I *D sky130_fd_sc_hd__diode_2
*CAP
1 wbs_dat_i[27] 0.000109047
2 *3668:A 0.000224881
3 *513:DIODE 0.000496927
4 *58:5 0.000830855
5 *513:DIODE *59:9 5.50106e-05
6 *513:DIODE *115:39 0.000116318
7 *3668:A *227:18 9.61498e-05
8 *3668:A *279:8 9.45236e-05
9 *3668:A *305:6 9.61498e-05
10 *3668:A *325:68 0.000251623
11 *58:5 *325:68 0.000112303
12 *3667:A *513:DIODE 0.000355078
13 *3:17 *3668:A 0
*RES
1 wbs_dat_i[27] *58:5 2.36143 
2 *58:5 *513:DIODE 45.7679 
3 *58:5 *3668:A 43.7171 
*END

*D_NET *59 0.00116656
*CONN
*P wbs_dat_i[28] I
*I *515:DIODE I *D sky130_fd_sc_hd__diode_2
*I *3670:A I *D sky130_fd_sc_hd__dlygate4sd3_1
*CAP
1 wbs_dat_i[28] 0.00037269
2 *515:DIODE 2.27655e-05
3 *3670:A 2.30556e-05
4 *59:9 0.000418511
5 *515:DIODE wbs_dat_o[28] 3.22051e-05
6 *59:9 wbs_dat_o[27] 0
7 *59:9 wbs_dat_o[28] 0.000128296
8 *59:9 *115:39 0.000103647
9 *59:9 *117:43 1.03836e-05
10 *513:DIODE *59:9 5.50106e-05
*RES
1 wbs_dat_i[28] *59:9 22.6229 
2 *59:9 *3670:A 23.4971 
3 *59:9 *515:DIODE 23.6214 
*END

*D_NET *60 0.00211146
*CONN
*P wbs_dat_i[29] I
*I *518:DIODE I *D sky130_fd_sc_hd__diode_2
*I *3673:A I *D sky130_fd_sc_hd__dlygate4sd3_1
*CAP
1 wbs_dat_i[29] 0.000700246
2 *518:DIODE 3.96412e-05
3 *3673:A 2.34823e-05
4 *60:11 0.000763369
5 *518:DIODE wbs_dat_o[30] 2.4754e-05
6 *518:DIODE *356:14 5.67058e-05
7 *60:11 wbs_dat_o[28] 0.000120645
8 *60:11 wbs_dat_o[30] 5.41385e-05
9 *60:11 *286:10 0.00031495
10 *60:11 *353:14 1.3523e-05
*RES
1 wbs_dat_i[29] *60:11 28.485 
2 *60:11 *3673:A 23.4971 
3 *60:11 *518:DIODE 24.0979 
*END

*D_NET *61 0.00423113
*CONN
*P wbs_dat_i[2] I
*I *3664:A I *D sky130_fd_sc_hd__dlygate4sd3_1
*I *510:DIODE I *D sky130_fd_sc_hd__diode_2
*CAP
1 wbs_dat_i[2] 0.00101641
2 *3664:A 0
3 *510:DIODE 0
4 *61:19 0.000487291
5 *61:11 0.0015037
6 *61:11 wbs_dat_o[2] 0
7 *61:11 *3832:A 0
8 *61:11 *106:28 7.76364e-06
9 *61:11 *144:31 0.000159069
10 *61:11 *150:8 5.80234e-05
11 *61:11 *298:10 0
12 *61:11 *300:12 4.75937e-05
13 *61:11 *312:14 5.41288e-05
14 *61:11 *329:22 0.000175666
15 *61:11 *343:22 0
16 *61:19 *104:26 1.12919e-05
17 *61:19 *118:19 0
18 *61:19 *238:8 5.34262e-05
19 *61:19 *240:10 0.000160906
20 *61:19 *343:22 0.000255856
21 *61:19 *366:12 3.13247e-05
22 *61:19 *367:18 6.99517e-05
23 *28:13 *61:11 0
24 *33:19 *61:11 0.000138727
*RES
1 wbs_dat_i[2] *61:11 32.9593 
2 *61:11 *61:19 39.4664 
3 *61:19 *510:DIODE 23 
4 *61:11 *3664:A 23 
*END

*D_NET *62 0.00225834
*CONN
*P wbs_dat_i[30] I
*I *519:DIODE I *D sky130_fd_sc_hd__diode_2
*I *3674:A I *D sky130_fd_sc_hd__dlygate4sd3_1
*CAP
1 wbs_dat_i[30] 0.000323896
2 *519:DIODE 0.000239001
3 *3674:A 0.000246451
4 *62:5 0.000809348
5 *519:DIODE *167:8 0.000106695
6 *519:DIODE *286:10 0
7 *519:DIODE *311:10 0
8 *519:DIODE *356:14 0
9 *3674:A *3818:A 0.000532948
10 *62:5 wbs_dat_o[29] 0
11 *62:5 wbs_dat_o[30] 0
12 *62:5 *286:10 0
13 *62:5 *356:14 0
*RES
1 wbs_dat_i[30] *62:5 5.88286 
2 *62:5 *3674:A 44.3386 
3 *62:5 *519:DIODE 41.7079 
*END

*D_NET *63 0.00213356
*CONN
*P wbs_dat_i[31] I
*I *3675:A I *D sky130_fd_sc_hd__dlygate4sd3_1
*I *520:DIODE I *D sky130_fd_sc_hd__diode_2
*CAP
1 wbs_dat_i[31] 0.000584766
2 *3675:A 0
3 *520:DIODE 0.000337935
4 *63:9 0.000922701
5 *520:DIODE *178:10 0.000143655
6 *63:9 wbs_dat_o[30] 0.000144501
*RES
1 wbs_dat_i[31] *63:9 24.8807 
2 *63:9 *520:DIODE 27.8057 
3 *63:9 *3675:A 23 
*END

*D_NET *64 0.00609837
*CONN
*P wbs_dat_i[3] I
*I *3665:A I *D sky130_fd_sc_hd__dlygate4sd3_1
*I *511:DIODE I *D sky130_fd_sc_hd__diode_2
*CAP
1 wbs_dat_i[3] 0.000790253
2 *3665:A 0
3 *511:DIODE 0.00022687
4 *64:28 0.000994528
5 *64:9 0.00201165
6 *511:DIODE *115:97 9.72368e-05
7 *511:DIODE *339:12 0.000142097
8 *64:28 *3600:B 9.96021e-06
9 *64:28 *3750:A 5.43589e-05
10 *64:28 *3758:A 7.90161e-05
11 *64:28 *142:37 0.0001991
12 *64:28 *142:51 0.000174228
13 *64:28 *233:10 5.44889e-06
14 *64:28 *315:10 1.13786e-05
15 *64:28 *316:18 4.45778e-05
16 *64:28 *329:38 0.000224013
17 *64:28 *331:22 9.28078e-06
18 *64:28 *339:12 0.000388359
19 *64:28 *364:10 0.000400111
20 *31:9 *64:9 0
21 *31:17 *511:DIODE 0.000199258
22 *31:17 *64:9 3.66426e-05
*RES
1 wbs_dat_i[3] *64:9 23.6171 
2 *64:9 *511:DIODE 27.5986 
3 *64:9 *64:28 46.5507 
4 *64:28 *3665:A 23 
*END

*D_NET *65 0.00418144
*CONN
*P wbs_dat_i[4] I
*I *3661:A I *D sky130_fd_sc_hd__dlygate4sd3_1
*I *507:DIODE I *D sky130_fd_sc_hd__diode_2
*CAP
1 wbs_dat_i[4] 0.000437501
2 *3661:A 0.000247581
3 *507:DIODE 0.000119505
4 *65:5 0.000804587
5 *507:DIODE *3632:RESET_B 8.48502e-06
6 *507:DIODE *145:28 0.000135037
7 *507:DIODE *330:12 5.3304e-05
8 *507:DIODE *333:12 2.02872e-05
9 *507:DIODE *364:18 0.000257636
10 *3661:A *3867:A 0.000226059
11 *3661:A *124:65 1.05441e-05
12 *3661:A *198:8 7.95416e-05
13 *3661:A *335:28 1.12695e-05
14 *3661:A *355:14 0.000265472
15 *3661:A *362:12 0.000221997
16 *65:5 wbs_dat_o[4] 0
17 *65:5 *3867:A 0.000343057
18 *65:5 *334:44 4.10548e-05
19 *65:5 *335:28 0.000779629
20 *32:7 *65:5 0
21 *32:24 *65:5 0.000118889
*RES
1 wbs_dat_i[4] *65:5 11.165 
2 *65:5 *507:DIODE 41.0036 
3 *65:5 *3661:A 44.3179 
*END

*D_NET *66 0.00210815
*CONN
*P wbs_dat_i[5] I
*I *3653:A I *D sky130_fd_sc_hd__dlygate4sd3_1
*I *500:DIODE I *D sky130_fd_sc_hd__diode_2
*CAP
1 wbs_dat_i[5] 0.000499284
2 *3653:A 0.000144928
3 *500:DIODE 0
4 *66:5 0.000644211
5 *3653:A *187:6 6.9805e-05
6 *3653:A *224:12 0.000188307
7 *3653:A *266:6 5.3304e-05
8 *3653:A *336:28 4.51797e-05
9 *3653:A *339:12 0.000142396
10 *3653:A *360:18 0
11 *3653:A *362:20 6.97069e-05
12 *66:5 wbs_dat_o[5] 0
13 *66:5 *117:79 4.587e-05
14 *66:5 *336:28 8.10876e-05
15 *66:5 *360:18 0
16 *66:5 *362:20 0.000124075
17 *526:DIODE *66:5 0
18 *33:9 *66:5 0
*RES
1 wbs_dat_i[5] *66:5 7.99571 
2 *66:5 *500:DIODE 38 
3 *66:5 *3653:A 42.6814 
*END

*D_NET *67 0.00204925
*CONN
*P wbs_dat_i[6] I
*I *3651:A I *D sky130_fd_sc_hd__dlygate4sd3_1
*I *498:DIODE I *D sky130_fd_sc_hd__diode_2
*CAP
1 wbs_dat_i[6] 0.000400415
2 *3651:A 0
3 *498:DIODE 2.08404e-05
4 *67:17 0.000421255
5 *498:DIODE *323:14 5.68958e-05
6 *498:DIODE *325:24 5.68958e-05
7 *67:17 wbs_dat_o[5] 0.000409592
8 *67:17 wbs_dat_o[6] 0
9 *67:17 *323:14 0.000300546
10 *67:17 *323:16 0.000248038
11 *67:17 *325:24 0.000134768
12 *34:5 *67:17 0
*RES
1 wbs_dat_i[6] *67:17 27.1179 
2 *67:17 *498:DIODE 24.0979 
3 *67:17 *3651:A 23 
*END

*D_NET *68 0.00247108
*CONN
*P wbs_dat_i[7] I
*I *3650:A I *D sky130_fd_sc_hd__dlygate4sd3_1
*I *497:DIODE I *D sky130_fd_sc_hd__diode_2
*CAP
1 wbs_dat_i[7] 0.000574144
2 *3650:A 0.000192666
3 *497:DIODE 0.000179338
4 *68:9 0.000946148
5 *497:DIODE *222:10 5.79559e-05
6 *497:DIODE *339:12 5.62243e-05
7 *3650:A *222:10 1.3523e-05
8 *3650:A *339:12 0.000106377
9 *68:9 wbs_dat_o[7] 0
10 *68:9 *363:28 0
11 *68:9 *364:26 0.00015928
12 *525:DIODE *497:DIODE 0.000185428
13 *35:9 *68:9 0
*RES
1 wbs_dat_i[7] *68:9 24.5493 
2 *68:9 *497:DIODE 26.9564 
3 *68:9 *3650:A 26.9771 
*END

*D_NET *69 0.00281653
*CONN
*P wbs_dat_i[8] I
*I *496:DIODE I *D sky130_fd_sc_hd__diode_2
*I *3649:A I *D sky130_fd_sc_hd__dlygate4sd3_1
*CAP
1 wbs_dat_i[8] 0.000761204
2 *496:DIODE 0
3 *3649:A 0
4 *69:17 0.000183284
5 *69:9 0.000944487
6 *69:9 wbs_dat_o[7] 0
7 *69:9 wbs_dat_o[8] 0
8 *69:9 *293:14 0
9 *69:9 *339:12 0.000316877
10 *69:17 *3697:A 5.67058e-05
11 *69:17 *117:69 0.000168821
12 *69:17 *336:34 0.000359746
13 *523:DIODE *69:9 0
14 *523:DIODE *69:17 2.54007e-05
*RES
1 wbs_dat_i[8] *69:9 26.4757 
2 *69:9 *69:17 35.8621 
3 *69:17 *3649:A 23 
4 *69:9 *496:DIODE 23 
*END

*D_NET *70 0.00300795
*CONN
*P wbs_dat_i[9] I
*I *495:DIODE I *D sky130_fd_sc_hd__diode_2
*I *3648:A I *D sky130_fd_sc_hd__dlygate4sd3_1
*CAP
1 wbs_dat_i[9] 0.000552792
2 *495:DIODE 0.000115786
3 *3648:A 0
4 *70:17 0.000360861
5 *70:9 0.00102944
6 *495:DIODE *102:6 0.000135037
7 *70:9 wbs_dat_o[8] 9.91101e-05
8 *70:9 wbs_dat_o[9] 0
9 *70:9 *102:6 0.000361463
10 *70:17 wbs_dat_o[9] 0
11 *70:17 *332:30 0.000135037
12 *70:17 *333:34 0.000153404
13 *3679:A *70:9 6.50258e-05
14 *37:5 *70:9 0
*RES
1 wbs_dat_i[9] *70:9 23.7 
2 *70:9 *70:17 35.2407 
3 *70:17 *3648:A 23 
4 *70:9 *495:DIODE 24.5743 
*END

*D_NET *71 0.0015964
*CONN
*P wbs_dat_o[0] O
*I *3842:X O *D sky130_fd_sc_hd__buf_12
*CAP
1 wbs_dat_o[0] 0.000514473
2 *3842:X 0.000514473
3 wbs_dat_o[0] *3795:A 9.49727e-05
4 wbs_dat_o[0] *103:11 0
5 wbs_dat_o[0] *147:24 4.08537e-05
6 wbs_dat_o[0] *249:10 4.73585e-05
7 wbs_dat_o[0] *327:20 0.000138103
8 *39:9 wbs_dat_o[0] 0
9 *39:22 wbs_dat_o[0] 5.50106e-05
10 *50:30 wbs_dat_o[0] 0.000191157
*RES
1 *3842:X wbs_dat_o[0] 47.9221 
*END

*D_NET *72 0.00175929
*CONN
*P wbs_dat_o[10] O
*I *3843:X O *D sky130_fd_sc_hd__buf_12
*CAP
1 wbs_dat_o[10] 0.000352217
2 *3843:X 0.000352217
3 wbs_dat_o[10] *332:30 5.3304e-05
4 wbs_dat_o[10] *333:34 0.000264564
5 wbs_dat_o[10] *336:34 0.000113302
6 wbs_dat_o[10] *365:22 0.000207912
7 *7:13 wbs_dat_o[10] 0
8 *8:5 wbs_dat_o[10] 0
9 *40:13 wbs_dat_o[10] 0.000415769
*RES
1 *3843:X wbs_dat_o[10] 46.8864 
*END

*D_NET *73 0.00165221
*CONN
*P wbs_dat_o[11] O
*I *3844:X O *D sky130_fd_sc_hd__buf_12
*CAP
1 wbs_dat_o[11] 0.000503713
2 *3844:X 0.000503713
3 wbs_dat_o[11] *323:24 0.000219859
4 wbs_dat_o[11] *333:34 0.000100069
5 wbs_dat_o[11] *336:34 1.56446e-05
6 *41:13 wbs_dat_o[11] 0.000309209
*RES
1 *3844:X wbs_dat_o[11] 47.3629 
*END

*D_NET *74 0.00155829
*CONN
*P wbs_dat_o[12] O
*I *3845:X O *D sky130_fd_sc_hd__buf_12
*CAP
1 wbs_dat_o[12] 0.000271599
2 *3845:X 0.000271599
3 wbs_dat_o[12] *325:34 0.000527358
4 wbs_dat_o[12] *334:54 3.62181e-05
5 *3645:A wbs_dat_o[12] 0.000451518
6 *42:9 wbs_dat_o[12] 0
*RES
1 *3845:X wbs_dat_o[12] 46.0993 
*END

*D_NET *75 0.00241742
*CONN
*P wbs_dat_o[13] O
*I *3846:X O *D sky130_fd_sc_hd__buf_12
*CAP
1 wbs_dat_o[13] 0.000170005
2 *3846:X 0.000209713
3 *75:8 0.000379718
4 *75:8 *3690:A 0.00014196
5 *75:8 *117:59 8.73027e-05
6 *75:8 *165:10 0.000312348
7 *75:8 *325:34 0.000749712
8 *3645:A *75:8 0.000366666
9 *43:11 wbs_dat_o[13] 0
10 *44:7 wbs_dat_o[13] 0
*RES
1 *3846:X *75:8 48.15 
2 *75:8 wbs_dat_o[13] 2.71357 
*END

*D_NET *76 0.00144479
*CONN
*P wbs_dat_o[14] O
*I *3847:X O *D sky130_fd_sc_hd__buf_12
*CAP
1 wbs_dat_o[14] 0.000362867
2 *3847:X 0.000362867
3 wbs_dat_o[14] *165:10 0.000211157
4 wbs_dat_o[14] *214:18 0.000102093
5 wbs_dat_o[14] *225:6 0.000269781
6 wbs_dat_o[14] *254:8 6.57844e-05
7 wbs_dat_o[14] *325:40 4.08537e-05
8 wbs_dat_o[14] *335:36 0
9 wbs_dat_o[14] *336:34 2.93845e-05
10 *45:17 wbs_dat_o[14] 0
*RES
1 *3847:X wbs_dat_o[14] 46.8864 
*END

*D_NET *77 0.0021107
*CONN
*P wbs_dat_o[15] O
*I *3848:X O *D sky130_fd_sc_hd__buf_12
*CAP
1 wbs_dat_o[15] 0.000346375
2 *3848:X 0.000346375
3 wbs_dat_o[15] *3690:A 0.000139352
4 wbs_dat_o[15] *117:59 0.000653715
5 wbs_dat_o[15] *200:10 5.3304e-05
6 wbs_dat_o[15] *337:50 0.000185371
7 wbs_dat_o[15] *340:22 0.000211527
8 *45:17 wbs_dat_o[15] 0.000174679
9 *45:30 wbs_dat_o[15] 0
10 *46:7 wbs_dat_o[15] 0
*RES
1 *3848:X wbs_dat_o[15] 48.7093 
*END

*D_NET *78 0.00148588
*CONN
*P wbs_dat_o[16] O
*I *3849:X O *D sky130_fd_sc_hd__buf_12
*CAP
1 wbs_dat_o[16] 0.000375149
2 *3849:X 0.000375149
3 wbs_dat_o[16] *200:10 0.000207996
4 wbs_dat_o[16] *225:6 0.00026808
5 wbs_dat_o[16] *259:10 0.000145784
6 wbs_dat_o[16] *272:8 0.000113727
7 *46:7 wbs_dat_o[16] 0
8 *47:9 wbs_dat_o[16] 0
*RES
1 *3849:X wbs_dat_o[16] 46.8864 
*END

*D_NET *79 0.00167053
*CONN
*P wbs_dat_o[17] O
*I *3850:X O *D sky130_fd_sc_hd__buf_12
*CAP
1 wbs_dat_o[17] 6.59305e-05
2 *3850:X 0.00045311
3 *79:14 0.000519041
4 *79:14 *117:59 1.10658e-05
5 *79:14 *340:22 7.88512e-05
6 *79:14 *342:20 0.000225441
7 *47:9 wbs_dat_o[17] 0
8 *47:9 *79:14 0
9 *48:9 *79:14 0.000317087
*RES
1 *3850:X *79:14 49.5482 
2 *79:14 wbs_dat_o[17] 1.39821 
*END

*D_NET *80 0.00137773
*CONN
*P wbs_dat_o[18] O
*I *3851:X O *D sky130_fd_sc_hd__buf_12
*CAP
1 wbs_dat_o[18] 0.000442837
2 *3851:X 0.000442837
3 wbs_dat_o[18] *159:22 1.95585e-05
4 wbs_dat_o[18] *225:16 0.000269781
5 wbs_dat_o[18] *259:10 0.000148698
6 wbs_dat_o[18] *265:10 5.40192e-05
7 *49:13 wbs_dat_o[18] 0
*RES
1 *3851:X wbs_dat_o[18] 46.8864 
*END

*D_NET *81 0.00158539
*CONN
*P wbs_dat_o[19] O
*I *3852:X O *D sky130_fd_sc_hd__buf_12
*CAP
1 wbs_dat_o[19] 0.000426023
2 *3852:X 0.000426023
3 wbs_dat_o[19] *117:59 7.92617e-05
4 wbs_dat_o[19] *325:52 0.000142173
5 wbs_dat_o[19] *342:20 0.000128401
6 *499:DIODE wbs_dat_o[19] 5.50106e-05
7 *49:13 wbs_dat_o[19] 9.74537e-05
8 *51:9 wbs_dat_o[19] 0.000231039
*RES
1 *3852:X wbs_dat_o[19] 48.005 
*END

*D_NET *82 0.000665978
*CONN
*P wbs_dat_o[1] O
*I *3853:X O *D sky130_fd_sc_hd__buf_12
*CAP
1 wbs_dat_o[1] 0.000211392
2 *3853:X 0.000211392
3 wbs_dat_o[1] *105:13 9.67842e-05
4 wbs_dat_o[1] *147:30 4.96264e-05
5 wbs_dat_o[1] *252:8 9.67842e-05
6 *50:13 wbs_dat_o[1] 0
*RES
1 *3853:X wbs_dat_o[1] 41.8114 
*END

*D_NET *83 0.00129328
*CONN
*P wbs_dat_o[20] O
*I *3854:X O *D sky130_fd_sc_hd__buf_12
*CAP
1 wbs_dat_o[20] 0.0004719
2 *3854:X 0.0004719
3 wbs_dat_o[20] *225:20 0
4 wbs_dat_o[20] *292:6 0.000275256
5 wbs_dat_o[20] *325:48 1.85903e-05
6 wbs_dat_o[20] *344:14 5.56356e-05
7 *51:9 wbs_dat_o[20] 0
8 *52:9 wbs_dat_o[20] 0
*RES
1 *3854:X wbs_dat_o[20] 46.8864 
*END

*D_NET *84 0.00176796
*CONN
*P wbs_dat_o[21] O
*I *3855:X O *D sky130_fd_sc_hd__buf_12
*CAP
1 wbs_dat_o[21] 4.23164e-05
2 *3855:X 0.000539268
3 *84:14 0.000581585
4 *84:14 *410:DIODE 0
5 *84:14 *115:55 6.97656e-05
6 *84:14 *270:14 5.50106e-05
7 *84:14 *339:18 5.50106e-05
8 *52:9 *84:14 0.000424999
9 *53:9 wbs_dat_o[21] 0
*RES
1 *3855:X *84:14 49.6414 
2 *84:14 wbs_dat_o[21] 1.22214 
*END

*D_NET *85 0.00317349
*CONN
*P wbs_dat_o[22] O
*I *3856:X O *D sky130_fd_sc_hd__buf_12
*CAP
1 wbs_dat_o[22] 0.000663092
2 *3856:X 0.000127732
3 *85:8 0.000790824
4 wbs_dat_o[22] *422:DIODE 4.89603e-05
5 wbs_dat_o[22] *3728:A 0
6 wbs_dat_o[22] *129:47 2.9086e-05
7 wbs_dat_o[22] *129:49 4.66421e-05
8 wbs_dat_o[22] *202:8 0
9 wbs_dat_o[22] *207:8 0
10 wbs_dat_o[22] *259:36 7.68979e-05
11 wbs_dat_o[22] *273:8 5.33333e-05
12 wbs_dat_o[22] *339:28 1.9021e-05
13 *85:8 *3809:A 0.000274292
14 *85:8 *148:38 0.000228001
15 *85:8 *306:22 0.000111779
16 *85:8 *317:44 0.000703832
17 *53:9 wbs_dat_o[22] 0
18 *54:9 wbs_dat_o[22] 0
*RES
1 *3856:X *85:8 45.7679 
2 *85:8 wbs_dat_o[22] 11.5171 
*END

*D_NET *86 0.00486393
*CONN
*P wbs_dat_o[23] O
*I *3857:X O *D sky130_fd_sc_hd__buf_12
*CAP
1 wbs_dat_o[23] 6.07322e-05
2 *3857:X 0.000102438
3 *86:12 0.00159554
4 *86:8 0.00163724
5 *86:8 wbs_dat_o[26] 0.000108161
6 *86:12 *276:18 0.000360771
7 *86:12 *325:60 0.000999051
8 *54:9 wbs_dat_o[23] 0
9 *55:9 wbs_dat_o[23] 0
*RES
1 *3857:X *86:8 39.5536 
2 *86:8 *86:12 37.5371 
3 *86:12 wbs_dat_o[23] 16.305 
*END

*D_NET *87 0.00400174
*CONN
*P wbs_dat_o[24] O
*I *3858:X O *D sky130_fd_sc_hd__buf_12
*CAP
1 wbs_dat_o[24] 0.000683771
2 *3858:X 0.000291023
3 *87:10 0.000974794
4 wbs_dat_o[24] wbs_dat_o[25] 0.000355029
5 wbs_dat_o[24] *3812:A 5.83407e-05
6 wbs_dat_o[24] *115:39 5.0135e-05
7 wbs_dat_o[24] *276:10 0.000157378
8 wbs_dat_o[24] *281:34 0.000196096
9 wbs_dat_o[24] *305:6 0.000616669
10 wbs_dat_o[24] *347:24 0.000209451
11 *87:10 *459:DIODE 4.72486e-05
12 *87:10 *132:51 6.74471e-05
13 *87:10 *292:20 0.000181131
14 *509:DIODE wbs_dat_o[24] 0
15 *55:9 wbs_dat_o[24] 0
16 *57:9 *87:10 0.000113231
*RES
1 *3858:X *87:10 43.7171 
2 *87:10 wbs_dat_o[24] 46.6336 
*END

*D_NET *88 0.00179904
*CONN
*P wbs_dat_o[25] O
*I *3859:X O *D sky130_fd_sc_hd__buf_12
*CAP
1 wbs_dat_o[25] 0.000605659
2 *3859:X 0.000605659
3 wbs_dat_o[25] *449:DIODE 0
4 wbs_dat_o[25] *117:43 0
5 wbs_dat_o[25] *276:18 0
6 wbs_dat_o[25] *305:6 9.16459e-05
7 wbs_dat_o[25] *349:14 0.000141052
8 wbs_dat_o[24] wbs_dat_o[25] 0.000355029
9 *56:9 wbs_dat_o[25] 0
10 *57:9 wbs_dat_o[25] 0
*RES
1 *3859:X wbs_dat_o[25] 49.745 
*END

*D_NET *89 0.00217577
*CONN
*P wbs_dat_o[26] O
*I *3860:X O *D sky130_fd_sc_hd__buf_12
*CAP
1 wbs_dat_o[26] 0.0008589
2 *3860:X 8.16023e-05
3 *89:8 0.000940502
4 wbs_dat_o[26] *227:10 0
5 wbs_dat_o[26] *325:68 0
6 *89:8 *317:44 0.000186606
7 *57:9 wbs_dat_o[26] 0
8 *86:8 wbs_dat_o[26] 0.000108161
*RES
1 *3860:X *89:8 40.0507 
2 *89:8 wbs_dat_o[26] 14.935 
*END

*D_NET *90 0.00266303
*CONN
*P wbs_dat_o[27] O
*I *3861:X O *D sky130_fd_sc_hd__buf_12
*CAP
1 wbs_dat_o[27] 0.00040578
2 *3861:X 0.000424043
3 *90:10 0.000829824
4 wbs_dat_o[27] *474:DIODE 0
5 *90:10 *352:14 0.000400204
6 *3:17 wbs_dat_o[27] 0.000603181
7 *59:9 wbs_dat_o[27] 0
*RES
1 *3861:X *90:10 45.6643 
2 *90:10 wbs_dat_o[27] 8.34786 
*END

*D_NET *91 0.00144535
*CONN
*P wbs_dat_o[28] O
*I *3862:X O *D sky130_fd_sc_hd__buf_12
*CAP
1 wbs_dat_o[28] 0.00047137
2 *3862:X 0.00047137
3 wbs_dat_o[28] *115:33 1.01436e-05
4 wbs_dat_o[28] *117:43 0.00014196
5 wbs_dat_o[28] *283:8 1.37246e-05
6 wbs_dat_o[28] *353:14 5.56356e-05
7 *515:DIODE wbs_dat_o[28] 3.22051e-05
8 *59:9 wbs_dat_o[28] 0.000128296
9 *60:11 wbs_dat_o[28] 0.000120645
*RES
1 *3862:X wbs_dat_o[28] 48.7093 
*END

*D_NET *92 0.0010449
*CONN
*P wbs_dat_o[29] O
*I *3863:X O *D sky130_fd_sc_hd__buf_12
*CAP
1 wbs_dat_o[29] 0.000502686
2 *3863:X 0.000502686
3 wbs_dat_o[29] *286:10 0
4 wbs_dat_o[29] *309:10 1.01436e-05
5 wbs_dat_o[29] *354:16 2.93845e-05
6 *62:5 wbs_dat_o[29] 0
*RES
1 *3863:X wbs_dat_o[29] 46.8864 
*END

*D_NET *93 0.00124595
*CONN
*P wbs_dat_o[2] O
*I *3864:X O *D sky130_fd_sc_hd__buf_12
*CAP
1 wbs_dat_o[2] 0.000376756
2 *3864:X 0.000376756
3 wbs_dat_o[2] *3832:A 0.000218952
4 wbs_dat_o[2] *105:13 0
5 wbs_dat_o[2] *170:34 0.000136743
6 wbs_dat_o[2] *331:26 0.000136743
7 *31:9 wbs_dat_o[2] 0
8 *61:11 wbs_dat_o[2] 0
*RES
1 *3864:X wbs_dat_o[2] 45.4571 
*END

*D_NET *94 0.00137305
*CONN
*P wbs_dat_o[30] O
*I *3865:X O *D sky130_fd_sc_hd__buf_12
*CAP
1 wbs_dat_o[30] 0.000454078
2 *3865:X 0.000454078
3 wbs_dat_o[30] *356:14 0.000241503
4 *518:DIODE wbs_dat_o[30] 2.4754e-05
5 *60:11 wbs_dat_o[30] 5.41385e-05
6 *62:5 wbs_dat_o[30] 0
7 *63:9 wbs_dat_o[30] 0.000144501
*RES
1 *3865:X wbs_dat_o[30] 47.7564 
*END

*D_NET *95 0.0010247
*CONN
*P wbs_dat_o[31] O
*I *3866:X O *D sky130_fd_sc_hd__buf_12
*CAP
1 wbs_dat_o[31] 0.000512349
2 *3866:X 0.000512349
*RES
1 *3866:X wbs_dat_o[31] 46.8864 
*END

*D_NET *96 0.00143278
*CONN
*P wbs_dat_o[3] O
*I *3867:X O *D sky130_fd_sc_hd__buf_12
*CAP
1 wbs_dat_o[3] 0.000521952
2 *3867:X 0.000521952
3 wbs_dat_o[3] *3750:A 0.000108253
4 wbs_dat_o[3] *331:26 0.000140313
5 wbs_dat_o[3] *355:20 0.000140313
*RES
1 *3867:X wbs_dat_o[3] 45.4571 
*END

*D_NET *97 0.00147334
*CONN
*P wbs_dat_o[4] O
*I *3868:X O *D sky130_fd_sc_hd__buf_12
*CAP
1 wbs_dat_o[4] 0.000523757
2 *3868:X 0.000523757
3 wbs_dat_o[4] *115:69 0.000130779
4 wbs_dat_o[4] *324:10 3.65917e-05
5 wbs_dat_o[4] *326:10 2.33476e-05
6 wbs_dat_o[4] *334:44 0.000165186
7 wbs_dat_o[4] *359:14 6.99175e-05
8 *33:9 wbs_dat_o[4] 0
9 *65:5 wbs_dat_o[4] 0
*RES
1 *3868:X wbs_dat_o[4] 46.8864 
*END

*D_NET *98 0.00146653
*CONN
*P wbs_dat_o[5] O
*I *3869:X O *D sky130_fd_sc_hd__buf_12
*CAP
1 wbs_dat_o[5] 0.000274587
2 *3869:X 0.000274587
3 wbs_dat_o[5] *323:16 2.32101e-05
4 wbs_dat_o[5] *325:24 0.000484551
5 *34:5 wbs_dat_o[5] 0
6 *66:5 wbs_dat_o[5] 0
7 *67:17 wbs_dat_o[5] 0.000409592
*RES
1 *3869:X wbs_dat_o[5] 46.0993 
*END

*D_NET *99 0.00163502
*CONN
*P wbs_dat_o[6] O
*I *3870:X O *D sky130_fd_sc_hd__buf_12
*CAP
1 wbs_dat_o[6] 0.000498006
2 *3870:X 0.000498006
3 wbs_dat_o[6] *117:79 6.81466e-05
4 wbs_dat_o[6] *324:18 0
5 wbs_dat_o[6] *336:34 0.000114742
6 wbs_dat_o[6] *362:24 0.000185434
7 *3681:A wbs_dat_o[6] 0.000270682
8 *34:5 wbs_dat_o[6] 0
9 *35:9 wbs_dat_o[6] 0
10 *67:17 wbs_dat_o[6] 0
*RES
1 *3870:X wbs_dat_o[6] 48.3157 
*END

*D_NET *100 0.00134515
*CONN
*P wbs_dat_o[7] O
*I *3871:X O *D sky130_fd_sc_hd__buf_12
*CAP
1 wbs_dat_o[7] 0.000459358
2 *3871:X 0.000459358
3 wbs_dat_o[7] *293:14 0.000187752
4 wbs_dat_o[7] *323:16 9.6103e-05
5 *36:9 wbs_dat_o[7] 0.000142577
6 *68:9 wbs_dat_o[7] 0
7 *69:9 wbs_dat_o[7] 0
*RES
1 *3871:X wbs_dat_o[7] 46.0579 
*END

*D_NET *101 0.00143038
*CONN
*P wbs_dat_o[8] O
*I *3872:X O *D sky130_fd_sc_hd__buf_12
*CAP
1 wbs_dat_o[8] 0.000418809
2 *3872:X 0.000418809
3 wbs_dat_o[8] *323:16 0.000114856
4 wbs_dat_o[8] *364:34 6.23156e-05
5 *3679:A wbs_dat_o[8] 0.000316483
6 *69:9 wbs_dat_o[8] 0
7 *70:9 wbs_dat_o[8] 9.91101e-05
*RES
1 *3872:X wbs_dat_o[8] 46.5757 
*END

*D_NET *102 0.00283709
*CONN
*P wbs_dat_o[9] O
*I *3873:X O *D sky130_fd_sc_hd__buf_12
*CAP
1 wbs_dat_o[9] 0.000189941
2 *3873:X 0.000404435
3 *102:6 0.000594376
4 *102:6 *290:10 0.000269775
5 *102:6 *323:16 0.000211662
6 *495:DIODE *102:6 0.000135037
7 *3679:A *102:6 0.000402329
8 *7:21 *102:6 0.000268074
9 *37:5 wbs_dat_o[9] 0
10 *70:9 wbs_dat_o[9] 0
11 *70:9 *102:6 0.000361463
12 *70:17 wbs_dat_o[9] 0
*RES
1 *3873:X *102:6 35.0557 
2 *102:6 wbs_dat_o[9] 17.7136 
*END

*D_NET *103 0.00287747
*CONN
*P wbs_sel_i[0] I
*I *3771:A I *D sky130_fd_sc_hd__dlygate4sd3_1
*I *532:DIODE I *D sky130_fd_sc_hd__diode_2
*CAP
1 wbs_sel_i[0] 0.000677377
2 *3771:A 0.000158674
3 *532:DIODE 0
4 *103:11 0.000836051
5 *3771:A *300:12 0.000173452
6 *103:11 *3761:A 0
7 *103:11 *106:17 0.000162422
8 *103:11 *147:24 2.29192e-05
9 *103:11 *243:10 0.000230747
10 *103:11 *245:8 0.000114092
11 *103:11 *249:10 0.000461079
12 *103:11 *317:8 0
13 wbs_dat_o[0] *103:11 0
14 *39:22 *103:11 4.06512e-05
15 *50:13 *103:11 0
*RES
1 wbs_sel_i[0] *103:11 30.1007 
2 *103:11 *532:DIODE 23 
3 *103:11 *3771:A 26.48 
*END

*D_NET *104 0.00460054
*CONN
*P wbs_sel_i[1] I
*I *3767:A I *D sky130_fd_sc_hd__dlygate4sd3_1
*I *531:DIODE I *D sky130_fd_sc_hd__diode_2
*CAP
1 wbs_sel_i[1] 0.000434568
2 *3767:A 0
3 *531:DIODE 0.000111555
4 *104:26 0.000778206
5 *104:9 0.00132433
6 *531:DIODE *329:10 0.000140094
7 *104:9 *3775:A 0.000284481
8 *104:9 *240:10 5.43589e-05
9 *104:9 *343:22 5.86716e-05
10 *104:26 *3765:A 0.000145238
11 *104:26 *3775:A 0.000146158
12 *104:26 *3824:A 0.000103637
13 *104:26 *238:8 0.000318853
14 *104:26 *240:10 0.000689101
15 *61:19 *104:26 1.12919e-05
*RES
1 wbs_sel_i[1] *104:9 7.70571 
2 *104:9 *531:DIODE 39.5743 
3 *104:9 *104:26 32.3171 
4 *104:26 *3767:A 23 
*END

*D_NET *105 0.00498704
*CONN
*P wbs_sel_i[2] I
*I *533:DIODE I *D sky130_fd_sc_hd__diode_2
*I *3774:A I *D sky130_fd_sc_hd__dlygate4sd3_1
*CAP
1 wbs_sel_i[2] 0.00123661
2 *533:DIODE 0
3 *3774:A 0.000178466
4 *105:13 0.00141507
5 *3774:A *147:16 0.000362139
6 *3774:A *249:10 0.00014196
7 *105:13 *250:14 7.88828e-05
8 *105:13 *252:8 0.000270539
9 *105:13 *295:8 0.000227208
10 *105:13 *323:14 0.000246381
11 *105:13 *343:22 5.79559e-05
12 wbs_dat_o[1] *105:13 9.67842e-05
13 wbs_dat_o[2] *105:13 0
14 *514:DIODE *3774:A 0.000137914
15 *31:9 *105:13 0
16 *50:13 *3774:A 5.25956e-05
17 *50:13 *105:13 0.000484539
*RES
1 wbs_sel_i[2] *105:13 38.0343 
2 *105:13 *3774:A 29.0486 
3 *105:13 *533:DIODE 23 
*END

*D_NET *106 0.00655267
*CONN
*P wbs_sel_i[3] I
*I *534:DIODE I *D sky130_fd_sc_hd__diode_2
*I *3777:A I *D sky130_fd_sc_hd__dlygate4sd3_1
*CAP
1 wbs_sel_i[3] 0.000351749
2 *534:DIODE 0
3 *3777:A 0
4 *106:28 7.73904e-05
5 *106:17 0.000520262
6 *106:9 0.000949402
7 *106:9 *330:22 0.00142309
8 *106:17 *147:24 0.000530627
9 *106:17 *330:22 0.00113725
10 *32:7 *106:9 0
11 *33:13 *106:9 0.00134937
12 *33:19 *106:28 4.334e-05
13 *61:11 *106:28 7.76364e-06
14 *103:11 *106:17 0.000162422
*RES
1 wbs_sel_i[3] *106:9 31.82 
2 *106:9 *106:17 44.79 
3 *106:17 *3777:A 23 
4 *106:9 *106:28 31.5536 
5 *106:28 *534:DIODE 23 
*END

*D_NET *107 0.00117481
*CONN
*P wbs_stb_i I
*I *3834:A I *D sky130_fd_sc_hd__buf_2
*I *540:DIODE I *D sky130_fd_sc_hd__diode_2
*CAP
1 wbs_stb_i 0.000415238
2 *3834:A 7.92709e-05
3 *540:DIODE 0
4 *107:7 0.000494508
5 *107:7 *108:13 0
6 *107:7 *327:8 2.21623e-05
7 *538:DIODE *107:7 2.28702e-05
8 *3686:A *107:7 0
9 *38:9 *107:7 0.000140757
*RES
1 wbs_stb_i *107:7 22.9957 
2 *107:7 *540:DIODE 23 
3 *107:7 *3834:A 24.4707 
*END

*D_NET *108 0.0038686
*CONN
*P wbs_we_i I
*I *541:DIODE I *D sky130_fd_sc_hd__diode_2
*I *3836:A I *D sky130_fd_sc_hd__buf_2
*CAP
1 wbs_we_i 0.000592814
2 *541:DIODE 0.000407658
3 *3836:A 0.000130118
4 *108:13 0.00113059
5 *541:DIODE *156:8 8.0614e-05
6 *541:DIODE *282:8 0.000130119
7 *3836:A *170:20 0.00027192
8 *3836:A *299:12 0.000353151
9 *108:13 *147:16 7.63584e-05
10 *514:DIODE *108:13 4.81123e-05
11 *3686:A *108:13 0.000132674
12 *28:17 *108:13 0.00017784
13 *39:9 *541:DIODE 0.000205094
14 *39:9 *108:13 0.000131538
15 *107:7 *108:13 0
*RES
1 wbs_we_i *108:13 40.4607 
2 *108:13 *3836:A 42.5986 
3 *108:13 *541:DIODE 45.8921 
*END

*D_NET *109 0.00624772
*CONN
*I *3632:RESET_B I *D sky130_fd_sc_hd__dfrtp_1
*I *3598:Y O *D sky130_fd_sc_hd__inv_2
*CAP
1 *3632:RESET_B 0.000207863
2 *3598:Y 0.00143355
3 *109:14 0.00164141
4 *3632:RESET_B *389:DIODE 0.000150194
5 *3632:RESET_B *390:DIODE 4.80045e-05
6 *3632:RESET_B *145:28 4.59048e-05
7 *3632:RESET_B *330:12 0.000156369
8 *3632:RESET_B *333:22 0.000130128
9 *3632:RESET_B *355:20 1.98354e-05
10 *109:14 *3750:A 9.77922e-06
11 *109:14 *3775:A 0.000437718
12 *109:14 *144:31 0.000477639
13 *109:14 *144:46 9.67842e-05
14 *109:14 *187:6 5.3304e-05
15 *109:14 *224:12 0.000386135
16 *109:14 *298:10 0.000445576
17 *109:14 *327:20 5.82449e-05
18 *109:14 *329:22 0.000432322
19 *507:DIODE *3632:RESET_B 8.48502e-06
20 *31:17 *109:14 8.48502e-06
*RES
1 *3598:Y *109:14 49.2036 
2 *109:14 *3632:RESET_B 34.4639 
*END

*D_NET *110 0.0515278
*CONN
*I *3635:A I *D sky130_fd_sc_hd__clkbuf_16
*I *3634:A I *D sky130_fd_sc_hd__clkbuf_16
*I *3633:X O *D sky130_fd_sc_hd__clkbuf_16
*CAP
1 *3635:A 0.000125976
2 *3634:A 0
3 *3633:X 0.000474693
4 *110:31 0.000920345
5 *110:29 0.000794369
6 *110:22 0.000275769
7 *110:16 0.0035034
8 *110:14 0.00322763
9 *110:12 0.00282827
10 *110:10 0.00312646
11 *110:6 0.000772887
12 *3635:A *112:6 9.01952e-05
13 *110:12 *133:23 0.000446289
14 *110:12 *190:14 0.000225265
15 *110:12 *195:12 0.000462269
16 *110:12 *244:38 3.38568e-05
17 *110:12 *317:68 0.00459044
18 *110:12 *317:83 0.000269649
19 *110:12 *325:70 0.0080737
20 *110:12 *326:24 0.00153972
21 *110:12 *361:54 0.00219921
22 *110:12 *361:56 8.29227e-05
23 *110:16 *114:17 0.000640964
24 *110:16 *144:21 0.00160421
25 *110:16 *146:14 0.000312285
26 *110:16 *153:18 1.56446e-05
27 *110:16 *166:12 0.00417896
28 *110:16 *171:12 0.00427304
29 *110:16 *308:12 0.000227476
30 *110:22 *319:18 0.000160184
31 *110:31 *212:10 0.000579654
32 *110:31 *219:50 0.00208814
33 *110:31 *226:10 0.0027093
34 *110:31 *239:8 1.80419e-05
35 *110:31 *381:16 0.000414593
36 *3:17 *110:12 0.00024203
*RES
1 *3633:X *110:6 27.9093 
2 *110:6 *110:10 18.0036 
3 *110:10 *110:12 117.056 
4 *110:12 *110:14 15 
5 *110:14 *110:16 95.4307 
6 *110:16 *110:22 34.7229 
7 *110:22 *3634:A 23 
8 *110:6 *110:29 15 
9 *110:29 *110:31 36.0636 
10 *110:31 *3635:A 40.0507 
*END

*D_NET *111 0.0131106
*CONN
*I *3636:A I *D sky130_fd_sc_hd__clkinv_16
*I *3632:CLK I *D sky130_fd_sc_hd__dfrtp_1
*I *3634:X O *D sky130_fd_sc_hd__clkbuf_16
*CAP
1 *3636:A 0.000234737
2 *3632:CLK 0
3 *3634:X 2.01521e-05
4 *111:20 4.60853e-05
5 *111:14 0.0014874
6 *111:12 0.00225591
7 *111:8 0.00106948
8 *3636:A *192:20 0
9 *3636:A *316:26 5.03716e-05
10 *111:8 *327:73 9.84851e-05
11 *111:8 *329:66 9.84851e-05
12 *111:12 *164:8 0.000186491
13 *111:12 *181:52 0
14 *111:12 *192:14 0
15 *111:12 *192:20 0
16 *111:12 *257:14 4.14775e-05
17 *111:12 *258:18 6.56284e-05
18 *111:12 *323:30 0
19 *111:14 *3710:A 5.29747e-05
20 *111:14 *3796:A 3.84903e-05
21 *111:14 *3802:A 2.64616e-05
22 *111:14 *145:24 0.000229179
23 *111:14 *148:10 0.000191577
24 *111:14 *181:42 0.000341613
25 *111:14 *185:10 5.61579e-05
26 *111:14 *192:6 0.00128854
27 *111:14 *306:8 0.000139352
28 *111:14 *317:32 0.00247785
29 *111:14 *333:22 0.0013279
30 *111:14 *350:14 0.000114879
31 *111:14 *364:18 0.000401094
32 *111:14 *364:26 0.000264915
33 *111:20 *224:18 0
34 *111:20 *331:14 2.81325e-05
35 *521:DIODE *111:14 0.000139357
36 *3647:A *111:14 2.93845e-05
37 *3683:A *111:14 0.000308039
*RES
1 *3634:X *111:8 39.0979 
2 *111:8 *111:12 26.7657 
3 *111:12 *111:14 53.0286 
4 *111:14 *111:20 30.8493 
5 *111:20 *3632:CLK 23 
6 *111:8 *3636:A 18.9875 
*END

*D_NET *112 0.0205508
*CONN
*I *3781:CLKin I *D CF_SRAM_1024x32
*I *3635:X O *D sky130_fd_sc_hd__clkbuf_16
*CAP
1 *3781:CLKin 0.00034451
2 *3635:X 0.00122852
3 *112:10 0.00192976
4 *112:8 0.00158526
5 *112:6 0.00122852
6 *3781:CLKin *3781:BEN[17] 0
7 *3781:CLKin *3781:DI[17] 0
8 *112:6 *3781:DI[3] 9.70078e-05
9 *112:10 *123:19 0.00127034
10 *112:10 *124:11 0.00210784
11 *112:10 *132:11 0.00695402
12 *112:10 *155:10 0
13 *112:10 *164:52 0.00024818
14 *112:10 *195:34 0.0034667
15 *3635:A *112:6 9.01952e-05
*RES
1 *3635:X *112:6 37.9143 
2 *112:6 *112:8 15 
3 *112:8 *112:10 89.9414 
4 *112:10 *3781:CLKin 21.0071 
*END

*D_NET *113 0.0857952
*CONN
*I *384:DIODE I *D sky130_fd_sc_hd__diode_2
*I *3626:D I *D sky130_fd_sc_hd__and4b_1
*I *403:DIODE I *D sky130_fd_sc_hd__diode_2
*I *3781:DO[0] O *D CF_SRAM_1024x32
*CAP
1 *384:DIODE 0
2 *3626:D 0.000169206
3 *403:DIODE 0
4 *3781:DO[0] 0.00229789
5 *113:55 0.00046961
6 *113:43 0.0028805
7 *113:37 0.00233411
8 *113:31 0.0054363
9 *113:29 0.00534388
10 *113:27 0.00119534
11 *113:15 0.00222134
12 *113:11 0.00540832
13 *113:9 0.00668021
14 *3626:D *124:29 0.000187444
15 *3626:D *312:36 0.000122349
16 *3626:D *366:145 0.000167432
17 *113:9 *3781:ScanInDL 0
18 *113:9 *3781:ScanInCC 0
19 *113:9 *3781:DI[0] 2.41093e-05
20 *113:11 *120:18 0.0153619
21 *113:11 *121:22 7.59667e-05
22 *113:11 *135:21 0.00188622
23 *113:11 *137:13 0
24 *113:11 *141:11 0.000247812
25 *113:11 *157:16 0.0138877
26 *113:15 *3752:A 0.00078179
27 *113:15 *121:30 0.00245466
28 *113:27 *129:45 4.91011e-05
29 *113:27 *141:15 0.0023407
30 *113:27 *258:26 0
31 *113:27 *361:48 4.46303e-05
32 *113:27 *372:14 0.00239734
33 *113:31 *120:52 0.000532091
34 *113:31 *135:27 0.000511786
35 *113:31 *320:14 0.00316308
36 *113:31 *341:18 0.000865176
37 *113:31 *361:28 0.00204712
38 *113:43 *135:27 0.000119639
39 *113:43 *145:16 2.18506e-05
40 *113:43 *312:36 0.000112043
41 *113:43 *318:8 0.00300411
42 *113:43 *367:43 0.0001618
43 *113:55 *3628:A_N 6.60786e-05
44 *113:55 *124:29 3.33082e-05
45 *113:55 *141:15 6.40273e-05
46 *113:55 *145:16 0.000256357
47 *113:55 *145:24 7.07113e-06
48 *113:55 *181:32 7.82491e-05
49 *113:55 *187:14 7.37986e-05
50 *113:55 *317:26 4.66681e-05
51 *113:55 *331:14 0
52 *113:55 *350:14 0.000165186
*RES
1 *3781:DO[0] *113:9 46.8275 
2 *113:9 *113:11 205.092 
3 *113:11 *113:15 43.2543 
4 *113:15 *113:27 39.0662 
5 *113:27 *113:29 15 
6 *113:29 *113:31 83.52 
7 *113:31 *113:37 31.2014 
8 *113:37 *113:43 36.9957 
9 *113:43 *113:55 36.6108 
10 *113:55 *403:DIODE 38 
11 *113:43 *3626:D 27.6038 
12 *113:43 *384:DIODE 23 
*END

*D_NET *114 0.0699212
*CONN
*I *414:DIODE I *D sky130_fd_sc_hd__diode_2
*I *3604:D I *D sky130_fd_sc_hd__and4b_1
*I *3781:DO[10] O *D CF_SRAM_1024x32
*CAP
1 *414:DIODE 0
2 *3604:D 0.000246333
3 *3781:DO[10] 0.00261505
4 *114:21 0.00042706
5 *114:17 0.00971392
6 *114:13 0.0110322
7 *114:11 0.00411403
8 *3604:D *116:23 0
9 *3604:D *170:34 0.000148731
10 *3604:D *300:22 0.000278673
11 *3604:D *327:57 2.05503e-05
12 *3604:D *337:6 0.000190075
13 *3604:D *369:22 0.00019207
14 *114:11 *3781:BEN[9] 0
15 *114:11 *3781:DI[10] 4.18686e-06
16 *114:13 *311:10 0.0060628
17 *114:13 *314:10 0.0060628
18 *114:17 *139:17 0.0163988
19 *114:17 *146:14 0.0104173
20 *114:17 *157:14 0.000492718
21 *114:17 *171:12 0.000470691
22 *114:17 *316:26 0.000200149
23 *114:17 *327:57 0
24 *114:17 *371:29 0
25 *114:21 *116:23 0
26 *114:21 *143:59 7.57257e-05
27 *114:21 *300:22 0.000116314
28 *110:16 *114:17 0.000640964
*RES
1 *3781:DO[10] *114:11 49.9346 
2 *114:11 *114:13 79.5532 
3 *114:13 *114:17 44.3776 
4 *114:17 *114:21 12.5468 
5 *114:21 *3604:D 44.1987 
6 *114:21 *414:DIODE 38 
*END

*D_NET *115 0.0629123
*CONN
*I *3605:D I *D sky130_fd_sc_hd__and4b_1
*I *425:DIODE I *D sky130_fd_sc_hd__diode_2
*I *436:DIODE I *D sky130_fd_sc_hd__diode_2
*I *3781:DO[11] O *D CF_SRAM_1024x32
*CAP
1 *3605:D 0
2 *425:DIODE 0
3 *436:DIODE 1.4353e-05
4 *3781:DO[11] 0.00155457
5 *115:97 0.000354976
6 *115:73 0.000215178
7 *115:71 0.000555801
8 *115:69 0.00203513
9 *115:63 0.00208784
10 *115:57 0.00716091
11 *115:55 0.00736044
12 *115:47 0.00102123
13 *115:39 0.00171304
14 *115:33 0.00132379
15 *115:29 0.0019157
16 *115:25 0.00279155
17 *115:15 0.00281015
18 *436:DIODE *327:20 0.000101226
19 *115:15 *3781:DI[11] 0.000236006
20 *115:15 *116:11 0.00029356
21 *115:15 *130:19 0.000399411
22 *115:15 *177:46 0.000130191
23 *115:15 *241:94 0.000322554
24 *115:15 *241:122 4.80465e-05
25 *115:15 *244:46 0.000108829
26 *115:25 *219:50 0.000277518
27 *115:25 *380:16 0.00178323
28 *115:25 *381:16 0.00177797
29 *115:29 *117:29 0.000391823
30 *115:29 *134:11 0.0016826
31 *115:29 *148:58 0.000272267
32 *115:29 *283:8 3.9779e-05
33 *115:29 *305:12 0.000501877
34 *115:29 *305:14 0.00167028
35 *115:29 *306:42 0.000103356
36 *115:29 *308:16 0.000178615
37 *115:33 *117:29 0
38 *115:33 *283:8 0.000522243
39 *115:39 *449:DIODE 0.000138607
40 *115:39 *117:43 0.00109542
41 *115:39 *117:57 0.000533738
42 *115:39 *276:10 0.000175903
43 *115:39 *325:52 3.34129e-05
44 *115:39 *347:24 0.000627418
45 *115:47 *270:24 0.000927751
46 *115:47 *292:6 0.000242346
47 *115:55 *410:DIODE 0
48 *115:57 *117:59 0.007481
49 *115:57 *323:14 7.80462e-05
50 *115:57 *323:16 0.000191266
51 *115:57 *324:24 0.00221578
52 *115:57 *326:14 0.0001084
53 *115:63 *264:10 8.4047e-05
54 *115:69 *3607:D 3.5471e-05
55 *115:69 *117:79 0.000440591
56 *115:69 *117:87 0.000205691
57 *115:69 *170:34 0.000148936
58 *115:69 *324:10 4.95073e-05
59 *115:69 *331:26 0.000818616
60 *115:69 *355:20 8.2832e-05
61 *115:73 *327:20 0.000255452
62 *115:97 *3605:C 1.14452e-05
63 *115:97 *144:46 6.97747e-05
64 *115:97 *170:34 0.000105613
65 *115:97 *218:6 2.35426e-05
66 *115:97 *336:28 1.67942e-05
67 *115:97 *370:56 1.16872e-05
68 wbs_dat_o[24] *115:39 5.0135e-05
69 wbs_dat_o[28] *115:33 1.01436e-05
70 wbs_dat_o[4] *115:69 0.000130779
71 *508:DIODE *115:47 0.000253936
72 *509:DIODE *115:39 0.000166513
73 *511:DIODE *115:97 9.72368e-05
74 *513:DIODE *115:39 0.000116318
75 *3667:A *115:39 0.000237122
76 *31:9 *115:69 0
77 *31:17 *436:DIODE 0.00010018
78 *31:17 *115:73 0.000476721
79 *31:17 *115:97 1.41129e-05
80 *34:5 *115:63 3.83778e-05
81 *52:9 *115:47 0.000228903
82 *52:24 *115:47 0.000140259
83 *54:9 *115:47 0.000487153
84 *56:9 *115:39 0.000225871
85 *59:9 *115:39 0.000103647
86 *84:14 *115:55 6.97656e-05
*RES
1 *3781:DO[11] *115:15 48.6283 
2 *115:15 *115:25 29.46 
3 *115:25 *115:29 47.3943 
4 *115:29 *115:33 22.2189 
5 *115:33 *115:39 46.9414 
6 *115:39 *115:47 35.6729 
7 *115:47 *115:55 33.8321 
8 *115:55 *115:57 112.106 
9 *115:57 *115:63 31.2014 
10 *115:63 *115:69 43.71 
11 *115:69 *115:71 15 
12 *115:71 *115:73 5.38571 
13 *115:73 *436:DIODE 24.0979 
14 *115:73 *425:DIODE 23 
15 *115:71 *115:97 36.0123 
16 *115:97 *3605:D 23 
*END

*D_NET *116 0.0482886
*CONN
*I *458:DIODE I *D sky130_fd_sc_hd__diode_2
*I *3606:D I *D sky130_fd_sc_hd__and4b_2
*I *447:DIODE I *D sky130_fd_sc_hd__diode_2
*I *3781:DO[12] O *D CF_SRAM_1024x32
*CAP
1 *458:DIODE 0
2 *3606:D 5.20164e-05
3 *447:DIODE 0.000344073
4 *3781:DO[12] 0.000662638
5 *116:27 0.000491993
6 *116:23 0.000743687
7 *116:15 0.00438366
8 *116:13 0.00373587
9 *116:11 0.00118942
10 *116:9 0.00185205
11 *447:DIODE *3743:A 9.84851e-05
12 *447:DIODE *246:12 5.50049e-05
13 *447:DIODE *278:18 0.000104051
14 *447:DIODE *327:38 0.00051743
15 *447:DIODE *366:33 0.000188926
16 *447:DIODE *370:38 4.99753e-06
17 *447:DIODE *370:44 6.7177e-06
18 *447:DIODE *370:56 0
19 *3606:D *336:12 9.5877e-05
20 *3606:D *366:42 9.75779e-05
21 *3606:D *370:38 4.45778e-05
22 *116:9 *3781:DI[12] 0
23 *116:11 *118:11 0.00244069
24 *116:11 *129:19 4.26813e-05
25 *116:11 *130:19 0.000291393
26 *116:11 *143:43 0.00336221
27 *116:11 *177:46 0.000666843
28 *116:11 *182:26 0.000353192
29 *116:15 *118:13 0.0161791
30 *116:15 *124:17 0.000630948
31 *116:15 *139:17 0.00125615
32 *116:15 *145:61 0.000387811
33 *116:15 *145:63 0.00238772
34 *116:15 *162:12 0.00396119
35 *116:15 *303:28 0.000216239
36 *116:15 *361:48 0.000554145
37 *116:23 *3604:A_N 2.0835e-05
38 *116:23 *3609:C 5.3304e-05
39 *116:23 *118:19 0
40 *116:23 *143:59 0
41 *116:23 *144:25 0
42 *116:23 *327:38 4.9075e-05
43 *116:23 *327:57 6.12496e-06
44 *116:23 *337:6 1.21972e-05
45 *116:23 *368:10 0.000106645
46 *116:23 *368:14 3.18198e-05
47 *116:23 *369:10 0.000150887
48 *116:27 *327:38 7.44729e-05
49 *116:27 *368:14 7.68979e-05
50 *116:27 *370:38 1.34336e-05
51 *3604:D *116:23 0
52 *114:21 *116:23 0
53 *115:15 *116:11 0.00029356
*RES
1 *3781:DO[12] *116:9 24.0625 
2 *116:9 *116:11 54.375 
3 *116:11 *116:13 15 
4 *116:13 *116:15 177.376 
5 *116:15 *116:23 41.8071 
6 *116:23 *116:27 16.7296 
7 *116:27 *447:DIODE 47.3525 
8 *116:27 *3606:D 39.7711 
9 *116:23 *458:DIODE 23 
*END

*D_NET *117 0.0570341
*CONN
*I *3607:D I *D sky130_fd_sc_hd__and4b_2
*I *469:DIODE I *D sky130_fd_sc_hd__diode_2
*I *3781:DO[13] O *D CF_SRAM_1024x32
*CAP
1 *3607:D 0.000310794
2 *469:DIODE 0
3 *3781:DO[13] 0.00133972
4 *117:87 0.000502087
5 *117:83 0.00163566
6 *117:79 0.00278475
7 *117:69 0.00173234
8 *117:59 0.00224972
9 *117:57 0.00388404
10 *117:43 0.00339597
11 *117:29 0.00265098
12 *117:25 0.00177119
13 *117:21 0.00080212
14 *117:15 0.000881696
15 *117:9 0.00190919
16 *3607:D *3605:A_N 0.000188926
17 *3607:D *3607:C 5.50049e-05
18 *3607:D *3832:A 4.79096e-05
19 *3607:D *170:34 9.39979e-05
20 *3607:D *327:38 0
21 *3607:D *370:38 1.83667e-05
22 *3607:D *370:44 9.04083e-05
23 *117:9 *3781:DI[13] 0
24 *117:15 *166:16 1.47563e-05
25 *117:15 *258:52 5.11935e-06
26 *117:15 *258:56 0.00159468
27 *117:15 *281:70 3.91386e-05
28 *117:15 *281:72 0.00158171
29 *117:15 *350:24 0.000150324
30 *117:21 *119:11 0.00107753
31 *117:21 *281:70 0.000999364
32 *117:21 *304:22 3.08323e-05
33 *117:21 *350:24 0.000206463
34 *117:25 *301:18 0.00022466
35 *117:25 *302:18 2.4754e-05
36 *117:29 *270:36 0.00203282
37 *117:29 *308:16 0.000570563
38 *117:29 *353:14 0
39 *117:43 *459:DIODE 2.15888e-05
40 *117:57 *410:DIODE 8.91192e-05
41 *117:57 *434:DIODE 2.93845e-05
42 *117:57 *3732:A 0.000423625
43 *117:57 *267:8 8.85082e-05
44 *117:57 *325:52 8.54938e-05
45 *117:59 *3690:A 5.72024e-05
46 *117:59 *165:10 0.000317509
47 *117:59 *200:10 0.000238626
48 *117:59 *256:8 0.00061916
49 *117:59 *267:8 7.06229e-05
50 *117:59 *323:16 0.0012419
51 *117:59 *326:14 0.000229759
52 *117:59 *340:22 0.000379469
53 *117:59 *342:20 0.00117286
54 *117:69 *3697:A 5.67058e-05
55 *117:69 *3828:A 5.25848e-05
56 *117:69 *291:8 0.000133649
57 *117:69 *321:16 0.00113624
58 *117:69 *332:30 0.000193412
59 *117:69 *333:34 4.2812e-06
60 *117:69 *336:34 0.000148155
61 *117:79 *324:10 9.03964e-06
62 *117:79 *336:34 0.000137499
63 *117:79 *362:24 0.000352485
64 *117:83 *323:14 0.00187323
65 *117:87 *250:8 0.000123096
66 wbs_dat_o[15] *117:59 0.000653715
67 wbs_dat_o[19] *117:59 7.92617e-05
68 wbs_dat_o[25] *117:43 0
69 wbs_dat_o[28] *117:43 0.00014196
70 wbs_dat_o[6] *117:79 6.81466e-05
71 *501:DIODE *117:59 0.000196642
72 *522:DIODE *117:59 4.67488e-05
73 *3645:A *117:59 0.000288754
74 *3681:A *117:79 0.000443673
75 *7:21 *117:59 8.70841e-05
76 *31:9 *117:87 0
77 *42:9 *117:59 4.97789e-05
78 *51:9 *117:59 0.000272024
79 *57:9 *117:43 1.6374e-05
80 *59:9 *117:43 1.03836e-05
81 *66:5 *117:79 4.587e-05
82 *69:17 *117:69 0.000168821
83 *75:8 *117:59 8.73027e-05
84 *79:14 *117:59 1.10658e-05
85 *115:29 *117:29 0.000391823
86 *115:33 *117:29 0
87 *115:39 *117:43 0.00109542
88 *115:39 *117:57 0.000533738
89 *115:57 *117:59 0.007481
90 *115:69 *3607:D 3.5471e-05
91 *115:69 *117:79 0.000440591
92 *115:69 *117:87 0.000205691
*RES
1 *3781:DO[13] *117:9 31.6646 
2 *117:9 *117:15 37.8271 
3 *117:15 *117:21 44.2307 
4 *117:21 *117:25 20.8621 
5 *117:25 *117:29 47.5421 
6 *117:29 *117:43 37.765 
7 *117:43 *117:57 46.465 
8 *117:57 *117:59 85.4257 
9 *117:59 *117:69 45.4114 
10 *117:69 *117:79 38.3036 
11 *117:79 *117:83 36.1079 
12 *117:83 *117:87 19.0186 
13 *117:87 *469:DIODE 38 
14 *117:87 *3607:D 44.7529 
*END

*D_NET *118 0.049914
*CONN
*I *3608:D I *D sky130_fd_sc_hd__and4b_2
*I *3781:DO[14] O *D CF_SRAM_1024x32
*CAP
1 *3608:D 0
2 *3781:DO[14] 0.000481448
3 *118:19 0.000539494
4 *118:13 0.0032076
5 *118:11 0.00353401
6 *118:7 0.00134734
7 *118:7 *3781:DI[14] 0.000745726
8 *118:11 *171:20 0.000170892
9 *118:11 *171:32 0.000270492
10 *118:11 *177:42 5.96346e-06
11 *118:11 *177:46 0.000139704
12 *118:11 *182:26 1.03972e-05
13 *118:11 *182:42 0.00175994
14 *118:11 *244:38 1.61501e-05
15 *118:11 *361:56 0
16 *118:13 *139:17 0.00207183
17 *118:13 *144:21 0.0164758
18 *118:13 *361:48 2.1819e-05
19 *118:19 *144:25 0.000186428
20 *118:19 *366:12 3.62558e-05
21 *118:19 *370:10 0.000239649
22 *118:19 *370:14 3.32226e-05
23 *61:19 *118:19 0
24 *116:11 *118:11 0.00244069
25 *116:15 *118:13 0.0161791
26 *116:23 *118:19 0
*RES
1 *3781:DO[14] *118:7 23.6482 
2 *118:7 *118:11 47.8943 
3 *118:11 *118:13 182.141 
4 *118:13 *118:19 42.1179 
5 *118:19 *3608:D 23 
*END

*D_NET *119 0.0481328
*CONN
*I *3609:D I *D sky130_fd_sc_hd__and4b_2
*I *3781:DO[15] O *D CF_SRAM_1024x32
*CAP
1 *3609:D 0
2 *3781:DO[15] 0.00162432
3 *119:57 0.00220594
4 *119:47 0.00307355
5 *119:41 0.00328338
6 *119:33 0.00295648
7 *119:23 0.00316505
8 *119:21 0.00335281
9 *119:15 0.00185192
10 *119:13 0.00112345
11 *119:11 0.00162432
12 *119:11 *3781:DI[15] 0
13 *119:11 *166:16 0.00130779
14 *119:11 *241:52 1.85916e-05
15 *119:11 *281:70 3.3211e-05
16 *119:11 *304:22 5.15971e-05
17 *119:11 *381:16 0.000200208
18 *119:15 *130:43 0.000257613
19 *119:15 *143:53 7.75522e-05
20 *119:15 *143:55 6.80488e-05
21 *119:15 *149:24 0.000130187
22 *119:15 *159:30 0.00238056
23 *119:15 *199:12 0
24 *119:15 *304:16 1.61361e-05
25 *119:15 *306:42 0.00163685
26 *119:21 *164:40 4.15283e-06
27 *119:21 *241:28 0.000866624
28 *119:21 *328:44 0
29 *119:23 *177:14 0.00213793
30 *119:23 *241:18 0.000250359
31 *119:23 *244:20 0.000343684
32 *119:23 *244:24 0.000653907
33 *119:33 *123:27 1.79747e-05
34 *119:33 *164:26 0.00161731
35 *119:33 *241:18 3.54739e-05
36 *119:33 *244:14 0.000868794
37 *119:33 *322:26 0.000103653
38 *119:33 *371:94 8.51239e-05
39 *119:41 *3766:A 2.24654e-05
40 *119:41 *164:20 0.00100643
41 *119:41 *164:26 0.000115903
42 *119:41 *181:52 0.0008022
43 *119:41 *244:14 0.000301931
44 *119:41 *337:32 9.61658e-05
45 *119:47 *3630:A_N 0.000222898
46 *119:47 *181:52 0.00130068
47 *119:47 *328:18 0.000460358
48 *119:47 *367:31 0.000119491
49 *119:47 *368:166 2.02872e-05
50 *119:47 *371:29 0.000117259
51 *119:47 *371:41 5.52998e-05
52 *119:47 *371:52 0.0026206
53 *119:57 *144:25 7.44362e-05
54 *119:57 *170:52 4.55635e-05
55 *119:57 *329:56 5.01076e-05
56 *119:57 *332:20 0.000986462
57 *119:57 *337:18 3.12959e-05
58 *119:57 *367:18 0.00107597
59 *119:57 *370:10 7.71315e-05
60 *119:57 *371:29 2.77796e-05
61 *117:21 *119:11 0.00107753
*RES
1 *3781:DO[15] *119:11 48.4927 
2 *119:11 *119:13 15 
3 *119:13 *119:15 35.4007 
4 *119:15 *119:21 42.8221 
5 *119:21 *119:23 40.6414 
6 *119:23 *119:33 49.8236 
7 *119:33 *119:41 37.1304 
8 *119:41 *119:47 49.0336 
9 *119:47 *119:57 36.8899 
10 *119:57 *3609:D 23 
*END

*D_NET *120 0.0763507
*CONN
*I *3610:D I *D sky130_fd_sc_hd__and4b_1
*I *480:DIODE I *D sky130_fd_sc_hd__diode_2
*I *3781:DO[16] O *D CF_SRAM_1024x32
*CAP
1 *3610:D 7.38088e-05
2 *480:DIODE 0
3 *3781:DO[16] 0.00166876
4 *120:56 0.000253714
5 *120:52 0.00078064
6 *120:48 0.000669844
7 *120:42 0.000850471
8 *120:34 0.00146862
9 *120:22 0.0026436
10 *120:20 0.00195635
11 *120:18 0.00540625
12 *120:16 0.00706954
13 *120:4 5.46989e-06
14 *3610:D *312:46 2.18286e-05
15 *3610:D *318:14 0.000284509
16 *3610:D *367:74 0.000225245
17 *120:16 *3781:ScanInDR 0.000603747
18 *120:16 *3781:DI[16] 0.000801114
19 *120:18 *121:22 0.0182011
20 *120:18 *135:21 0.00219552
21 *120:18 *137:13 0
22 *120:22 *462:DIODE 6.39665e-05
23 *120:22 *463:DIODE 1.83327e-05
24 *120:22 *476:DIODE 7.32785e-05
25 *120:22 *3621:A_N 0.000816346
26 *120:22 *3621:C 1.56446e-05
27 *120:22 *3621:D 0.000195596
28 *120:22 *349:8 0.000981345
29 *120:22 *352:8 0.000694843
30 *120:22 *369:153 0.000111921
31 *120:34 *125:25 0.00147338
32 *120:34 *128:43 0
33 *120:34 *135:27 0.00147376
34 *120:34 *159:26 4.63708e-05
35 *120:34 *301:10 8.49387e-06
36 *120:34 *347:8 8.81675e-05
37 *120:34 *348:16 2.48259e-05
38 *120:42 *3808:A 0.000313249
39 *120:42 *121:54 0.00116704
40 *120:42 *148:38 1.41129e-05
41 *120:42 *258:30 0.00014196
42 *120:42 *301:6 0.000614963
43 *120:42 *361:28 0.00145574
44 *120:52 *141:15 0.000297951
45 *120:52 *320:14 0.0014444
46 *120:52 *341:18 0.000690104
47 *120:52 *361:16 0.00286882
48 *120:52 *361:28 0.000181967
49 *120:56 *319:18 0
50 *120:56 *324:34 0
51 *113:11 *120:18 0.0153619
52 *113:31 *120:52 0.000532091
*RES
1 *3781:DO[16] *120:4 0.165714 
2 *3781:DO[16] *120:16 46.755 
3 *120:16 *120:18 239.954 
4 *120:18 *120:20 15 
5 *120:20 *120:22 41.1179 
6 *120:22 *120:34 36.9109 
7 *120:34 *120:42 42.9436 
8 *120:42 *120:48 30.8493 
9 *120:48 *120:52 48.9714 
10 *120:52 *120:56 17.2579 
11 *120:56 *480:DIODE 23 
12 *120:56 *3610:D 26.7752 
*END

*D_NET *121 0.0781457
*CONN
*I *394:DIODE I *D sky130_fd_sc_hd__diode_2
*I *3611:D I *D sky130_fd_sc_hd__and4b_1
*I *385:DIODE I *D sky130_fd_sc_hd__diode_2
*I *3781:DO[17] O *D CF_SRAM_1024x32
*CAP
1 *394:DIODE 0
2 *3611:D 4.41666e-05
3 *385:DIODE 2.09667e-05
4 *3781:DO[17] 0.00166858
5 *121:60 0.000304757
6 *121:54 0.0026997
7 *121:52 0.00246008
8 *121:50 0.00105593
9 *121:44 0.00112746
10 *121:38 0.000610933
11 *121:30 0.00288045
12 *121:24 0.00234104
13 *121:22 0.00556389
14 *121:20 0.00722367
15 *121:4 8.80585e-06
16 *385:DIODE *367:74 5.67058e-05
17 *385:DIODE *367:95 5.50049e-05
18 *385:DIODE *371:70 9.84794e-05
19 *3611:D *367:95 0.000157758
20 *3611:D *371:70 9.84851e-05
21 *3611:D *371:79 9.61603e-05
22 *121:20 *3781:WLBI 0.0007075
23 *121:20 *3781:DI[17] 3.34129e-05
24 *121:20 *377:10 0.000960633
25 *121:22 *131:11 0.0180019
26 *121:22 *135:21 0.00250941
27 *121:22 *137:13 0
28 *121:22 *186:26 0
29 *121:22 *309:10 0
30 *121:22 *327:126 0
31 *121:30 *440:DIODE 0.00022034
32 *121:30 *465:DIODE 5.56279e-05
33 *121:30 *3752:A 2.32004e-05
34 *121:30 *258:30 0.000200042
35 *121:30 *301:6 0.000272913
36 *121:30 *347:14 4.21281e-05
37 *121:38 *135:27 0.000104089
38 *121:38 *301:6 0.000241539
39 *121:38 *306:22 0
40 *121:38 *361:28 0.000226923
41 *121:44 *129:43 0.000104454
42 *121:44 *129:45 1.05441e-05
43 *121:44 *148:48 0.000102363
44 *121:50 *3616:D 2.55972e-05
45 *121:50 *3617:D 0.000197248
46 *121:50 *3618:D 5.3304e-05
47 *121:50 *125:25 0.00010109
48 *121:50 *236:38 0
49 *121:50 *344:14 0.000225325
50 *121:50 *345:10 0.000176534
51 *121:50 *346:10 9.64943e-05
52 *121:50 *367:140 0.000224956
53 *121:50 *367:147 0.000520792
54 *121:50 *367:156 0.000231431
55 *121:50 *367:163 1.56446e-05
56 *121:50 *369:132 0.000108585
57 *121:54 *141:15 0.000130115
58 *121:54 *337:50 0.000530622
59 *121:54 *361:16 0.000813772
60 *121:54 *361:28 0.000165383
61 *121:60 *337:40 1.34354e-05
62 *121:60 *338:14 0.000226489
63 *113:11 *121:22 7.59667e-05
64 *113:15 *121:30 0.00245466
65 *120:18 *121:22 0.0182011
66 *120:42 *121:54 0.00116704
*RES
1 *3781:DO[17] *121:4 0.186429 
2 *3781:DO[17] *121:20 46.9207 
3 *121:20 *121:22 253.688 
4 *121:22 *121:24 15 
5 *121:24 *121:30 43.6657 
6 *121:30 *121:38 38.3893 
7 *121:38 *121:44 31.5536 
8 *121:44 *121:50 37.5164 
9 *121:50 *121:52 15 
10 *121:52 *121:54 37.7829 
11 *121:54 *121:60 34.0186 
12 *121:60 *385:DIODE 24.0979 
13 *121:60 *3611:D 25.1802 
14 *121:54 *394:DIODE 23 
*END

*D_NET *122 0.0667331
*CONN
*I *3612:D I *D sky130_fd_sc_hd__and4b_1
*I *395:DIODE I *D sky130_fd_sc_hd__diode_2
*I *3781:DO[18] O *D CF_SRAM_1024x32
*CAP
1 *3612:D 1.02776e-05
2 *395:DIODE 0.000291136
3 *3781:DO[18] 0.000709785
4 *122:27 0.00318344
5 *122:19 0.0112078
6 *122:17 0.00903555
7 *395:DIODE *320:26 0
8 *395:DIODE *367:95 1.59071e-05
9 *395:DIODE *367:99 0.000233359
10 *395:DIODE *369:72 4.80465e-05
11 *3612:D *369:83 2.35426e-05
12 *3612:D *371:86 2.35426e-05
13 *122:17 *3781:DI[18] 0
14 *122:17 *248:39 0.000127918
15 *122:19 *123:19 0.0190536
16 *122:19 *125:19 1.58513e-05
17 *122:19 *130:33 0.0018001
18 *122:19 *130:37 0.000323794
19 *122:19 *132:19 0.000261379
20 *122:19 *133:11 0.00198152
21 *122:19 *142:11 0.000569016
22 *122:19 *143:21 0.000936121
23 *122:19 *143:35 0.000320392
24 *122:19 *146:16 0.00260878
25 *122:27 *123:27 0.00626725
26 *122:27 *124:17 0.00685061
27 *122:27 *139:17 6.46742e-05
28 *122:27 *162:22 4.47499e-05
29 *122:27 *188:8 0
30 *122:27 *199:8 0
31 *122:27 *199:12 0.000724966
32 *122:27 *320:26 0
33 *122:27 *321:26 0
*RES
1 *3781:DO[18] *122:17 36.7055 
2 *122:17 *122:19 44.3557 
3 *122:19 *122:27 41.7967 
4 *122:27 *395:DIODE 42.5571 
5 *122:27 *3612:D 38.2745 
*END

*D_NET *123 0.0712059
*CONN
*I *3613:D I *D sky130_fd_sc_hd__and4b_1
*I *396:DIODE I *D sky130_fd_sc_hd__diode_2
*I *3781:DO[19] O *D CF_SRAM_1024x32
*CAP
1 *3613:D 0.000103194
2 *396:DIODE 0.000131164
3 *3781:DO[19] 0.000472045
4 *123:27 0.00350129
5 *123:19 0.00768846
6 *123:17 0.00489357
7 *396:DIODE *321:26 4.55634e-05
8 *396:DIODE *322:26 1.34354e-05
9 *396:DIODE *341:10 4.98755e-05
10 *3613:D *3613:A_N 0
11 *3613:D *3613:C 4.17736e-05
12 *3613:D *367:112 0.000204822
13 *3613:D *369:83 9.84851e-05
14 *123:17 *3781:DI[19] 2.72257e-05
15 *123:17 *248:51 2.11066e-05
16 *123:19 *125:19 0.000162164
17 *123:19 *126:19 0.0197676
18 *123:19 *132:11 0.00265193
19 *123:19 *133:11 0.000120147
20 *123:19 *138:19 0.00139465
21 *123:19 *138:23 0.000407964
22 *123:19 *142:27 0.000472417
23 *123:27 *126:27 0
24 *123:27 *149:24 0.000576275
25 *123:27 *162:22 0.00117838
26 *123:27 *188:8 0
27 *123:27 *241:18 5.02657e-05
28 *123:27 *321:26 0.000128519
29 *123:27 *322:26 8.94232e-05
30 *123:27 *328:26 6.97776e-05
31 *123:27 *328:48 0.000100139
32 *123:27 *369:97 1.09886e-05
33 *123:27 *371:94 0.000124075
34 *112:10 *123:19 0.00127034
35 *119:33 *123:27 1.79747e-05
36 *122:19 *123:19 0.0190536
37 *122:27 *123:27 0.00626725
*RES
1 *3781:DO[19] *123:17 33.9652 
2 *123:17 *123:19 46.6405 
3 *123:19 *123:27 41.9173 
4 *123:27 *396:DIODE 40.2579 
5 *123:27 *3613:D 40.6773 
*END

*D_NET *124 0.0732196
*CONN
*I *397:DIODE I *D sky130_fd_sc_hd__diode_2
*I *387:DIODE I *D sky130_fd_sc_hd__diode_2
*I *3627:D I *D sky130_fd_sc_hd__and4b_1
*I *3781:DO[1] O *D CF_SRAM_1024x32
*CAP
1 *397:DIODE 0
2 *387:DIODE 7.57602e-05
3 *3627:D 7.91796e-05
4 *3781:DO[1] 0.000216078
5 *124:65 0.000286189
6 *124:44 0.000491286
7 *124:29 0.0013641
8 *124:17 0.00590894
9 *124:11 0.00763661
10 *124:9 0.00309933
11 *387:DIODE *355:14 9.41704e-05
12 *387:DIODE *365:6 6.70361e-05
13 *3627:D *366:134 2.69898e-06
14 *3627:D *366:145 1.55117e-05
15 *124:9 *3781:DI[1] 0.000311202
16 *124:11 *126:19 0.00202494
17 *124:11 *132:11 0.000184734
18 *124:11 *138:19 0.00767156
19 *124:11 *138:23 1.5037e-05
20 *124:11 *142:27 0.00324999
21 *124:11 *151:26 0.0128715
22 *124:11 *164:52 0.000488382
23 *124:11 *303:28 0.000149043
24 *124:17 *139:17 0.0140716
25 *124:17 *145:61 0.00011373
26 *124:17 *162:12 0.000546508
27 *124:29 *478:DIODE 0.000134281
28 *124:29 *3627:A_N 5.3304e-05
29 *124:29 *3628:A_N 8.21123e-05
30 *124:29 *3630:A_N 0.000172869
31 *124:29 *138:39 9.92701e-05
32 *124:29 *187:14 0
33 *124:29 *315:32 4.30723e-05
34 *124:29 *331:14 0.000118801
35 *124:29 *366:145 8.99229e-05
36 *124:29 *370:170 0
37 *124:29 *371:29 0
38 *124:29 *371:41 5.79559e-05
39 *124:44 *3628:B 5.82622e-06
40 *124:44 *331:14 0.000127002
41 *124:44 *359:14 0.000151697
42 *124:65 *3867:A 1.33899e-05
43 *124:65 *141:15 0.000596399
44 *124:65 *198:8 9.28078e-06
45 *124:65 *329:38 1.01027e-05
46 *124:65 *360:12 0.000598423
47 *3626:D *124:29 0.000187444
48 *3661:A *124:65 1.05441e-05
49 *112:10 *124:11 0.00210784
50 *113:55 *124:29 3.33082e-05
51 *116:15 *124:17 0.000630948
52 *122:27 *124:17 0.00685061
*RES
1 *3781:DO[1] *124:9 19.6504 
2 *124:9 *124:11 178.857 
3 *124:11 *124:17 42.4171 
4 *124:17 *124:29 36.1804 
5 *124:29 *3627:D 24.248 
6 *124:29 *124:44 17.8793 
7 *124:44 *387:DIODE 39.5743 
8 *124:44 *124:65 32.8455 
9 *124:65 *397:DIODE 23 
*END

*D_NET *125 0.0709373
*CONN
*I *398:DIODE I *D sky130_fd_sc_hd__diode_2
*I *3614:D I *D sky130_fd_sc_hd__and4b_1
*I *3781:DO[20] O *D CF_SRAM_1024x32
*CAP
1 *398:DIODE 0.000195774
2 *3614:D 6.92749e-05
3 *3781:DO[20] 0.000324326
4 *125:25 0.00315578
5 *125:19 0.00801201
6 *125:17 0.00544561
7 *398:DIODE *367:112 3.22051e-05
8 *398:DIODE *367:121 7.34077e-05
9 *3614:D *203:14 2.01195e-05
10 *3614:D *214:24 0
11 *3614:D *367:121 2.35426e-05
12 *125:17 *3781:DI[20] 0
13 *125:17 *248:63 2.11066e-05
14 *125:19 *3781:BEN[8] 0.000161888
15 *125:19 *126:19 0.0205682
16 *125:19 *127:19 0.021871
17 *125:19 *128:23 0.000167433
18 *125:19 *138:15 0.000141157
19 *125:19 *142:23 0.000360869
20 *125:19 *155:10 0.000242841
21 *125:19 *164:40 0.000183334
22 *125:19 *164:52 0.00200227
23 *125:19 *241:52 0.000129592
24 *125:19 *241:64 0.000113946
25 *125:19 *241:138 0.000138759
26 *125:19 *244:62 0.000135375
27 *125:19 *244:74 0.000187416
28 *125:25 *127:25 0.00350872
29 *125:25 *135:27 0.00186156
30 *125:25 *148:48 3.7391e-05
31 *120:34 *125:25 0.00147338
32 *121:50 *125:25 0.00010109
33 *122:19 *125:19 1.58513e-05
34 *123:19 *125:19 0.000162164
*RES
1 *3781:DO[20] *125:17 34.3467 
2 *125:17 *125:19 51.2101 
3 *125:19 *125:25 25.716 
4 *125:25 *3614:D 39.2998 
5 *125:25 *398:DIODE 41.0036 
*END

*D_NET *126 0.071744
*CONN
*I *3615:D I *D sky130_fd_sc_hd__and4b_1
*I *399:DIODE I *D sky130_fd_sc_hd__diode_2
*I *3781:DO[21] O *D CF_SRAM_1024x32
*CAP
1 *3615:D 1.87743e-05
2 *399:DIODE 0.000323154
3 *3781:DO[21] 0.000387679
4 *126:27 0.00342913
5 *126:19 0.00772124
6 *126:17 0.00502172
7 *399:DIODE *225:20 2.50707e-05
8 *399:DIODE *344:8 0.000313249
9 *3615:D *344:8 8.66657e-05
10 *3615:D *367:140 8.66657e-05
11 *126:17 *3781:DI[21] 0
12 *126:17 *248:75 2.11066e-05
13 *126:19 *127:19 0.00050187
14 *126:19 *151:26 0.00232846
15 *126:19 *155:10 0.000816802
16 *126:19 *195:34 0.000524381
17 *126:27 *3781:vpwrpc 0.00213876
18 *126:27 *3781:vpwrac 6.04745e-05
19 *126:27 *138:31 0.000218828
20 *126:27 *140:15 0.000345354
21 *126:27 *142:31 0.000727206
22 *126:27 *143:55 0.00101311
23 *126:27 *149:24 0.000593183
24 *126:27 *171:8 0
25 *126:27 *177:8 3.11575e-05
26 *126:27 *188:14 0.000207844
27 *126:27 *225:20 0.000251621
28 *126:27 *241:28 0.00216918
29 *126:27 *328:36 2.05503e-05
30 *123:19 *126:19 0.0197676
31 *123:27 *126:27 0
32 *124:11 *126:19 0.00202494
33 *125:19 *126:19 0.0205682
*RES
1 *3781:DO[21] *126:17 34.5392 
2 *126:17 *126:19 49.8139 
3 *126:19 *126:27 42.5366 
4 *126:27 *399:DIODE 42.9507 
5 *126:27 *3615:D 38.9684 
*END

*D_NET *127 0.0677542
*CONN
*I *3616:D I *D sky130_fd_sc_hd__and4b_1
*I *400:DIODE I *D sky130_fd_sc_hd__diode_2
*I *3781:DO[22] O *D CF_SRAM_1024x32
*CAP
1 *3616:D 2e-05
2 *400:DIODE 0.00017676
3 *3781:DO[22] 0.000224206
4 *127:25 0.00201648
5 *127:19 0.0139791
6 *127:17 0.0123836
7 *400:DIODE *236:38 7.0318e-05
8 *400:DIODE *346:10 0.000127626
9 *400:DIODE *367:140 5.59378e-06
10 *3616:D *236:38 4.08379e-06
11 *3616:D *367:140 2.76954e-05
12 *3616:D *369:117 9.28078e-06
13 *127:17 *3781:BEN[22] 2.11066e-05
14 *127:17 *3781:DI[22] 0
15 *127:19 *3781:BEN[0] 0.000374831
16 *127:19 *3781:BEN[2] 0.000374831
17 *127:19 *128:11 0.0031519
18 *127:19 *140:11 0.00164904
19 *127:19 *149:24 0.000426035
20 *127:19 *188:28 0.00365008
21 *127:19 *241:122 0.000451623
22 *127:19 *248:27 0.000102381
23 *127:19 *248:51 0.000216327
24 *127:19 *248:63 0.000204763
25 *127:25 *148:48 0.00206574
26 *127:25 *367:147 0.000113661
27 *121:50 *3616:D 2.55972e-05
28 *125:19 *127:19 0.021871
29 *125:25 *127:25 0.00350872
30 *126:19 *127:19 0.00050187
*RES
1 *3781:DO[22] *127:17 34.2164 
2 *127:17 *127:19 55.1451 
3 *127:19 *127:25 22.8824 
4 *127:25 *400:DIODE 41.0554 
5 *127:25 *3616:D 38.5955 
*END

*D_NET *128 0.0700647
*CONN
*I *409:DIODE I *D sky130_fd_sc_hd__diode_2
*I *411:DIODE I *D sky130_fd_sc_hd__diode_2
*I *412:DIODE I *D sky130_fd_sc_hd__diode_2
*I *407:DIODE I *D sky130_fd_sc_hd__diode_2
*I *405:DIODE I *D sky130_fd_sc_hd__diode_2
*I *402:DIODE I *D sky130_fd_sc_hd__diode_2
*I *3617:D I *D sky130_fd_sc_hd__and4b_1
*I *401:DIODE I *D sky130_fd_sc_hd__diode_2
*I *404:DIODE I *D sky130_fd_sc_hd__diode_2
*I *406:DIODE I *D sky130_fd_sc_hd__diode_2
*I *408:DIODE I *D sky130_fd_sc_hd__diode_2
*I *410:DIODE I *D sky130_fd_sc_hd__diode_2
*I *3781:DO[23] O *D CF_SRAM_1024x32
*CAP
1 *409:DIODE 0
2 *411:DIODE 0
3 *412:DIODE 6.20076e-05
4 *407:DIODE 0
5 *405:DIODE 0
6 *402:DIODE 0
7 *3617:D 3.19009e-05
8 *401:DIODE 0
9 *404:DIODE 0
10 *406:DIODE 0
11 *408:DIODE 0
12 *410:DIODE 0.000479864
13 *3781:DO[23] 0.000202802
14 *128:124 0.00013064
15 *128:122 6.86324e-05
16 *128:49 0.000631269
17 *128:47 0.000209085
18 *128:45 0.000233725
19 *128:43 0.000508219
20 *128:37 0.000543536
21 *128:35 0.000550485
22 *128:33 0.000448378
23 *128:29 0.000407867
24 *128:23 0.0024401
25 *128:11 0.00783663
26 *128:9 0.00592985
27 *410:DIODE *259:22 1.05441e-05
28 *410:DIODE *267:8 5.70419e-05
29 *410:DIODE *270:24 4.77164e-06
30 *412:DIODE *153:16 0.00010018
31 *3617:D *367:156 0.000197248
32 *128:9 *3781:BEN[23] 0
33 *128:9 *3781:DI[23] 0
34 *128:11 *3781:BEN[22] 0.000879258
35 *128:11 *3781:BEN[23] 8.96721e-05
36 *128:11 *3781:WLOFF 0.000102079
37 *128:11 *3781:BEN[12] 0.00075126
38 *128:11 *3781:BEN[8] 0.000871196
39 *128:11 *3781:BEN[0] 0.000890136
40 *128:11 *3781:BEN[2] 0.000466341
41 *128:11 *3781:BEN[4] 0.000924395
42 *128:11 *138:15 0.000673155
43 *128:11 *140:11 0.0088378
44 *128:11 *142:23 0.00176708
45 *128:11 *143:21 0.000353506
46 *128:11 *151:26 1.11421e-05
47 *128:11 *155:10 0.0107055
48 *128:11 *164:52 0.00119806
49 *128:11 *241:52 0.000617564
50 *128:11 *241:64 0.000751309
51 *128:11 *241:126 2.11066e-05
52 *128:11 *241:138 0.00076009
53 *128:11 *244:62 0.000639985
54 *128:11 *244:74 0.000880002
55 *128:11 *244:102 0.000308546
56 *128:11 *244:130 0.000638767
57 *128:11 *248:27 0.000669235
58 *128:11 *248:39 0.000820211
59 *128:11 *248:51 0.000972313
60 *128:11 *248:63 0.00080554
61 *128:11 *248:75 0.000880807
62 *128:23 *140:11 9.39745e-06
63 *128:23 *146:14 0.00263006
64 *128:23 *151:26 0.00159214
65 *128:23 *157:14 0.00122053
66 *128:23 *164:40 0.0015536
67 *128:23 *184:36 0.000264324
68 *128:29 *173:12 0.000270682
69 *128:29 *241:28 0
70 *128:35 *182:20 5.17208e-05
71 *128:43 *148:38 1.14452e-05
72 *128:43 *202:8 1.02029e-05
73 *128:43 *347:8 0
74 *128:45 *148:38 0.000127807
75 *128:45 *202:8 3.53667e-05
76 *128:47 *202:8 4.334e-05
77 *128:49 *202:8 6.07611e-06
78 *128:49 *259:22 0.000119498
79 *128:49 *270:24 4.89664e-05
80 *128:49 *339:28 0
81 *128:124 *153:16 8.52481e-05
82 *52:24 *410:DIODE 7.7501e-06
83 *53:9 *410:DIODE 0
84 *84:14 *410:DIODE 0
85 *115:55 *410:DIODE 0
86 *117:57 *410:DIODE 8.91192e-05
87 *120:34 *128:43 0
88 *121:50 *3617:D 0.000197248
89 *125:19 *128:23 0.000167433
90 *127:19 *128:11 0.0031519
*RES
1 *3781:DO[23] *128:9 18.77 
2 *128:9 *128:11 285.557 
3 *128:11 *128:23 44.5189 
4 *128:23 *128:29 19.9093 
5 *128:29 *128:33 16.2014 
6 *128:33 *128:35 4.72286 
7 *128:35 *128:37 2.25786 
8 *128:37 *128:43 4.43286 
9 *128:43 *128:45 2.96214 
10 *128:45 *128:47 1.20143 
11 *128:47 *128:49 2.96214 
12 *128:49 *410:DIODE 44.4836 
13 *128:49 *408:DIODE 38 
14 *128:47 *406:DIODE 38 
15 *128:45 *404:DIODE 38 
16 *128:43 *401:DIODE 38 
17 *128:37 *3617:D 40.1802 
18 *128:35 *402:DIODE 38 
19 *128:33 *405:DIODE 38 
20 *128:29 *407:DIODE 23 
21 *128:23 *128:122 15 
22 *128:122 *128:124 1.09786 
23 *128:124 *412:DIODE 24.0979 
24 *128:124 *411:DIODE 23 
25 *128:122 *409:DIODE 23 
*END

*D_NET *129 0.0684154
*CONN
*I *421:DIODE I *D sky130_fd_sc_hd__diode_2
*I *423:DIODE I *D sky130_fd_sc_hd__diode_2
*I *424:DIODE I *D sky130_fd_sc_hd__diode_2
*I *419:DIODE I *D sky130_fd_sc_hd__diode_2
*I *417:DIODE I *D sky130_fd_sc_hd__diode_2
*I *415:DIODE I *D sky130_fd_sc_hd__diode_2
*I *3618:D I *D sky130_fd_sc_hd__and4b_1
*I *413:DIODE I *D sky130_fd_sc_hd__diode_2
*I *416:DIODE I *D sky130_fd_sc_hd__diode_2
*I *418:DIODE I *D sky130_fd_sc_hd__diode_2
*I *420:DIODE I *D sky130_fd_sc_hd__diode_2
*I *422:DIODE I *D sky130_fd_sc_hd__diode_2
*I *3781:DO[24] O *D CF_SRAM_1024x32
*CAP
1 *421:DIODE 0
2 *423:DIODE 0
3 *424:DIODE 0
4 *419:DIODE 0
5 *417:DIODE 0
6 *415:DIODE 0
7 *3618:D 8.76736e-05
8 *413:DIODE 0
9 *416:DIODE 0
10 *418:DIODE 0
11 *420:DIODE 0
12 *422:DIODE 0.000135953
13 *3781:DO[24] 0.000355981
14 *129:49 0.000267251
15 *129:47 0.000210902
16 *129:45 0.00036729
17 *129:43 0.000404834
18 *129:41 0.00037858
19 *129:39 0.000491188
20 *129:37 0.00038595
21 *129:33 0.000146719
22 *129:31 0.000150024
23 *129:29 0.000126431
24 *129:27 0.00133522
25 *129:19 0.00293626
26 *129:17 0.0017014
27 *129:11 0.00537143
28 *129:9 0.00568166
29 *422:DIODE *207:8 0.000206403
30 *3618:D *367:163 0.000195602
31 *129:9 *3781:DI[24] 0.000243094
32 *129:11 *3781:DI[9] 0.000183922
33 *129:11 *130:11 0.0191324
34 *129:11 *133:11 0
35 *129:11 *143:31 0.00101739
36 *129:11 *162:24 0.000123192
37 *129:11 *182:62 0.0017642
38 *129:11 *190:18 0.00861575
39 *129:11 *206:10 0.00114524
40 *129:17 *130:19 9.05428e-05
41 *129:19 *130:19 0.00118164
42 *129:19 *132:23 0.00173384
43 *129:19 *132:29 0.000588231
44 *129:19 *143:43 0.003359
45 *129:19 *162:24 1.7415e-05
46 *129:19 *182:26 0.000667283
47 *129:19 *182:52 0.00287462
48 *129:27 *441:DIODE 9.77405e-05
49 *129:27 *131:27 0.000301116
50 *129:27 *131:29 9.67842e-05
51 *129:27 *131:44 9.67842e-05
52 *129:27 *173:12 0.00100104
53 *129:27 *173:16 8.74886e-05
54 *129:27 *184:40 0.00109652
55 *129:27 *186:22 0.000554827
56 *129:29 *173:12 0.00010018
57 *129:31 *173:12 9.5877e-05
58 *129:33 *173:12 9.77405e-05
59 *129:37 *241:28 3.76761e-05
60 *129:39 *164:40 0.000206569
61 *129:39 *241:28 3.86028e-05
62 *129:41 *148:48 1.84196e-05
63 *129:43 *148:48 8.30566e-06
64 *129:45 *148:48 4.24693e-05
65 *129:45 *207:8 3.5259e-05
66 *129:47 *207:8 0.000135701
67 *129:49 *207:8 0.000206998
68 wbs_dat_o[22] *422:DIODE 4.89603e-05
69 wbs_dat_o[22] *129:47 2.9086e-05
70 wbs_dat_o[22] *129:49 4.66421e-05
71 *113:27 *129:45 4.91011e-05
72 *116:11 *129:19 4.26813e-05
73 *121:44 *129:43 0.000104454
74 *121:44 *129:45 1.05441e-05
75 *121:50 *3618:D 5.3304e-05
*RES
1 *3781:DO[24] *129:9 22.975 
2 *129:9 *129:11 249.462 
3 *129:11 *129:17 31.2014 
4 *129:17 *129:19 70.9257 
5 *129:19 *129:27 41.5143 
6 *129:27 *129:29 1.09786 
7 *129:29 *129:31 1.09786 
8 *129:31 *129:33 1.09786 
9 *129:33 *129:37 16.2014 
10 *129:37 *129:39 4.72286 
11 *129:39 *129:41 2.25786 
12 *129:41 *129:43 1.90571 
13 *129:43 *129:45 4.01857 
14 *129:45 *129:47 1.90571 
15 *129:47 *129:49 2.96214 
16 *129:49 *422:DIODE 40.9621 
17 *129:49 *420:DIODE 38 
18 *129:47 *418:DIODE 38 
19 *129:45 *416:DIODE 38 
20 *129:43 *413:DIODE 38 
21 *129:41 *3618:D 40.1802 
22 *129:39 *415:DIODE 38 
23 *129:37 *417:DIODE 38 
24 *129:33 *419:DIODE 23 
25 *129:31 *424:DIODE 23 
26 *129:29 *423:DIODE 23 
27 *129:27 *421:DIODE 23 
*END

*D_NET *130 0.0673058
*CONN
*I *433:DIODE I *D sky130_fd_sc_hd__diode_2
*I *435:DIODE I *D sky130_fd_sc_hd__diode_2
*I *437:DIODE I *D sky130_fd_sc_hd__diode_2
*I *431:DIODE I *D sky130_fd_sc_hd__diode_2
*I *429:DIODE I *D sky130_fd_sc_hd__diode_2
*I *427:DIODE I *D sky130_fd_sc_hd__diode_2
*I *3619:D I *D sky130_fd_sc_hd__and4b_1
*I *426:DIODE I *D sky130_fd_sc_hd__diode_2
*I *428:DIODE I *D sky130_fd_sc_hd__diode_2
*I *430:DIODE I *D sky130_fd_sc_hd__diode_2
*I *432:DIODE I *D sky130_fd_sc_hd__diode_2
*I *434:DIODE I *D sky130_fd_sc_hd__diode_2
*I *3781:DO[25] O *D CF_SRAM_1024x32
*CAP
1 *433:DIODE 0
2 *435:DIODE 0
3 *437:DIODE 0
4 *431:DIODE 4.67836e-05
5 *429:DIODE 0
6 *427:DIODE 0
7 *3619:D 9.02642e-05
8 *426:DIODE 0
9 *428:DIODE 4.24857e-05
10 *430:DIODE 4.24857e-05
11 *432:DIODE 4.74786e-05
12 *434:DIODE 0.00027023
13 *3781:DO[25] 0.000539575
14 *130:73 0.000537306
15 *130:71 0.000346582
16 *130:69 0.000487509
17 *130:65 0.000516301
18 *130:63 0.000533253
19 *130:61 0.000416056
20 *130:59 0.000301546
21 *130:55 0.00035869
22 *130:49 0.00019893
23 *130:47 0.000125216
24 *130:45 6.54899e-05
25 *130:43 0.000805648
26 *130:37 0.00131839
27 *130:33 0.00205989
28 *130:19 0.00194194
29 *130:11 0.00684451
30 *130:9 0.00698929
31 *428:DIODE *317:44 5.50106e-05
32 *430:DIODE *292:20 5.50106e-05
33 *431:DIODE *153:16 3.54739e-05
34 *431:DIODE *304:10 0
35 *431:DIODE *328:44 9.96021e-06
36 *432:DIODE *281:34 2.86398e-05
37 *434:DIODE *159:26 0
38 *434:DIODE *325:52 2.30292e-05
39 *3619:D *3619:A_N 6.17437e-06
40 *3619:D *348:8 0.000238313
41 *3619:D *369:146 6.87362e-05
42 *3619:D *369:153 1.74103e-05
43 *130:9 *3781:BEN[24] 0
44 *130:9 *3781:DI[25] 0
45 *130:9 *251:12 0
46 *130:11 *133:11 0
47 *130:11 *182:58 0.00149597
48 *130:11 *201:10 0.000310191
49 *130:11 *204:10 0
50 *130:11 *210:10 0
51 *130:11 *217:10 0
52 *130:11 *232:10 0.00877712
53 *130:11 *237:10 0.000343207
54 *130:19 *241:122 4.80465e-05
55 *130:33 *162:24 0.000277518
56 *130:37 *138:23 0.00152093
57 *130:37 *142:27 6.07098e-05
58 *130:37 *146:16 0.00188767
59 *130:37 *303:28 0.000241187
60 *130:43 *159:26 0.000435583
61 *130:43 *177:30 0.000390942
62 *130:43 *258:36 0.000180218
63 *130:43 *301:10 0
64 *130:43 *304:16 0.00146957
65 *130:43 *306:42 0.000105769
66 *130:47 *186:18 8.34394e-05
67 *130:49 *186:18 9.67842e-05
68 *130:55 *304:10 2.50707e-05
69 *130:59 *151:20 1.14452e-05
70 *130:59 *219:28 1.22803e-05
71 *130:59 *304:10 0
72 *130:59 *328:44 6.35135e-05
73 *130:61 *151:20 0.000181626
74 *130:61 *328:44 4.41683e-05
75 *130:63 *151:20 8.4824e-05
76 *130:63 *367:171 0.000121976
77 *130:69 *209:10 0
78 *130:69 *304:10 0
79 *130:69 *306:22 6.61462e-05
80 *130:71 *209:10 0
81 *130:71 *304:10 0
82 *130:73 *159:26 0
83 *130:73 *209:10 0
84 *130:73 *281:34 0
85 *509:DIODE *434:DIODE 0
86 *54:9 *434:DIODE 0
87 *115:15 *130:19 0.000399411
88 *116:11 *130:19 0.000291393
89 *117:57 *434:DIODE 2.93845e-05
90 *119:15 *130:43 0.000257613
91 *122:19 *130:33 0.0018001
92 *122:19 *130:37 0.000323794
93 *129:11 *130:11 0.0191324
94 *129:17 *130:19 9.05428e-05
95 *129:19 *130:19 0.00118164
*RES
1 *3781:DO[25] *130:9 24.5286 
2 *130:9 *130:11 259.674 
3 *130:11 *130:19 47.0168 
4 *130:19 *130:33 36.7861 
5 *130:33 *130:37 39.6189 
6 *130:37 *130:43 37.8271 
7 *130:43 *130:45 15 
8 *130:45 *130:47 1.09786 
9 *130:47 *130:49 1.09786 
10 *130:49 *130:55 16.9471 
11 *130:55 *130:59 2.87929 
12 *130:59 *130:61 2.61 
13 *130:61 *130:63 4.37071 
14 *130:63 *130:65 1.90571 
15 *130:65 *130:69 4.99214 
16 *130:69 *130:71 1.20143 
17 *130:71 *130:73 2.96214 
18 *130:73 *434:DIODE 42.2879 
19 *130:73 *432:DIODE 38.6214 
20 *130:71 *430:DIODE 38.6214 
21 *130:69 *428:DIODE 38.6214 
22 *130:65 *426:DIODE 38 
23 *130:63 *3619:D 41.1538 
24 *130:61 *427:DIODE 38 
25 *130:59 *429:DIODE 38 
26 *130:55 *431:DIODE 39.2014 
27 *130:49 *437:DIODE 23 
28 *130:47 *435:DIODE 23 
29 *130:45 *433:DIODE 23 
*END

*D_NET *131 0.0705824
*CONN
*I *443:DIODE I *D sky130_fd_sc_hd__diode_2
*I *445:DIODE I *D sky130_fd_sc_hd__diode_2
*I *448:DIODE I *D sky130_fd_sc_hd__diode_2
*I *441:DIODE I *D sky130_fd_sc_hd__diode_2
*I *439:DIODE I *D sky130_fd_sc_hd__diode_2
*I *438:DIODE I *D sky130_fd_sc_hd__diode_2
*I *440:DIODE I *D sky130_fd_sc_hd__diode_2
*I *446:DIODE I *D sky130_fd_sc_hd__diode_2
*I *449:DIODE I *D sky130_fd_sc_hd__diode_2
*I *444:DIODE I *D sky130_fd_sc_hd__diode_2
*I *442:DIODE I *D sky130_fd_sc_hd__diode_2
*I *3620:D I *D sky130_fd_sc_hd__and4b_1
*I *3781:DO[26] O *D CF_SRAM_1024x32
*CAP
1 *443:DIODE 0
2 *445:DIODE 0
3 *448:DIODE 0
4 *441:DIODE 7.55307e-05
5 *439:DIODE 0.000122636
6 *438:DIODE 0.000193019
7 *440:DIODE 0.000193019
8 *446:DIODE 0.00016887
9 *449:DIODE 0.000267888
10 *444:DIODE 7.43667e-05
11 *442:DIODE 0
12 *3620:D 0
13 *3781:DO[26] 0.00168859
14 *131:92 0.000701512
15 *131:79 0.000573079
16 *131:68 0.00052821
17 *131:62 0.000561443
18 *131:60 0.000776406
19 *131:56 0.00099723
20 *131:44 0.000507369
21 *131:37 0.000313748
22 *131:29 0.000448079
23 *131:27 0.000708799
24 *131:19 0.00205706
25 *131:11 0.0153896
26 *131:9 0.015662
27 *438:DIODE *349:8 0.00022034
28 *439:DIODE *151:24 0.000137361
29 *444:DIODE *292:20 0.000100069
30 *446:DIODE *281:34 9.06605e-05
31 *449:DIODE *276:18 0.000283224
32 *449:DIODE *281:46 3.71651e-05
33 *449:DIODE *347:24 0.000140313
34 *131:9 *3781:DI[26] 0.000268822
35 *131:11 *135:21 0.00246145
36 *131:11 *136:13 0
37 *131:11 *137:13 0
38 *131:11 *153:22 0
39 *131:11 *186:26 0
40 *131:11 *309:10 0
41 *131:19 *471:DIODE 5.56279e-05
42 *131:19 *145:63 0.000328824
43 *131:19 *199:12 0.000475288
44 *131:19 *199:22 0.000178665
45 *131:19 *304:16 0.00143539
46 *131:19 *328:48 0.000337899
47 *131:27 *177:24 0.000265598
48 *131:27 *281:50 0.000473784
49 *131:37 *182:20 5.47795e-05
50 *131:37 *244:32 1.16872e-05
51 *131:37 *306:32 0.000157705
52 *131:56 *157:14 0.00026437
53 *131:56 *164:40 6.55851e-05
54 *131:56 *301:10 2.91533e-05
55 *131:60 *3620:A_N 5.02454e-05
56 *131:60 *3621:A_N 0.000124066
57 *131:60 *301:10 0.000499467
58 *131:62 *301:10 7.33672e-05
59 *131:68 *301:10 5.80848e-05
60 *131:68 *302:6 0.00021677
61 *131:68 *347:24 0.000144515
62 *131:68 *348:16 6.04227e-05
63 *131:68 *361:38 0.000219094
64 *131:79 *259:48 0
65 *131:79 *302:6 9.77405e-05
66 *131:79 *303:12 0
67 *131:79 *361:38 8.53029e-05
68 *131:92 *276:18 3.32226e-05
69 *131:92 *281:46 8.45703e-05
70 wbs_dat_o[25] *449:DIODE 0
71 *115:39 *449:DIODE 0.000138607
72 *121:22 *131:11 0.0180019
73 *121:30 *440:DIODE 0.00022034
74 *129:27 *441:DIODE 9.77405e-05
75 *129:27 *131:27 0.000301116
76 *129:27 *131:29 9.67842e-05
77 *129:27 *131:44 9.67842e-05
*RES
1 *3781:DO[26] *131:9 44.8527 
2 *131:9 *131:11 338.202 
3 *131:11 *131:19 45.3257 
4 *131:19 *131:27 40.6679 
5 *131:27 *131:29 1.09786 
6 *131:29 *131:37 35.3495 
7 *131:37 *3620:D 23 
8 *131:29 *131:44 1.09786 
9 *131:44 *131:56 32.9176 
10 *131:56 *131:60 8.16143 
11 *131:60 *131:62 1.20143 
12 *131:62 *131:68 20.8414 
13 *131:68 *442:DIODE 23 
14 *131:68 *131:79 18.7079 
15 *131:79 *444:DIODE 39.0979 
16 *131:79 *131:92 4.06 
17 *131:92 *449:DIODE 44.2143 
18 *131:92 *446:DIODE 40.0507 
19 *131:62 *440:DIODE 40.5271 
20 *131:60 *438:DIODE 40.5271 
21 *131:56 *439:DIODE 39.5743 
22 *131:44 *441:DIODE 24.0979 
23 *131:44 *448:DIODE 23 
24 *131:29 *445:DIODE 23 
25 *131:27 *443:DIODE 23 
*END

*D_NET *132 0.0733355
*CONN
*I *461:DIODE I *D sky130_fd_sc_hd__diode_2
*I *457:DIODE I *D sky130_fd_sc_hd__diode_2
*I *460:DIODE I *D sky130_fd_sc_hd__diode_2
*I *455:DIODE I *D sky130_fd_sc_hd__diode_2
*I *453:DIODE I *D sky130_fd_sc_hd__diode_2
*I *451:DIODE I *D sky130_fd_sc_hd__diode_2
*I *3621:D I *D sky130_fd_sc_hd__and4b_1
*I *450:DIODE I *D sky130_fd_sc_hd__diode_2
*I *452:DIODE I *D sky130_fd_sc_hd__diode_2
*I *454:DIODE I *D sky130_fd_sc_hd__diode_2
*I *456:DIODE I *D sky130_fd_sc_hd__diode_2
*I *459:DIODE I *D sky130_fd_sc_hd__diode_2
*I *3781:DO[27] O *D CF_SRAM_1024x32
*CAP
1 *461:DIODE 0.000355064
2 *457:DIODE 0
3 *460:DIODE 0
4 *455:DIODE 0
5 *453:DIODE 0
6 *451:DIODE 0
7 *3621:D 5.94267e-05
8 *450:DIODE 0
9 *452:DIODE 0
10 *454:DIODE 0
11 *456:DIODE 0
12 *459:DIODE 0.000177869
13 *3781:DO[27] 0.000357221
14 *132:51 0.000324434
15 *132:49 0.000289437
16 *132:47 0.000260477
17 *132:45 0.000227629
18 *132:43 0.000369229
19 *132:41 0.000237814
20 *132:39 0.000232801
21 *132:35 0.000267114
22 *132:33 0.00014736
23 *132:29 0.000759849
24 *132:23 0.00141592
25 *132:19 0.000885584
26 *132:11 0.00581577
27 *132:9 0.00566342
28 *459:DIODE *349:14 2.56066e-05
29 *461:DIODE *143:53 9.65021e-05
30 *461:DIODE *182:32 0.000135037
31 *461:DIODE *259:56 0.000184117
32 *461:DIODE *301:18 5.21801e-05
33 *3621:D *3621:C 0.000140308
34 *132:9 *3781:DI[27] 0
35 *132:11 *133:11 0.0184995
36 *132:11 *138:19 0.00761597
37 *132:11 *142:11 0.00311862
38 *132:11 *143:35 0.00157566
39 *132:11 *146:16 5.8103e-05
40 *132:11 *155:10 0
41 *132:11 *212:26 0.00395757
42 *132:11 *230:24 0
43 *132:19 *138:19 2.34364e-05
44 *132:19 *138:23 0.00159806
45 *132:19 *146:16 0.00164316
46 *132:19 *182:42 6.17437e-06
47 *132:23 *162:24 0.00174319
48 *132:29 *146:16 0.000119962
49 *132:29 *151:26 0
50 *132:29 *162:24 0.000246444
51 *132:29 *173:16 0.000149369
52 *132:33 *173:16 8.43466e-05
53 *132:35 *173:16 9.41704e-05
54 *132:39 *177:24 8.15641e-05
55 *132:39 *186:18 0.000104515
56 *132:39 *361:48 0.000299647
57 *132:41 *177:24 3.62323e-05
58 *132:41 *361:48 8.85189e-05
59 *132:43 *177:24 4.6318e-06
60 *132:43 *219:36 2.51033e-05
61 *132:43 *361:48 0.000248516
62 *132:45 *349:14 4.12973e-05
63 *132:45 *361:48 0.000156325
64 *132:47 *349:14 8.50209e-05
65 *132:47 *361:48 0.00020754
66 *132:49 *349:14 9.17788e-05
67 *132:49 *361:48 5.95262e-05
68 *132:51 *349:14 8.54228e-05
69 *57:9 *459:DIODE 0
70 *57:9 *132:49 0
71 *57:9 *132:51 0
72 *87:10 *459:DIODE 4.72486e-05
73 *87:10 *132:51 6.74471e-05
74 *112:10 *132:11 0.00695402
75 *117:43 *459:DIODE 2.15888e-05
76 *120:22 *3621:D 0.000195596
77 *122:19 *132:19 0.000261379
78 *123:19 *132:11 0.00265193
79 *124:11 *132:11 0.000184734
80 *129:19 *132:23 0.00173384
81 *129:19 *132:29 0.000588231
*RES
1 *3781:DO[27] *132:9 21.7114 
2 *132:9 *132:11 300.347 
3 *132:11 *132:19 38.6454 
4 *132:19 *132:23 37.6821 
5 *132:23 *132:29 27.0764 
6 *132:29 *132:33 1.595 
7 *132:33 *132:35 1.09786 
8 *132:35 *132:39 19.3707 
9 *132:39 *132:41 1.20143 
10 *132:41 *132:43 3.66643 
11 *132:43 *132:45 2.25786 
12 *132:45 *132:47 2.96214 
13 *132:47 *132:49 2.96214 
14 *132:49 *132:51 2.96214 
15 *132:51 *459:DIODE 40.9621 
16 *132:51 *456:DIODE 38 
17 *132:49 *454:DIODE 38 
18 *132:47 *452:DIODE 38 
19 *132:45 *450:DIODE 38 
20 *132:43 *3621:D 40.1802 
21 *132:41 *451:DIODE 38 
22 *132:39 *453:DIODE 38 
23 *132:35 *455:DIODE 23 
24 *132:33 *460:DIODE 23 
25 *132:29 *457:DIODE 23 
26 *132:23 *461:DIODE 43.8621 
*END

*D_NET *133 0.0665597
*CONN
*I *3622:D I *D sky130_fd_sc_hd__and4b_1
*I *462:DIODE I *D sky130_fd_sc_hd__diode_2
*I *3781:DO[28] O *D CF_SRAM_1024x32
*CAP
1 *3622:D 1.22438e-05
2 *462:DIODE 0.000269856
3 *3781:DO[28] 0.00032408
4 *133:29 0.000331441
5 *133:27 0.00255046
6 *133:25 0.00250112
7 *133:23 0.000711116
8 *133:17 0.0010877
9 *133:11 0.006168
10 *133:9 0.0061155
11 *462:DIODE *292:22 0.000124075
12 *462:DIODE *317:52 4.15283e-05
13 *3622:D *170:92 2.35426e-05
14 *3622:D *329:103 1.16872e-05
15 *133:9 *3781:BEN[28] 1.02949e-05
16 *133:9 *3781:DI[28] 0
17 *133:9 *160:24 0.00011166
18 *133:11 *3781:BEN[27] 0
19 *133:11 *3781:BEN[28] 0
20 *133:11 *146:16 0.00809502
21 *133:11 *155:10 0
22 *133:11 *190:18 0.000908109
23 *133:17 *3781:DI[7] 8.78733e-06
24 *133:17 *142:9 6.17437e-06
25 *133:23 *3757:A 0.000168472
26 *133:23 *195:12 0.000173473
27 *133:23 *201:10 0.000171004
28 *133:23 *232:8 0.000175903
29 *133:23 *244:46 0.00108137
30 *133:23 *317:68 0.000324552
31 *133:23 *317:83 0.000269967
32 *133:27 *134:30 0
33 *133:27 *134:32 0
34 *133:27 *166:16 0.00256237
35 *133:27 *219:50 0.00715497
36 *133:27 *226:10 0.000188926
37 *133:27 *281:72 0.00208825
38 *133:27 *292:22 0.000136761
39 *133:27 *317:52 0.0004743
40 *133:27 *381:16 0.0010656
41 *110:12 *133:23 0.000446289
42 *120:22 *462:DIODE 6.39665e-05
43 *122:19 *133:11 0.00198152
44 *123:19 *133:11 0.000120147
45 *129:11 *133:11 0
46 *130:11 *133:11 0
47 *132:11 *133:11 0.0184995
*RES
1 *3781:DO[28] *133:9 22.2086 
2 *133:9 *133:11 249.462 
3 *133:11 *133:17 35.3857 
4 *133:17 *133:23 40.9343 
5 *133:23 *133:25 15 
6 *133:25 *133:27 99.4493 
7 *133:27 *133:29 0.621429 
8 *133:29 *462:DIODE 41.9564 
9 *133:29 *3622:D 38.2745 
*END

*D_NET *134 0.065356
*CONN
*I *471:DIODE I *D sky130_fd_sc_hd__diode_2
*I *468:DIODE I *D sky130_fd_sc_hd__diode_2
*I *466:DIODE I *D sky130_fd_sc_hd__diode_2
*I *464:DIODE I *D sky130_fd_sc_hd__diode_2
*I *3623:D I *D sky130_fd_sc_hd__and4b_1
*I *463:DIODE I *D sky130_fd_sc_hd__diode_2
*I *465:DIODE I *D sky130_fd_sc_hd__diode_2
*I *467:DIODE I *D sky130_fd_sc_hd__diode_2
*I *470:DIODE I *D sky130_fd_sc_hd__diode_2
*I *472:DIODE I *D sky130_fd_sc_hd__diode_2
*I *474:DIODE I *D sky130_fd_sc_hd__diode_2
*I *473:DIODE I *D sky130_fd_sc_hd__diode_2
*I *3781:DO[29] O *D CF_SRAM_1024x32
*CAP
1 *471:DIODE 4.60886e-05
2 *468:DIODE 4.3417e-05
3 *466:DIODE 4.3417e-05
4 *464:DIODE 5.5046e-05
5 *3623:D 4.37658e-05
6 *463:DIODE 4.8718e-05
7 *465:DIODE 4.3417e-05
8 *467:DIODE 5.51626e-05
9 *470:DIODE 0
10 *472:DIODE 0
11 *474:DIODE 0.000193443
12 *473:DIODE 5.43738e-05
13 *3781:DO[29] 0.00117912
14 *134:48 0.000391831
15 *134:46 0.000398958
16 *134:40 0.000436429
17 *134:38 0.000376094
18 *134:36 0.000344903
19 *134:34 0.000380577
20 *134:32 0.000422887
21 *134:30 0.000378564
22 *134:28 0.000338183
23 *134:26 0.000271788
24 *134:15 0.000426422
25 *134:11 0.0131638
26 *134:9 0.0140617
27 *466:DIODE *317:52 5.56279e-05
28 *468:DIODE *144:21 5.56279e-05
29 *473:DIODE *259:56 2.64616e-05
30 *474:DIODE *283:8 0
31 *474:DIODE *305:12 0
32 *3623:D *170:92 5.53064e-05
33 *3623:D *170:99 0.000110333
34 *3623:D *329:114 0.00015227
35 *134:9 *3781:DI[29] 0.000409476
36 *134:9 *251:81 0
37 *134:11 *145:67 0
38 *134:11 *179:16 0
39 *134:11 *215:8 0.00822039
40 *134:11 *223:10 0.00152783
41 *134:11 *248:10 0.000901449
42 *134:11 *305:14 0.000152225
43 *134:11 *306:62 0.00440621
44 *134:11 *308:16 0.0118631
45 *134:11 *372:24 0.00108703
46 *134:15 *159:30 7.03202e-05
47 *134:15 *259:56 4.05745e-05
48 *134:26 *304:22 0.000203416
49 *134:26 *317:56 0.00021356
50 *134:28 *166:16 0
51 *134:28 *304:22 1.01436e-05
52 *134:28 *317:56 0.000213551
53 *134:30 *166:16 0
54 *134:30 *317:56 0.000205016
55 *134:32 *305:12 4.45401e-05
56 *134:32 *317:52 0
57 *134:32 *317:56 3.47781e-05
58 *134:34 *305:12 9.25497e-05
59 *134:34 *317:52 0
60 *134:36 *305:12 2.29834e-05
61 *134:38 *305:12 6.1764e-05
62 *134:38 *317:52 0
63 *134:40 *305:12 5.08556e-05
64 *134:40 *317:52 0
65 *134:46 *284:10 0
66 *134:46 *305:12 5.83509e-05
67 *134:46 *317:52 0
68 *134:48 *284:10 0
69 *134:48 *305:12 0
70 wbs_dat_o[27] *474:DIODE 0
71 *3:17 *134:48 0
72 *115:29 *134:11 0.0016826
73 *120:22 *463:DIODE 1.83327e-05
74 *121:30 *465:DIODE 5.56279e-05
75 *131:19 *471:DIODE 5.56279e-05
76 *133:27 *134:30 0
77 *133:27 *134:32 0
*RES
1 *3781:DO[29] *134:9 36.7707 
2 *134:9 *134:11 367.43 
3 *134:11 *134:15 18.48 
4 *134:15 *473:DIODE 23.6214 
5 *134:15 *134:26 17.9621 
6 *134:26 *134:28 2.96214 
7 *134:28 *134:30 2.96214 
8 *134:30 *134:32 2.96214 
9 *134:32 *134:34 4.01857 
10 *134:34 *134:36 1.90571 
11 *134:36 *134:38 2.96214 
12 *134:38 *134:40 2.96214 
13 *134:40 *134:46 3.72857 
14 *134:46 *134:48 2.96214 
15 *134:48 *474:DIODE 40.9621 
16 *134:48 *472:DIODE 38 
17 *134:46 *470:DIODE 38 
18 *134:40 *467:DIODE 38.6214 
19 *134:38 *465:DIODE 38.6214 
20 *134:36 *463:DIODE 38.6214 
21 *134:34 *3623:D 39.7038 
22 *134:32 *464:DIODE 38.6214 
23 *134:30 *466:DIODE 38.6214 
24 *134:28 *468:DIODE 38.6214 
25 *134:26 *471:DIODE 38.6214 
*END

*D_NET *135 0.0824254
*CONN
*I *475:DIODE I *D sky130_fd_sc_hd__diode_2
*I *3628:D I *D sky130_fd_sc_hd__and4b_1
*I *3781:DO[2] O *D CF_SRAM_1024x32
*CAP
1 *475:DIODE 0
2 *3628:D 0.000137214
3 *3781:DO[2] 0.00273744
4 *135:29 0.000137214
5 *135:27 0.00823987
6 *135:21 0.0180214
7 *135:17 0.012519
8 *3628:D *3628:A_N 0.000100803
9 *3628:D *3628:C 0.000179072
10 *3628:D *355:14 2.07988e-05
11 *3628:D *363:22 8.97901e-05
12 *3628:D *365:6 3.86548e-05
13 *135:17 *3781:BEN[1] 0
14 *135:17 *3781:DI[2] 2.70031e-05
15 *135:17 *244:130 2.11157e-05
16 *135:21 *137:13 0.000985518
17 *135:21 *137:17 0.00016078
18 *135:21 *141:11 0.000866579
19 *135:21 *153:22 0.000568933
20 *135:21 *157:16 0.00169125
21 *135:21 *186:26 0.000439929
22 *135:21 *199:24 0.000849505
23 *135:27 *141:15 0.0164148
24 *135:27 *148:48 0.000359975
25 *135:27 *312:26 2.51653e-05
26 *135:27 *319:18 0.00273059
27 *135:27 *320:12 0.0002003
28 *135:27 *320:14 0.000316987
29 *135:27 *360:12 7.12426e-05
30 *135:27 *360:18 2.11157e-05
31 *135:27 *361:28 0.000120171
32 *135:27 *365:6 0.000338312
33 *135:27 *367:43 0.000444827
34 *135:27 *367:59 4.89323e-05
35 *135:27 *369:72 0.000195231
36 *135:27 *369:97 0.000182497
37 *113:11 *135:21 0.00188622
38 *113:31 *135:27 0.000511786
39 *113:43 *135:27 0.000119639
40 *120:18 *135:21 0.00219552
41 *120:34 *135:27 0.00147376
42 *121:22 *135:21 0.00250941
43 *121:38 *135:27 0.000104089
44 *125:25 *135:27 0.00186156
45 *131:11 *135:21 0.00246145
*RES
1 *3781:DO[2] *135:17 37.8459 
2 *135:17 *135:21 41.0587 
3 *135:21 *135:27 39.7613 
4 *135:27 *135:29 15 
5 *135:29 *3628:D 27.7488 
6 *135:29 *475:DIODE 23 
*END

*D_NET *136 0.062787
*CONN
*I *3624:D I *D sky130_fd_sc_hd__and4b_1
*I *476:DIODE I *D sky130_fd_sc_hd__diode_2
*I *3781:DO[30] O *D CF_SRAM_1024x32
*CAP
1 *3624:D 0.00010201
2 *476:DIODE 0.000326475
3 *3781:DO[30] 0.00109936
4 *136:13 0.015821
5 *136:11 0.0164919
6 *476:DIODE *309:10 0.000203509
7 *476:DIODE *310:8 0.000200406
8 *3624:D *3625:A_N 1.29023e-05
9 *136:11 *3781:DI[30] 0.00158833
10 *136:13 *145:67 0
11 *136:13 *179:12 0.000450025
12 *136:13 *309:10 0.0130044
13 *136:13 *310:8 0.0134134
14 *120:22 *476:DIODE 7.32785e-05
15 *131:11 *136:13 0
*RES
1 *3781:DO[30] *136:11 41.8871 
2 *136:11 *136:13 394.193 
3 *136:13 *476:DIODE 43.4893 
4 *136:13 *3624:D 39.8902 
*END

*D_NET *137 0.0595136
*CONN
*I *3625:D I *D sky130_fd_sc_hd__and4b_1
*I *477:DIODE I *D sky130_fd_sc_hd__diode_2
*I *3781:DO[31] O *D CF_SRAM_1024x32
*CAP
1 *3625:D 1.87549e-05
2 *477:DIODE 0.00027204
3 *3781:DO[31] 0.001473
4 *137:17 0.000893242
5 *137:13 0.016173
6 *137:11 0.0170436
7 *477:DIODE *141:11 0.000130211
8 *477:DIODE *314:10 5.1455e-05
9 *3625:D *356:8 1.16872e-05
10 *137:11 *3781:BEN[30] 0
11 *137:11 *3781:DI[31] 0.00167723
12 *137:13 *141:11 0.00409711
13 *137:13 *157:16 0
14 *137:13 *199:24 0.000504646
15 *137:13 *314:10 0.0129943
16 *137:17 *141:11 0.00200427
17 *137:17 *314:10 0.00102281
18 *113:11 *137:13 0
19 *120:18 *137:13 0
20 *121:22 *137:13 0
21 *131:11 *137:13 0
22 *135:21 *137:13 0.000985518
23 *135:21 *137:17 0.00016078
*RES
1 *3781:DO[31] *137:11 49.0129 
2 *137:11 *137:13 380.263 
3 *137:13 *137:17 27.0218 
4 *137:17 *477:DIODE 41.9564 
5 *137:17 *3625:D 38.2745 
*END

*D_NET *138 0.0569623
*CONN
*I *3629:D I *D sky130_fd_sc_hd__and4b_1
*I *478:DIODE I *D sky130_fd_sc_hd__diode_2
*I *3781:DO[3] O *D CF_SRAM_1024x32
*CAP
1 *3629:D 1.29447e-05
2 *478:DIODE 0.000453026
3 *3781:DO[3] 0.000470041
4 *138:56 0.00128962
5 *138:39 0.00234381
6 *138:35 0.00246767
7 *138:33 0.00189368
8 *138:31 0.00250502
9 *138:29 0.00281672
10 *138:23 0.000964388
11 *138:19 0.00206036
12 *138:17 0.00144779
13 *138:15 0.000470041
14 *478:DIODE *187:14 1.14452e-05
15 *3629:D *366:134 2.35426e-05
16 *138:15 *3781:DI[3] 0
17 *138:15 *139:9 1.29983e-05
18 *138:15 *164:52 0.000670933
19 *138:23 *142:27 0.00309706
20 *138:23 *146:16 1.51265e-05
21 *138:29 *188:26 5.94644e-05
22 *138:29 *258:44 0
23 *138:29 *258:52 0.000384268
24 *138:31 *3781:vpwrac 0.00031534
25 *138:31 *140:15 0.00044662
26 *138:31 *188:14 0.00193915
27 *138:31 *188:26 0.00194958
28 *138:35 *140:15 0.0058064
29 *138:56 *3867:A 3.55303e-05
30 *138:56 *140:23 6.00277e-05
31 *138:56 *140:38 0
32 *138:56 *300:24 0.00108516
33 *138:56 *343:12 4.51431e-05
34 *138:56 *368:145 0.000295144
35 *123:19 *138:19 0.00139465
36 *123:19 *138:23 0.000407964
37 *124:11 *138:19 0.00767156
38 *124:11 *138:23 1.5037e-05
39 *124:29 *478:DIODE 0.000134281
40 *124:29 *138:39 9.92701e-05
41 *125:19 *138:15 0.000141157
42 *126:27 *138:31 0.000218828
43 *128:11 *138:15 0.000673155
44 *130:37 *138:23 0.00152093
45 *132:11 *138:19 0.00761597
46 *132:19 *138:19 2.34364e-05
47 *132:19 *138:23 0.00159806
*RES
1 *3781:DO[3] *138:15 44.1789 
2 *138:15 *138:17 15 
3 *138:17 *138:19 98.9211 
4 *138:19 *138:23 41.0868 
5 *138:23 *138:29 22.1879 
6 *138:29 *138:31 76.6118 
7 *138:31 *138:33 0.849286 
8 *138:33 *138:35 63.2718 
9 *138:35 *138:39 26.7657 
10 *138:39 *478:DIODE 45.1879 
11 *138:39 *138:56 49.9479 
12 *138:56 *3629:D 38.2745 
*END

*D_NET *139 0.0812672
*CONN
*I *479:DIODE I *D sky130_fd_sc_hd__diode_2
*I *3630:D I *D sky130_fd_sc_hd__and4b_1
*I *3781:DO[4] O *D CF_SRAM_1024x32
*CAP
1 *479:DIODE 0
2 *3630:D 0.000376754
3 *3781:DO[4] 0.0016672
4 *139:19 0.000714036
5 *139:17 0.00592063
6 *139:11 0.00910647
7 *139:9 0.00519033
8 *3630:D *3628:B 2.75733e-06
9 *3630:D *328:18 1.36027e-05
10 *3630:D *337:18 4.51887e-05
11 *3630:D *368:155 0.000115895
12 *3630:D *370:146 3.58255e-06
13 *3630:D *371:41 6.17437e-06
14 *139:9 *3742:A 0.000353616
15 *139:9 *3781:BEN[3] 0
16 *139:9 *3781:DI[4] 0
17 *139:9 *217:8 5.1098e-05
18 *139:11 *144:17 2.91083e-05
19 *139:11 *145:67 0.0108147
20 *139:11 *184:42 0.00910251
21 *139:11 *307:10 0.000502023
22 *139:17 *3781:vpwrpc 0
23 *139:17 *144:21 0.00249383
24 *139:17 *145:63 0.000840394
25 *139:17 *162:22 3.05982e-05
26 *139:17 *303:28 0
27 *139:17 *306:42 0
28 *139:19 *337:18 1.05441e-05
29 *114:17 *139:17 0.0163988
30 *116:15 *139:17 0.00125615
31 *118:13 *139:17 0.00207183
32 *122:27 *139:17 6.46742e-05
33 *124:17 *139:17 0.0140716
34 *138:15 *139:9 1.29983e-05
*RES
1 *3781:DO[4] *139:9 39.1839 
2 *139:9 *139:11 146.46 
3 *139:11 *139:17 47.0539 
4 *139:17 *139:19 5.25107 
5 *139:19 *3630:D 42.9145 
6 *139:19 *479:DIODE 38 
*END

*D_NET *140 0.0600034
*CONN
*I *3631:D I *D sky130_fd_sc_hd__and4b_1
*I *481:DIODE I *D sky130_fd_sc_hd__diode_2
*I *3781:DO[5] O *D CF_SRAM_1024x32
*CAP
1 *3631:D 0
2 *481:DIODE 0.000165879
3 *3781:DO[5] 0.00012399
4 *140:38 0.000289851
5 *140:23 0.00141415
6 *140:15 0.00315622
7 *140:13 0.0021978
8 *140:11 0.00212227
9 *140:9 0.00224626
10 *481:DIODE *328:16 9.17998e-05
11 *140:9 *3781:DI[5] 8.46966e-05
12 *140:11 *149:24 2.11066e-05
13 *140:11 *164:40 0.000200855
14 *140:11 *188:28 0.00971871
15 *140:11 *241:28 0.00051664
16 *140:11 *258:44 1.66113e-05
17 *140:15 *142:31 0.014297
18 *140:15 *188:14 0.00344153
19 *140:15 *188:26 0.00192067
20 *140:15 *241:28 0.000377127
21 *140:15 *281:60 0.000182087
22 *140:23 *142:37 0
23 *140:23 *316:24 0
24 *140:23 *328:16 4.79641e-05
25 *140:38 *316:24 5.09512e-05
26 *140:38 *329:38 0.000146605
27 *140:38 *366:134 1.79504e-05
28 *126:27 *140:15 0.000345354
29 *127:19 *140:11 0.00164904
30 *128:11 *140:11 0.0088378
31 *128:23 *140:11 9.39745e-06
32 *138:31 *140:15 0.00044662
33 *138:35 *140:15 0.0058064
34 *138:56 *140:23 6.00277e-05
35 *138:56 *140:38 0
*RES
1 *3781:DO[5] *140:9 17.5375 
2 *140:9 *140:11 126.916 
3 *140:11 *140:13 15 
4 *140:13 *140:15 155.937 
5 *140:15 *140:23 46.385 
6 *140:23 *481:DIODE 25.0507 
7 *140:23 *140:38 34.293 
8 *140:38 *3631:D 23 
*END

*D_NET *141 0.0757357
*CONN
*I *3600:D I *D sky130_fd_sc_hd__and4b_1
*I *482:DIODE I *D sky130_fd_sc_hd__diode_2
*I *3781:DO[6] O *D CF_SRAM_1024x32
*CAP
1 *3600:D 1.80874e-05
2 *482:DIODE 0.000152097
3 *3781:DO[6] 0.00239421
4 *141:19 0.000183364
5 *141:15 0.00827081
6 *141:11 0.0114649
7 *141:9 0.00560144
8 *482:DIODE *181:32 2.31116e-05
9 *482:DIODE *355:20 0.000111549
10 *482:DIODE *363:12 2.8314e-06
11 *482:DIODE *364:10 2.2542e-05
12 *482:DIODE *368:121 3.39102e-05
13 *3600:D *3823:A 2.35426e-05
14 *141:9 *3781:BEN[5] 0
15 *141:9 *3781:DI[6] 0
16 *141:9 *197:8 0
17 *141:9 *204:8 0
18 *141:11 *157:16 0.000188777
19 *141:11 *199:24 0.00931196
20 *141:11 *314:10 0.00010469
21 *141:15 *145:16 0.000516286
22 *141:15 *181:32 2.53784e-05
23 *141:15 *258:18 0.00182101
24 *141:15 *270:34 0
25 *141:15 *312:26 5.0744e-05
26 *141:15 *316:18 0.000116969
27 *141:15 *319:6 0.000347036
28 *141:15 *350:14 0.000164169
29 *141:15 *360:12 0.000153579
30 *141:15 *361:14 0.00029797
31 *141:15 *361:16 0.000577384
32 *141:15 *363:22 0.00103331
33 *141:15 *367:49 0.000173494
34 *141:15 *372:14 0.00532886
35 *141:19 *355:20 2.05503e-05
36 *141:19 *368:121 1.12695e-05
37 *477:DIODE *141:11 0.000130211
38 *113:11 *141:11 0.000247812
39 *113:27 *141:15 0.0023407
40 *113:55 *141:15 6.40273e-05
41 *120:52 *141:15 0.000297951
42 *121:54 *141:15 0.000130115
43 *124:65 *141:15 0.000596399
44 *135:21 *141:11 0.000866579
45 *135:27 *141:15 0.0164148
46 *137:13 *141:11 0.00409711
47 *137:17 *141:11 0.00200427
*RES
1 *3781:DO[6] *141:9 47.8011 
2 *141:9 *141:11 138.713 
3 *141:11 *141:15 42.2309 
4 *141:15 *141:19 8.32107 
5 *141:19 *482:DIODE 41.0243 
6 *141:19 *3600:D 38.2745 
*END

*D_NET *142 0.0612159
*CONN
*I *3601:D I *D sky130_fd_sc_hd__and4b_1
*I *483:DIODE I *D sky130_fd_sc_hd__diode_2
*I *3781:DO[7] O *D CF_SRAM_1024x32
*CAP
1 *3601:D 7.80767e-06
2 *483:DIODE 0
3 *3781:DO[7] 0.000385239
4 *142:51 0.00046219
5 *142:37 0.00148678
6 *142:31 0.00320928
7 *142:29 0.0021925
8 *142:27 0.000653367
9 *142:25 0.000653367
10 *142:23 0.000465027
11 *142:17 0.000697478
12 *142:11 0.00083736
13 *142:9 0.000990148
14 *3601:D *366:113 1.18137e-05
15 *3601:D *368:113 1.16872e-05
16 *142:9 *3781:DI[7] 0.0001469
17 *142:11 *146:16 0.00311862
18 *142:17 *3781:BEN[10] 6.17437e-06
19 *142:17 *143:31 6.17437e-06
20 *142:23 *3781:BEN[12] 6.17437e-06
21 *142:23 *164:52 0.00176262
22 *142:23 *241:94 3.47277e-05
23 *142:27 *303:28 2.31209e-05
24 *142:31 *143:53 0.000160457
25 *142:31 *143:55 0.0133512
26 *142:31 *281:60 5.21345e-05
27 *142:31 *301:18 0.000341592
28 *142:31 *302:18 0.00060996
29 *142:37 *3600:B 3.36732e-05
30 *142:37 *170:52 8.21456e-06
31 *142:37 *316:24 0
32 *142:37 *329:46 0
33 *142:37 *337:18 0.000218541
34 *142:37 *370:127 4.70451e-05
35 *142:51 *278:18 0.000181925
36 *142:51 *312:14 0.000514341
37 *142:51 *365:6 0.000106162
38 *142:51 *366:104 0.000180035
39 *142:51 *366:113 9.5877e-05
40 *142:51 *368:106 2.64616e-05
41 *142:51 *368:113 2.02872e-05
42 *64:28 *142:37 0.0001991
43 *64:28 *142:51 0.000174228
44 *122:19 *142:11 0.000569016
45 *123:19 *142:27 0.000472417
46 *124:11 *142:27 0.00324999
47 *125:19 *142:23 0.000360869
48 *126:27 *142:31 0.000727206
49 *128:11 *142:23 0.00176708
50 *130:37 *142:27 6.07098e-05
51 *132:11 *142:11 0.00311862
52 *133:17 *142:9 6.17437e-06
53 *138:23 *142:27 0.00309706
54 *140:15 *142:31 0.014297
55 *140:23 *142:37 0
*RES
1 *3781:DO[7] *142:9 21.3075 
2 *142:9 *142:11 40.2893 
3 *142:11 *142:17 33.0036 
4 *142:17 *142:23 39.7329 
5 *142:23 *142:25 15 
6 *142:25 *142:27 42.05 
7 *142:27 *142:29 15 
8 *142:29 *142:31 163.56 
9 *142:31 *142:37 48.8086 
10 *142:37 *142:51 41.165 
11 *142:51 *483:DIODE 23 
12 *142:37 *3601:D 23.2745 
*END

*D_NET *143 0.0514982
*CONN
*I *484:DIODE I *D sky130_fd_sc_hd__diode_2
*I *3602:D I *D sky130_fd_sc_hd__and4b_1
*I *388:DIODE I *D sky130_fd_sc_hd__diode_2
*I *3781:DO[8] O *D CF_SRAM_1024x32
*CAP
1 *484:DIODE 0
2 *3602:D 6.5274e-05
3 *388:DIODE 2.42832e-05
4 *3781:DO[8] 0.0014199
5 *143:63 0.00039432
6 *143:59 0.000901655
7 *143:55 0.00522942
8 *143:53 0.00525596
9 *143:43 0.00144984
10 *143:41 0.000973153
11 *143:35 0.000431383
12 *143:31 0.000762278
13 *143:21 0.00189755
14 *388:DIODE *336:12 9.84851e-05
15 *388:DIODE *370:81 5.50106e-05
16 *388:DIODE *370:94 4.17736e-05
17 *3602:D *336:12 4.17736e-05
18 *3602:D *366:90 3.44001e-05
19 *3602:D *368:106 6.77098e-05
20 *3602:D *370:94 9.67842e-05
21 *3602:D *370:101 9.61386e-05
22 *143:21 *3781:DI[8] 7.37167e-05
23 *143:21 *164:52 0.000350874
24 *143:31 *162:24 0.00102949
25 *143:35 *146:16 0.00157121
26 *143:41 *241:94 0.00021677
27 *143:53 *3781:vpwrpc 0.000130187
28 *143:53 *159:30 0.000530584
29 *143:53 *259:56 0.000622136
30 *143:53 *301:18 0.00140031
31 *143:59 *3642:A 2.75733e-06
32 *143:59 *300:22 7.39764e-05
33 *143:59 *371:29 0
34 *143:63 *3604:C 4.30894e-05
35 *143:63 *3642:A 1.28576e-05
36 *143:63 *170:42 1.53621e-05
37 *143:63 *278:10 3.32226e-05
38 *143:63 *300:22 0.000119435
39 *143:63 *368:41 8.31022e-05
40 *143:63 *370:87 7.89973e-05
41 *461:DIODE *143:53 9.65021e-05
42 *114:21 *143:59 7.57257e-05
43 *116:11 *143:43 0.00336221
44 *116:23 *143:59 0
45 *119:15 *143:53 7.75522e-05
46 *119:15 *143:55 6.80488e-05
47 *122:19 *143:21 0.000936121
48 *122:19 *143:35 0.000320392
49 *126:27 *143:55 0.00101311
50 *128:11 *143:21 0.000353506
51 *129:11 *143:31 0.00101739
52 *129:19 *143:43 0.003359
53 *132:11 *143:35 0.00157566
54 *142:17 *143:31 6.17437e-06
55 *142:31 *143:53 0.000160457
56 *142:31 *143:55 0.0133512
*RES
1 *3781:DO[8] *143:21 49.8889 
2 *143:21 *143:31 38.1094 
3 *143:31 *143:35 35.2171 
4 *143:35 *143:41 32.5271 
5 *143:41 *143:43 44.1629 
6 *143:43 *143:53 38.1896 
7 *143:53 *143:55 152.364 
8 *143:55 *143:59 27.47 
9 *143:59 *143:63 20.4271 
10 *143:63 *388:DIODE 24.0979 
11 *143:63 *3602:D 25.1802 
12 *143:59 *484:DIODE 38 
*END

*D_NET *144 0.0628284
*CONN
*I *485:DIODE I *D sky130_fd_sc_hd__diode_2
*I *3603:D I *D sky130_fd_sc_hd__and4b_1
*I *486:DIODE I *D sky130_fd_sc_hd__diode_2
*I *3781:DO[9] O *D CF_SRAM_1024x32
*CAP
1 *485:DIODE 0
2 *3603:D 0
3 *486:DIODE 0
4 *3781:DO[9] 0.00165322
5 *144:46 0.000317652
6 *144:31 0.000679796
7 *144:25 0.000954218
8 *144:21 0.00591816
9 *144:19 0.00532609
10 *144:17 0.00205442
11 *144:15 0.00370764
12 *144:15 *3746:A 5.3304e-05
13 *144:15 *3757:A 0.000421102
14 *144:15 *3781:BEN[8] 0
15 *144:15 *3781:DI[9] 0
16 *144:15 *182:58 2.35602e-06
17 *144:15 *193:18 6.09861e-05
18 *144:15 *232:8 5.04281e-05
19 *144:17 *145:67 0.000109253
20 *144:17 *159:32 0.00631801
21 *144:17 *270:36 0.00667515
22 *144:21 *153:18 0.00328601
23 *144:21 *171:12 0.00123934
24 *144:21 *361:48 0.000193916
25 *144:25 *327:38 0.00031988
26 *144:25 *366:12 0
27 *144:25 *370:10 6.58998e-05
28 *144:25 *370:14 9.9437e-05
29 *144:31 *327:38 0.00039754
30 *144:31 *329:22 0.000479335
31 *144:46 *3605:C 5.15861e-05
32 *144:46 *312:14 0.000195531
33 *144:46 *329:22 8.60475e-05
34 *144:46 *335:10 0.000216656
35 *144:46 *336:28 0.000119381
36 *144:46 *370:56 5.3304e-05
37 *468:DIODE *144:21 5.56279e-05
38 *61:11 *144:31 0.000159069
39 *109:14 *144:31 0.000477639
40 *109:14 *144:46 9.67842e-05
41 *110:16 *144:21 0.00160421
42 *115:97 *144:46 6.97747e-05
43 *116:23 *144:25 0
44 *118:13 *144:21 0.0164758
45 *118:19 *144:25 0.000186428
46 *119:57 *144:25 7.44362e-05
47 *139:11 *144:17 2.91083e-05
48 *139:17 *144:21 0.00249383
*RES
1 *3781:DO[9] *144:15 38.9975 
2 *144:15 *144:17 89.2371 
3 *144:17 *144:19 15 
4 *144:19 *144:21 194.528 
5 *144:21 *144:25 28.8786 
6 *144:25 *144:31 26.5171 
7 *144:31 *486:DIODE 23 
8 *144:31 *144:46 38.0009 
9 *144:46 *3603:D 23 
10 *144:25 *485:DIODE 38 
*END

*D_NET *145 0.0702336
*CONN
*I *3781:EN I *D CF_SRAM_1024x32
*I *3632:D I *D sky130_fd_sc_hd__dfrtp_1
*I *390:DIODE I *D sky130_fd_sc_hd__diode_2
*I *389:DIODE I *D sky130_fd_sc_hd__diode_2
*I *3599:X O *D sky130_fd_sc_hd__and2_4
*CAP
1 *3781:EN 0.00160366
2 *3632:D 0
3 *390:DIODE 9.25989e-05
4 *389:DIODE 0.000102084
5 *3599:X 2.04195e-05
6 *145:67 0.00936534
7 *145:65 0.00776167
8 *145:63 0.00369706
9 *145:61 0.00397006
10 *145:57 0.00119545
11 *145:28 0.000546879
12 *145:24 0.000579024
13 *145:16 0.000895264
14 *145:6 0.00161131
15 *389:DIODE *198:8 0.000152426
16 *390:DIODE *198:8 0.000153756
17 *390:DIODE *329:38 6.77278e-05
18 *390:DIODE *355:20 7.28722e-06
19 *3781:EN *3781:WLOFF 8.69658e-05
20 *3781:EN *3781:R_WB 0
21 *3781:EN *379:8 0
22 *145:6 *312:36 0.00014196
23 *145:6 *318:8 0.000130423
24 *145:16 *187:14 5.12151e-05
25 *145:16 *231:10 6.77278e-05
26 *145:16 *312:36 0.00166884
27 *145:16 *318:8 0.0016252
28 *145:16 *350:14 0.000142922
29 *145:16 *367:43 0.00019858
30 *145:24 *181:32 8.21456e-06
31 *145:24 *181:42 4.96207e-05
32 *145:24 *224:18 3.70187e-05
33 *145:24 *331:14 0
34 *145:24 *333:22 8.80542e-05
35 *145:24 *360:18 0.000142095
36 *145:24 *364:18 6.21638e-05
37 *145:28 *333:22 0.000171051
38 *145:28 *364:18 0.000250805
39 *145:57 *332:30 0
40 *145:63 *162:12 0.0022131
41 *145:63 *199:12 0.00286292
42 *145:63 *199:22 0.00161122
43 *145:63 *303:28 0.000681278
44 *145:63 *328:48 0.00250984
45 *145:63 *361:48 1.71761e-05
46 *145:67 *159:32 0.00634769
47 *145:67 *179:12 0.000450025
48 *145:67 *223:10 0
49 *145:67 *270:36 0.000403134
50 *145:67 *307:10 0
51 *145:67 *310:8 0
52 *507:DIODE *145:28 0.000135037
53 *3632:RESET_B *389:DIODE 0.000150194
54 *3632:RESET_B *390:DIODE 4.80045e-05
55 *3632:RESET_B *145:28 4.59048e-05
56 *111:14 *145:24 0.000229179
57 *113:43 *145:16 2.18506e-05
58 *113:55 *145:16 0.000256357
59 *113:55 *145:24 7.07113e-06
60 *116:15 *145:61 0.000387811
61 *116:15 *145:63 0.00238772
62 *124:17 *145:61 0.00011373
63 *131:19 *145:63 0.000328824
64 *134:11 *145:67 0
65 *136:13 *145:67 0
66 *139:11 *145:67 0.0108147
67 *139:17 *145:63 0.000840394
68 *141:15 *145:16 0.000516286
69 *144:17 *145:67 0.000109253
*RES
1 *3599:X *145:6 24.5743 
2 *145:6 *145:16 46.0923 
3 *145:16 *145:24 29.0382 
4 *145:24 *145:28 22.2914 
5 *145:28 *389:DIODE 40.2579 
6 *145:28 *390:DIODE 40.2579 
7 *145:24 *3632:D 23 
8 *145:6 *145:57 43.5264 
9 *145:57 *145:61 8.02679 
10 *145:61 *145:63 137.118 
11 *145:63 *145:65 15 
12 *145:65 *145:67 218.121 
13 *145:67 *3781:EN 38.7334 
*END

*D_NET *146 0.0679514
*CONN
*I *3781:R_WB I *D CF_SRAM_1024x32
*I *3597:Y O *D sky130_fd_sc_hd__clkinv_4
*CAP
1 *3781:R_WB 0.000374923
2 *3597:Y 7.13184e-05
3 *146:16 0.00404367
4 *146:14 0.00789983
5 *146:10 0.00430241
6 *3781:R_WB *3781:AD[0] 0
7 *3781:R_WB *3781:WLOFF 0
8 *146:14 *157:14 0.00242188
9 *146:14 *166:12 0.000320471
10 *146:14 *316:26 0.000107222
11 *146:16 *3781:DI[9] 1.60583e-05
12 *146:16 *162:24 0.0062961
13 *146:16 *190:18 0.000732121
14 *146:16 *199:18 8.11135e-05
15 *146:16 *206:10 0.00878162
16 *146:16 *303:28 2.53246e-05
17 *3781:EN *3781:R_WB 0
18 *110:16 *146:14 0.000312285
19 *114:17 *146:14 0.0104173
20 *122:19 *146:16 0.00260878
21 *128:23 *146:14 0.00263006
22 *130:37 *146:16 0.00188767
23 *132:11 *146:16 5.8103e-05
24 *132:19 *146:16 0.00164316
25 *132:29 *146:16 0.000119962
26 *133:11 *146:16 0.00809502
27 *138:23 *146:16 1.51265e-05
28 *142:11 *146:16 0.00311862
29 *143:35 *146:16 0.00157121
*RES
1 *3597:Y *146:10 47.0254 
2 *146:10 *146:14 28.3205 
3 *146:14 *146:16 217.945 
4 *146:16 *3781:R_WB 20.8621 
*END

*D_NET *147 0.00591332
*CONN
*I *3598:A I *D sky130_fd_sc_hd__inv_2
*I *3791:X O *D sky130_fd_sc_hd__buf_1
*CAP
1 *3598:A 0
2 *3791:X 0.00094958
3 *147:30 0.000394879
4 *147:24 0.00094074
5 *147:16 0.00149544
6 *147:24 *330:22 9.45591e-05
7 *147:30 *3775:A 0
8 *147:30 *323:8 0.000168754
9 *147:30 *331:32 0.000100956
10 wbs_ack_o *147:16 0.00026025
11 wbs_dat_o[0] *147:24 4.08537e-05
12 wbs_dat_o[1] *147:30 4.96264e-05
13 *514:DIODE *147:16 4.92795e-05
14 *530:DIODE *147:16 0.000323279
15 *3774:A *147:16 0.000362139
16 *3791:A *147:16 2.34437e-05
17 *50:13 *147:30 2.96369e-05
18 *103:11 *147:24 2.29192e-05
19 *106:17 *147:24 0.000530627
20 *108:13 *147:16 7.63584e-05
*RES
1 *3791:X *147:16 41.4771 
2 *147:16 *147:24 38.9693 
3 *147:24 *147:30 37.54 
4 *147:30 *3598:A 23 
*END

*D_NET *148 0.0525563
*CONN
*I *3746:A I *D sky130_fd_sc_hd__dlygate4sd3_1
*I *3792:X O *D sky130_fd_sc_hd__buf_4
*CAP
1 *3746:A 3.46112e-05
2 *3792:X 0.00158891
3 *148:58 0.00259349
4 *148:48 0.00622938
5 *148:38 0.00439853
6 *148:28 0.00158325
7 *148:24 0.00104001
8 *148:18 0.00134606
9 *148:10 0.00275018
10 *3746:A *193:18 6.17437e-06
11 *148:10 *3796:A 0.000178517
12 *148:10 *3802:A 2.64616e-05
13 *148:10 *333:22 0.000697379
14 *148:10 *350:14 0.000334267
15 *148:18 *322:10 0.00111603
16 *148:18 *361:16 0.000168568
17 *148:24 *322:16 0
18 *148:28 *306:10 0.00419721
19 *148:28 *306:22 0.000111545
20 *148:28 *317:44 0.00441814
21 *148:28 *350:14 0.000260231
22 *148:38 *3808:A 5.3304e-05
23 *148:38 *202:8 0.000125566
24 *148:38 *258:30 0.000618059
25 *148:38 *306:22 0.000746968
26 *148:38 *317:44 0.000284972
27 *148:38 *350:14 0.000110155
28 *148:48 *369:146 0.000106671
29 *148:58 *259:58 0.00114767
30 *148:58 *302:24 0.000272267
31 *148:58 *302:26 7.71407e-05
32 *148:58 *305:14 0.00107546
33 *148:58 *306:62 0.000665549
34 *148:58 *339:38 0.00292236
35 *148:58 *372:24 0.00768868
36 *521:DIODE *148:10 4.9346e-05
37 *85:8 *148:38 0.000228001
38 *111:14 *148:10 0.000191577
39 *115:29 *148:58 0.000272267
40 *120:42 *148:38 1.41129e-05
41 *121:44 *148:48 0.000102363
42 *125:25 *148:48 3.7391e-05
43 *127:25 *148:48 0.00206574
44 *128:43 *148:38 1.14452e-05
45 *128:45 *148:38 0.000127807
46 *129:41 *148:48 1.84196e-05
47 *129:43 *148:48 8.30566e-06
48 *129:45 *148:48 4.24693e-05
49 *135:27 *148:48 0.000359975
50 *144:15 *3746:A 5.3304e-05
*RES
1 *3792:X *148:10 49.9907 
2 *148:10 *148:18 47.0686 
3 *148:18 *148:24 32.2579 
4 *148:24 *148:28 49.2379 
5 *148:28 *148:38 47.9179 
6 *148:38 *148:48 42.4205 
7 *148:48 *148:58 35.2907 
8 *148:58 *3746:A 38.6214 
*END

*D_NET *149 0.00917861
*CONN
*I *3781:DI[15] I *D CF_SRAM_1024x32
*I *3693:X O *D sky130_fd_sc_hd__dlygate4sd3_1
*CAP
1 *3781:DI[15] 0.000200951
2 *3693:X 0.000558045
3 *149:24 0.00218303
4 *149:8 0.00254013
5 *3781:DI[15] *164:50 0
6 *3781:DI[15] *241:52 1.17745e-05
7 *149:8 *166:8 0
8 *149:24 *3781:vpwrpc 0.00170407
9 *149:24 *162:22 0.000212718
10 *149:24 *164:40 2.11066e-05
11 *119:11 *3781:DI[15] 0
12 *119:15 *149:24 0.000130187
13 *123:27 *149:24 0.000576275
14 *126:27 *149:24 0.000593183
15 *127:19 *149:24 0.000426035
16 *140:11 *149:24 2.11066e-05
*RES
1 *3693:X *149:8 46.0682 
2 *149:8 *149:24 40.9525 
3 *149:24 *3781:DI[15] 18.6146 
*END

*D_NET *150 0.000966559
*CONN
*I *3819:A I *D sky130_fd_sc_hd__buf_4
*I *3704:X O *D sky130_fd_sc_hd__dlygate4sd3_1
*CAP
1 *3819:A 0
2 *3704:X 0.000205591
3 *150:8 0.000205591
4 *150:8 *3704:A 5.79559e-05
5 *150:8 *300:12 0.000439398
6 *61:11 *150:8 5.80234e-05
*RES
1 *3704:X *150:8 28.4064 
2 *150:8 *3819:A 23 
*END

*D_NET *151 0.052897
*CONN
*I *3781:DI[2] I *D CF_SRAM_1024x32
*I *3715:X O *D sky130_fd_sc_hd__dlygate4sd3_1
*CAP
1 *3781:DI[2] 0.000203831
2 *3715:X 0.00111569
3 *151:26 0.00336298
4 *151:24 0.00381014
5 *151:20 0.000830327
6 *151:14 0.00110495
7 *151:12 0.00111118
8 *151:6 0.00130125
9 *3781:DI[2] *155:8 4.67488e-05
10 *3781:DI[2] *244:130 0
11 *151:6 *489:DIODE 0.000216471
12 *151:6 *3702:A 0.000141215
13 *151:6 *3744:A 9.84794e-05
14 *151:6 *315:42 7.84431e-05
15 *151:6 *320:26 0.000363838
16 *151:6 *327:73 0.000778888
17 *151:6 *329:66 5.67058e-05
18 *151:12 *203:14 0
19 *151:12 *214:24 3.74427e-05
20 *151:14 *164:26 9.4449e-05
21 *151:14 *164:30 0.00292091
22 *151:14 *244:24 0.00374743
23 *151:14 *367:171 4.8927e-05
24 *151:20 *219:28 0.000105117
25 *151:20 *304:10 0
26 *151:24 *182:26 0.000764672
27 *151:24 *219:28 5.3304e-05
28 *151:24 *327:73 0.00152477
29 *151:26 *164:40 0.000101286
30 *151:26 *164:52 0.0114269
31 *151:26 *241:52 0.000205112
32 *439:DIODE *151:24 0.000137361
33 *124:11 *151:26 0.0128715
34 *126:19 *151:26 0.00232846
35 *128:11 *151:26 1.11421e-05
36 *128:23 *151:26 0.00159214
37 *130:59 *151:20 1.14452e-05
38 *130:61 *151:20 0.000181626
39 *130:63 *151:20 8.4824e-05
40 *132:29 *151:26 0
41 *135:17 *3781:DI[2] 2.70031e-05
*RES
1 *3715:X *151:6 46.9664 
2 *151:6 *151:12 32.61 
3 *151:12 *151:14 41.1179 
4 *151:14 *151:20 33.6664 
5 *151:20 *151:24 32.2964 
6 *151:24 *151:26 173.047 
7 *151:26 *3781:DI[2] 18.4075 
*END

*D_NET *152 0.000836907
*CONN
*I *3796:A I *D sky130_fd_sc_hd__clkbuf_4
*I *3726:X O *D sky130_fd_sc_hd__dlygate4sd3_1
*CAP
1 *3796:A 7.86391e-05
2 *3726:X 0.000162851
3 *152:8 0.00024149
4 *152:8 *260:8 0
5 *494:DIODE *152:8 1.17256e-05
6 *521:DIODE *152:8 0
7 *3647:A *3796:A 5.50106e-05
8 *40:13 *152:8 7.01835e-05
9 *111:14 *3796:A 3.84903e-05
10 *148:10 *3796:A 0.000178517
*RES
1 *3726:X *152:8 40.61 
2 *152:8 *3796:A 40.0507 
*END

*D_NET *153 0.0356816
*CONN
*I *3781:DI[10] I *D CF_SRAM_1024x32
*I *3737:X O *D sky130_fd_sc_hd__dlygate4sd3_1
*CAP
1 *3781:DI[10] 0.00242319
2 *3737:X 0.00120701
3 *153:22 0.00409134
4 *153:20 0.00166815
5 *153:18 0.00125964
6 *153:16 0.00198673
7 *153:8 0.0019341
8 *153:8 *184:10 0.000317281
9 *153:8 *186:8 0.00137057
10 *153:8 *186:18 1.72202e-05
11 *153:16 *186:18 0.00127028
12 *153:16 *328:44 6.91886e-05
13 *153:18 *171:12 0.00205407
14 *153:18 *308:12 0.00107501
15 *153:22 *186:26 0.00499054
16 *153:22 *309:10 0.00585158
17 *412:DIODE *153:16 0.00010018
18 *431:DIODE *153:16 3.54739e-05
19 *110:16 *153:18 1.56446e-05
20 *114:11 *3781:DI[10] 4.18686e-06
21 *128:124 *153:16 8.52481e-05
22 *131:11 *153:22 0
23 *135:21 *153:22 0.000568933
24 *144:21 *153:18 0.00328601
*RES
1 *3737:X *153:8 42.6993 
2 *153:8 *153:16 46.5714 
3 *153:16 *153:18 41.5943 
4 *153:18 *153:20 15 
5 *153:20 *153:22 76.9121 
6 *153:22 *3781:DI[10] 42.9125 
*END

*D_NET *154 9.83573e-05
*CONN
*I *3816:A I *D sky130_fd_sc_hd__buf_4
*I *3748:X O *D sky130_fd_sc_hd__dlygate4sd3_1
*CAP
1 *3816:A 2.05299e-05
2 *3748:X 2.05299e-05
3 *3816:A *227:18 5.72975e-05
*RES
1 *3748:X *3816:A 46.6214 
*END

*D_NET *155 0.0302012
*CONN
*I *3781:DI[27] I *D CF_SRAM_1024x32
*I *3759:X O *D sky130_fd_sc_hd__dlygate4sd3_1
*CAP
1 *3781:DI[27] 0.000157799
2 *3759:X 0.000819999
3 *155:10 0.0049725
4 *155:8 0.0056347
5 *3781:DI[27] *3781:BEN[27] 0
6 *155:10 *3781:BEN[23] 0.000177275
7 *155:10 *3781:BEN[27] 0.000184586
8 *155:10 *164:52 0.001728
9 *155:10 *195:34 0.00118641
10 *155:10 *212:26 0
11 *155:10 *230:24 0.00293496
12 *155:10 *251:25 0.000268679
13 *155:10 *251:37 0.000324351
14 *3781:DI[2] *155:8 4.67488e-05
15 *112:10 *155:10 0
16 *125:19 *155:10 0.000242841
17 *126:19 *155:10 0.000816802
18 *128:11 *155:10 0.0107055
19 *132:9 *3781:DI[27] 0
20 *132:11 *155:10 0
21 *133:11 *155:10 0
*RES
1 *3759:X *155:8 48.15 
2 *155:8 *155:10 186.781 
3 *155:10 *3781:DI[27] 17.7343 
*END

*D_NET *156 0.000270264
*CONN
*I *3807:A I *D sky130_fd_sc_hd__buf_4
*I *3770:X O *D sky130_fd_sc_hd__dlygate4sd3_1
*CAP
1 *3807:A 0
2 *3770:X 9.48249e-05
3 *156:8 9.48249e-05
4 *541:DIODE *156:8 8.0614e-05
*RES
1 *3770:X *156:8 40.2579 
2 *156:8 *3807:A 38 
*END

*D_NET *157 0.0666786
*CONN
*I *3781:DI[1] I *D CF_SRAM_1024x32
*I *3644:X O *D sky130_fd_sc_hd__dlygate4sd3_1
*CAP
1 *3781:DI[1] 0.00259209
2 *3644:X 1.79702e-05
3 *157:16 0.00674849
4 *157:14 0.0134345
5 *157:10 0.00929603
6 *157:14 *164:40 0.000477674
7 *157:14 *170:80 0.000973219
8 *157:14 *173:8 0.000127117
9 *157:14 *173:12 0.000176784
10 *157:14 *182:20 9.84953e-05
11 *157:14 *184:10 0.000160838
12 *157:14 *184:26 0.000107129
13 *157:14 *184:36 0.000270343
14 *157:14 *192:28 0.000170495
15 *157:14 *241:18 0
16 *157:14 *316:26 0.000333015
17 *157:14 *319:26 0.000276536
18 *157:14 *328:36 2.66846e-05
19 *157:14 *329:80 8.13582e-05
20 *157:16 *199:24 0.0108315
21 *113:11 *157:16 0.0138877
22 *114:17 *157:14 0.000492718
23 *124:9 *3781:DI[1] 0.000311202
24 *128:23 *157:14 0.00122053
25 *131:56 *157:14 0.00026437
26 *135:21 *157:16 0.00169125
27 *137:13 *157:16 0
28 *141:11 *157:16 0.000188777
29 *146:14 *157:14 0.00242188
*RES
1 *3644:X *157:10 46.3211 
2 *157:10 *157:14 31.0683 
3 *157:14 *157:16 182.731 
4 *157:16 *3781:DI[1] 47.1382 
*END

*D_NET *158 0.000823333
*CONN
*I *3817:A I *D sky130_fd_sc_hd__buf_4
*I *3655:X O *D sky130_fd_sc_hd__dlygate4sd3_1
*CAP
1 *3817:A 0
2 *3655:X 0.000244401
3 *158:10 0.000244401
4 *158:10 *307:10 0.000167266
5 *158:10 *353:14 0.000167266
*RES
1 *3655:X *158:10 42.3086 
2 *158:10 *3817:A 38 
*END

*D_NET *159 0.0490625
*CONN
*I *3740:A I *D sky130_fd_sc_hd__dlygate4sd3_1
*I *3793:X O *D sky130_fd_sc_hd__buf_4
*CAP
1 *3740:A 0
2 *3793:X 2.34823e-05
3 *159:32 0.00188135
4 *159:30 0.0029906
5 *159:26 0.00275587
6 *159:22 0.00482238
7 *159:12 0.00561518
8 *159:10 0.003908
9 *159:6 0.00149207
10 *159:10 *3677:A 0.000103405
11 *159:10 *3701:A 4.9662e-05
12 *159:10 *3717:A 3.22051e-05
13 *159:10 *3730:A 9.91798e-05
14 *159:10 *3793:A 2.64616e-05
15 *159:10 *191:10 5.50106e-05
16 *159:10 *339:12 3.22879e-05
17 *159:10 *339:16 0.000551236
18 *159:10 *339:18 1.28345e-05
19 *159:12 *214:8 0.000977551
20 *159:12 *247:6 0.0020828
21 *159:12 *339:18 0.000280122
22 *159:22 *265:10 0
23 *159:22 *326:14 0.00137337
24 *159:22 *341:18 0
25 *159:22 *342:20 0
26 *159:26 *301:10 0
27 *159:26 *304:10 0.00152969
28 *159:26 *348:16 0
29 *159:30 *259:56 0.00167639
30 *159:30 *306:42 0.000246791
31 *159:32 *270:36 1.26098e-05
32 wbs_dat_o[18] *159:22 1.95585e-05
33 *434:DIODE *159:26 0
34 *509:DIODE *159:26 0.000179579
35 *3676:A *159:10 0.000103647
36 *119:15 *159:30 0.00238056
37 *120:34 *159:26 4.63708e-05
38 *130:43 *159:26 0.000435583
39 *130:73 *159:26 0
40 *134:15 *159:30 7.03202e-05
41 *143:53 *159:30 0.000530584
42 *144:17 *159:32 0.00631801
43 *145:67 *159:32 0.00634769
*RES
1 *3793:X *159:6 23.4971 
2 *159:6 *159:10 27.0839 
3 *159:10 *159:12 39.4504 
4 *159:12 *159:22 43.4253 
5 *159:22 *159:26 44.1968 
6 *159:26 *159:30 49.4479 
7 *159:30 *159:32 84.6593 
8 *159:32 *3740:A 38 
*END

*D_NET *160 0.0305259
*CONN
*I *3781:DI[28] I *D CF_SRAM_1024x32
*I *3666:X O *D sky130_fd_sc_hd__dlygate4sd3_1
*CAP
1 *3781:DI[28] 5.82062e-05
2 *3666:X 0
3 *160:24 0.000784587
4 *160:16 0.00506201
5 *160:14 0.00578981
6 *160:10 0.00229233
7 *160:6 0.000838149
8 *3781:DI[28] *3781:BEN[28] 0
9 *160:10 *212:10 1.11421e-05
10 *160:10 *228:10 0.00255517
11 *160:10 *230:20 0.000246018
12 *160:10 *234:10 0.000401855
13 *160:10 *239:22 0.00177116
14 *160:14 *212:16 0.00100331
15 *160:14 *212:24 6.07611e-06
16 *160:14 *228:10 0.00173915
17 *160:14 *230:20 0.000399785
18 *160:14 *239:22 0.000496961
19 *160:14 *380:12 2.33476e-05
20 *160:16 *168:10 0
21 *160:16 *212:24 9.01597e-05
22 *160:16 *228:10 0.00584961
23 *160:16 *230:20 0.000586356
24 *160:24 *3781:BEN[28] 0.000409056
25 *133:9 *3781:DI[28] 0
26 *133:9 *160:24 0.00011166
*RES
1 *3666:X *160:6 38 
2 *160:6 *160:10 34.7482 
3 *160:10 *160:14 47.5186 
4 *160:14 *160:16 107.103 
5 *160:16 *160:24 46.1882 
6 *160:24 *3781:DI[28] 16.0254 
*END

*D_NET *161 0.000805187
*CONN
*I *3829:A I *D sky130_fd_sc_hd__clkbuf_4
*I *3677:X O *D sky130_fd_sc_hd__dlygate4sd3_1
*CAP
1 *3829:A 0
2 *3677:X 0.000235554
3 *161:8 0.000235554
4 *161:8 *205:8 0.0001607
5 *161:8 *258:10 2.49865e-05
6 *161:8 *333:34 0.000134374
7 *161:8 *365:22 0
8 *161:8 *367:49 1.40183e-05
*RES
1 *3677:X *161:8 42.3707 
2 *161:8 *3829:A 38 
*END

*D_NET *162 0.0298897
*CONN
*I *3781:DI[9] I *D CF_SRAM_1024x32
*I *3687:X O *D sky130_fd_sc_hd__dlygate4sd3_1
*CAP
1 *3781:DI[9] 0.000660042
2 *3687:X 0.000274852
3 *162:24 0.00202893
4 *162:22 0.00246075
5 *162:12 0.00184657
6 *162:10 0.000754708
7 *162:8 0.000274852
8 *3781:DI[9] *182:58 6.17437e-06
9 *3781:DI[9] *206:8 3.82058e-06
10 *3781:DI[9] *206:10 0.000145969
11 *162:22 *3781:vpwrpc 0.000141691
12 *162:22 *199:12 0.000100139
13 *162:22 *301:10 0.000116835
14 *162:24 *182:52 0.00295379
15 *162:24 *182:58 0
16 *116:15 *162:12 0.00396119
17 *122:27 *162:22 4.47499e-05
18 *123:27 *162:22 0.00117838
19 *124:17 *162:12 0.000546508
20 *129:11 *3781:DI[9] 0.000183922
21 *129:11 *162:24 0.000123192
22 *129:19 *162:24 1.7415e-05
23 *130:33 *162:24 0.000277518
24 *132:23 *162:24 0.00174319
25 *132:29 *162:24 0.000246444
26 *139:17 *162:22 3.05982e-05
27 *143:31 *162:24 0.00102949
28 *144:15 *3781:DI[9] 0
29 *145:63 *162:12 0.0022131
30 *146:16 *3781:DI[9] 1.60583e-05
31 *146:16 *162:24 0.0062961
32 *149:24 *162:22 0.000212718
*RES
1 *3687:X *162:8 41.6664 
2 *162:8 *162:10 15 
3 *162:10 *162:12 43.5 
4 *162:12 *162:22 35.4475 
5 *162:22 *162:24 81.8421 
6 *162:24 *3781:DI[9] 26.5586 
*END

*D_NET *163 0.00304281
*CONN
*I *3795:A I *D sky130_fd_sc_hd__buf_4
*I *3688:X O *D sky130_fd_sc_hd__dlygate4sd3_1
*CAP
1 *3795:A 0.000237149
2 *3688:X 0.000587042
3 *163:8 0.000824191
4 *3795:A *249:10 0.000492954
5 *163:8 *170:20 0.000556588
6 wbs_dat_o[0] *3795:A 9.49727e-05
7 *39:22 *3795:A 0.000249909
*RES
1 *3688:X *163:8 46.7207 
2 *163:8 *3795:A 44.8357 
*END

*D_NET *164 0.0586941
*CONN
*I *3781:DI[0] I *D CF_SRAM_1024x32
*I *3689:X O *D sky130_fd_sc_hd__dlygate4sd3_1
*CAP
1 *3781:DI[0] 0.000182758
2 *3689:X 0.000129949
3 *164:52 0.00289936
4 *164:50 0.00279725
5 *164:40 0.00275162
6 *164:30 0.00419727
7 *164:26 0.00345509
8 *164:20 0.00258492
9 *164:8 0.000786067
10 *3781:DI[0] *3781:ScanInDL 0.000144085
11 *164:8 *192:20 0
12 *164:8 *323:30 7.71219e-06
13 *164:20 *3766:A 0.000703054
14 *164:20 *319:18 1.58785e-05
15 *164:20 *337:32 0.00015866
16 *164:26 *244:20 6.22878e-06
17 *164:26 *244:24 5.64335e-05
18 *164:26 *371:94 0.00014317
19 *164:40 *177:24 4.13794e-05
20 *164:40 *182:20 0.0014597
21 *164:40 *241:28 0.000633482
22 *164:40 *258:44 0
23 *164:40 *361:48 0.000513676
24 *164:50 *241:52 9.66308e-05
25 *164:52 *3781:BEN[12] 0.000761404
26 *164:52 *3781:BEN[8] 0.000880477
27 *164:52 *3781:BEN[4] 0.000934538
28 *164:52 *241:52 0.000615342
29 *164:52 *241:64 0.000761452
30 *164:52 *241:126 2.11066e-05
31 *164:52 *241:138 0.00076937
32 *164:52 *244:62 0.000639985
33 *164:52 *244:74 0.000890145
34 *3781:DI[15] *164:50 0
35 *111:12 *164:8 0.000186491
36 *112:10 *164:52 0.00024818
37 *113:9 *3781:DI[0] 2.41093e-05
38 *119:21 *164:40 4.15283e-06
39 *119:33 *164:26 0.00161731
40 *119:41 *164:20 0.00100643
41 *119:41 *164:26 0.000115903
42 *124:11 *164:52 0.000488382
43 *125:19 *164:40 0.000183334
44 *125:19 *164:52 0.00200227
45 *128:11 *164:52 0.00119806
46 *128:23 *164:40 0.0015536
47 *129:39 *164:40 0.000206569
48 *131:56 *164:40 6.55851e-05
49 *138:15 *164:52 0.000670933
50 *140:11 *164:40 0.000200855
51 *142:23 *164:52 0.00176262
52 *143:21 *164:52 0.000350874
53 *149:24 *164:40 2.11066e-05
54 *151:14 *164:26 9.4449e-05
55 *151:14 *164:30 0.00292091
56 *151:26 *164:40 0.000101286
57 *151:26 *164:52 0.0114269
58 *155:10 *164:52 0.001728
59 *157:14 *164:40 0.000477674
*RES
1 *3689:X *164:8 40.61 
2 *164:8 *164:20 44.1479 
3 *164:20 *164:26 43.275 
4 *164:26 *164:30 47.0657 
5 *164:30 *164:40 49.077 
6 *164:40 *164:50 31.9679 
7 *164:50 *164:52 168.821 
8 *164:52 *3781:DI[0] 19.1739 
*END

*D_NET *165 0.00158201
*CONN
*I *3800:A I *D sky130_fd_sc_hd__buf_2
*I *3690:X O *D sky130_fd_sc_hd__dlygate4sd3_1
*CAP
1 *3800:A 0
2 *3690:X 0.000294856
3 *165:10 0.000294856
4 *165:10 *3690:A 0.000148524
5 *165:10 *254:8 0
6 *165:10 *335:36 2.75733e-06
7 wbs_dat_o[14] *165:10 0.000211157
8 *44:7 *165:10 0
9 *75:8 *165:10 0.000312348
10 *117:59 *165:10 0.000317509
*RES
1 *3690:X *165:10 47.6529 
2 *165:10 *3800:A 38 
*END

*D_NET *166 0.0215077
*CONN
*I *3781:DI[14] I *D CF_SRAM_1024x32
*I *3691:X O *D sky130_fd_sc_hd__dlygate4sd3_1
*CAP
1 *3781:DI[14] 0.00103632
2 *3691:X 0.000232739
3 *166:16 0.00202604
4 *166:12 0.00425946
5 *166:10 0.00326974
6 *166:8 0.000232739
7 *3781:DI[14] *171:32 2.39775e-05
8 *3781:DI[14] *317:66 5.65426e-05
9 *166:8 *171:8 0
10 *166:8 *236:38 0
11 *166:8 *247:12 5.80693e-05
12 *166:12 *308:12 0.000148019
13 *166:16 *258:52 0
14 *166:16 *281:72 0.000792776
15 *166:16 *381:16 0.000241157
16 *110:16 *166:12 0.00417896
17 *117:15 *166:16 1.47563e-05
18 *118:7 *3781:DI[14] 0.000745726
19 *119:11 *166:16 0.00130779
20 *133:27 *166:16 0.00256237
21 *134:28 *166:16 0
22 *134:30 *166:16 0
23 *146:14 *166:12 0.000320471
24 *149:8 *166:8 0
*RES
1 *3691:X *166:8 40.9621 
2 *166:8 *166:10 15 
3 *166:10 *166:12 49.6936 
4 *166:12 *166:16 49.655 
5 *166:16 *3781:DI[14] 31.5818 
*END

*D_NET *167 0.00163117
*CONN
*I *3818:A I *D sky130_fd_sc_hd__buf_4
*I *3692:X O *D sky130_fd_sc_hd__dlygate4sd3_1
*CAP
1 *3818:A 0.000198059
2 *3692:X 9.48735e-05
3 *167:8 0.000292932
4 *3818:A *311:8 0.000405665
5 *519:DIODE *167:8 0.000106695
6 *3674:A *3818:A 0.000532948
*RES
1 *3692:X *167:8 39.5536 
2 *167:8 *3818:A 45.3121 
*END

*D_NET *168 0.025067
*CONN
*I *3781:DI[29] I *D CF_SRAM_1024x32
*I *3694:X O *D sky130_fd_sc_hd__dlygate4sd3_1
*CAP
1 *3781:DI[29] 0.000695138
2 *3694:X 5.78505e-05
3 *168:10 0.00857703
4 *168:8 0.00793974
5 *168:10 *175:8 0
6 *168:10 *195:26 1.69668e-05
7 *168:10 *212:10 0
8 *168:10 *212:16 0.0010552
9 *168:10 *212:24 0
10 *168:10 *221:8 0.00176927
11 *168:10 *226:18 0.000614556
12 *168:10 *234:32 0.000539875
13 *168:10 *251:8 0.00315915
14 *168:10 *381:16 0.000232764
15 *134:9 *3781:DI[29] 0.000409476
16 *160:16 *168:10 0
*RES
1 *3694:X *168:8 38.6214 
2 *168:8 *168:10 196.993 
3 *168:10 *3781:DI[29] 31.9029 
*END

*D_NET *169 0.000332532
*CONN
*I *3799:A I *D sky130_fd_sc_hd__buf_2
*I *3695:X O *D sky130_fd_sc_hd__dlygate4sd3_1
*CAP
1 *3799:A 0
2 *3695:X 0.000125722
3 *169:8 0.000125722
4 *169:8 *255:8 8.10876e-05
*RES
1 *3695:X *169:8 39.9057 
2 *169:8 *3799:A 38 
*END

*D_NET *170 0.0531512
*CONN
*I *3642:A I *D sky130_fd_sc_hd__clkbuf_4
*I *3622:B I *D sky130_fd_sc_hd__and4b_1
*I *3624:B I *D sky130_fd_sc_hd__and4b_1
*I *3625:B I *D sky130_fd_sc_hd__and4b_1
*I *3623:B I *D sky130_fd_sc_hd__and4b_1
*I *3794:X O *D sky130_fd_sc_hd__buf_2
*CAP
1 *3642:A 8.29961e-05
2 *3622:B 0
3 *3624:B 0
4 *3625:B 0.000547368
5 *3623:B 0
6 *3794:X 0.000942604
7 *170:99 0.000806289
8 *170:92 0.000415432
9 *170:88 0.000251719
10 *170:82 0.0013973
11 *170:80 0.00279933
12 *170:72 0.00306887
13 *170:64 0.00175456
14 *170:54 0.00128015
15 *170:52 0.00137136
16 *170:42 0.000666864
17 *170:34 0.00159046
18 *170:20 0.00222334
19 *3625:B *3625:A_N 0.000506605
20 *3625:B *3625:C 4.08036e-05
21 *3642:A *3641:A 5.56356e-05
22 *170:20 *3688:A 6.12551e-05
23 *170:20 *299:12 0.000184399
24 *170:20 *327:16 0.00038197
25 *170:20 *329:10 7.57176e-05
26 *170:34 *3604:A_N 0.000196934
27 *170:34 *3605:A_N 0.000413806
28 *170:34 *3605:C 0.000203474
29 *170:34 *3607:C 1.23172e-05
30 *170:34 *300:22 0.000188025
31 *170:34 *324:10 0.000174674
32 *170:34 *329:10 0.000579638
33 *170:34 *331:26 0.000883795
34 *170:34 *334:20 2.24608e-05
35 *170:34 *366:76 1.06693e-05
36 *170:34 *369:10 5.67051e-05
37 *170:42 *3641:A 8.59731e-05
38 *170:52 *327:57 0.000312461
39 *170:52 *367:18 0.000309111
40 *170:52 *371:29 4.19559e-05
41 *170:54 *3638:A 0.000223692
42 *170:54 *315:32 0.00115977
43 *170:54 *327:63 0.000846598
44 *170:54 *327:71 0.00228337
45 *170:54 *329:60 0.000200834
46 *170:54 *329:66 0.000975914
47 *170:54 *332:24 0.00270113
48 *170:54 *367:31 0.000377385
49 *170:54 *368:145 0.000429894
50 *170:64 *327:71 0.000369769
51 *170:64 *337:22 0.000318946
52 *170:72 *318:14 0
53 *170:72 *327:71 0.000191723
54 *170:72 *327:73 0.00109999
55 *170:80 *182:8 0.00015022
56 *170:80 *219:12 0.000130115
57 *170:80 *329:80 0.00286652
58 *170:82 *219:46 2.43944e-05
59 *170:82 *327:73 0.00513512
60 *170:82 *329:84 0.00505338
61 *170:88 *292:22 0.000214244
62 *170:92 *3622:C 2.86326e-05
63 *170:92 *3623:C 0.000478099
64 *170:92 *329:103 0.000112874
65 *170:92 *329:114 3.88841e-05
66 *170:99 *3623:C 4.39281e-05
67 *170:99 *3625:A_N 0.000128727
68 *170:99 *329:114 0.000276521
69 *170:99 *354:8 0.000353621
70 wbs_dat_o[2] *170:34 0.000136743
71 *3604:D *170:34 0.000148731
72 *3607:D *170:34 9.39979e-05
73 *3622:D *170:92 2.35426e-05
74 *3623:D *170:92 5.53064e-05
75 *3623:D *170:99 0.000110333
76 *3794:A *170:20 1.59094e-05
77 *3836:A *170:20 0.00027192
78 *3:17 *170:88 0.000214244
79 *115:69 *170:34 0.000148936
80 *115:97 *170:34 0.000105613
81 *119:57 *170:52 4.55635e-05
82 *142:37 *170:52 8.21456e-06
83 *143:59 *3642:A 2.75733e-06
84 *143:63 *3642:A 1.28576e-05
85 *143:63 *170:42 1.53621e-05
86 *157:14 *170:80 0.000973219
87 *163:8 *170:20 0.000556588
*RES
1 *3794:X *170:20 45.8064 
2 *170:20 *170:34 47.19 
3 *170:34 *170:42 34.1532 
4 *170:42 *170:52 32.1499 
5 *170:52 *170:54 57.3164 
6 *170:54 *170:64 35.3029 
7 *170:64 *170:72 47.6396 
8 *170:72 *170:80 29.1388 
9 *170:80 *170:82 58.2693 
10 *170:82 *170:88 32.9621 
11 *170:88 *170:92 5.40643 
12 *170:92 *3623:B 23 
13 *170:92 *170:99 7.29143 
14 *170:99 *3625:B 30.7886 
15 *170:99 *3624:B 23 
16 *170:88 *3622:B 23 
17 *170:42 *3642:A 39.7711 
*END

*D_NET *171 0.0205807
*CONN
*I *3781:DI[13] I *D CF_SRAM_1024x32
*I *3696:X O *D sky130_fd_sc_hd__dlygate4sd3_1
*CAP
1 *3781:DI[13] 0.000806409
2 *3696:X 0.000205607
3 *171:32 0.00120319
4 *171:20 0.0012788
5 *171:12 0.00182328
6 *171:10 0.000941264
7 *171:8 0.000205607
8 *3781:DI[13] *3781:BEN[13] 0
9 *171:8 *236:38 1.05441e-05
10 *171:20 *177:42 0.00190772
11 *171:20 *182:26 1.58785e-05
12 *171:20 *182:42 0.00175994
13 *171:20 *244:38 0.000129565
14 *171:20 *308:12 9.28078e-06
15 *171:32 *177:42 0.000192198
16 *171:32 *177:46 0.000761215
17 *171:32 *182:42 6.33533e-05
18 *171:32 *244:46 0.000764318
19 *3781:DI[14] *171:32 2.39775e-05
20 *110:16 *171:12 0.00427304
21 *114:17 *171:12 0.000470691
22 *117:9 *3781:DI[13] 0
23 *118:11 *171:20 0.000170892
24 *118:11 *171:32 0.000270492
25 *126:27 *171:8 0
26 *144:21 *171:12 0.00123934
27 *153:18 *171:12 0.00205407
28 *166:8 *171:8 0
*RES
1 *3696:X *171:8 40.9621 
2 *171:8 *171:10 15 
3 *171:10 *171:12 47.3114 
4 *171:12 *171:20 45.9679 
5 *171:20 *171:32 45.1629 
6 *171:32 *3781:DI[13] 26.2789 
*END

*D_NET *172 0.000212707
*CONN
*I *3828:A I *D sky130_fd_sc_hd__clkbuf_4
*I *3697:X O *D sky130_fd_sc_hd__dlygate4sd3_1
*CAP
1 *3828:A 3.09766e-05
2 *3697:X 3.09766e-05
3 *3828:A *336:34 9.81686e-05
4 *117:69 *3828:A 5.25848e-05
*RES
1 *3697:X *3828:A 47.0979 
*END

*D_NET *173 0.0413774
*CONN
*I *3781:DI[8] I *D CF_SRAM_1024x32
*I *3698:X O *D sky130_fd_sc_hd__dlygate4sd3_1
*CAP
1 *3781:DI[8] 0.00182658
2 *3698:X 0.00143139
3 *173:18 0.00413351
4 *173:16 0.00356052
5 *173:12 0.0021048
6 *173:8 0.00228259
7 *3781:DI[8] *392:DIODE 4.67488e-05
8 *3781:DI[8] *237:8 0.000352396
9 *3781:DI[8] *317:83 0.000193173
10 *173:8 *184:10 0.000779237
11 *173:8 *184:26 2.81664e-05
12 *173:8 *192:28 0.000671318
13 *173:8 *203:14 0.000170529
14 *173:12 *184:26 0.00248338
15 *173:12 *186:18 2.07695e-05
16 *173:16 *184:40 0.0026365
17 *173:16 *186:18 0.000762047
18 *173:16 *186:22 1.59071e-05
19 *173:16 *317:52 0.000273612
20 *173:18 *184:42 0.00762287
21 *173:18 *307:10 0.00762287
22 *128:29 *173:12 0.000270682
23 *129:27 *173:12 0.00100104
24 *129:27 *173:16 8.74886e-05
25 *129:29 *173:12 0.00010018
26 *129:31 *173:12 9.5877e-05
27 *129:33 *173:12 9.77405e-05
28 *132:29 *173:16 0.000149369
29 *132:33 *173:16 8.43466e-05
30 *132:35 *173:16 9.41704e-05
31 *143:21 *3781:DI[8] 7.37167e-05
32 *157:14 *173:8 0.000127117
33 *157:14 *173:12 0.000176784
*RES
1 *3698:X *173:8 45.5579 
2 *173:8 *173:12 29.1036 
3 *173:12 *173:16 47.5421 
4 *173:16 *173:18 101.914 
5 *173:18 *3781:DI[8] 41.2139 
*END

*D_NET *174 0.000188901
*CONN
*I *3820:A I *D sky130_fd_sc_hd__buf_4
*I *3699:X O *D sky130_fd_sc_hd__dlygate4sd3_1
*CAP
1 *3820:A 1.55476e-05
2 *3699:X 1.55476e-05
3 *3820:A *313:10 5.70006e-05
4 *3820:A *314:6 0.000100805
*RES
1 *3699:X *3820:A 47.0979 
*END

*D_NET *175 0.0329748
*CONN
*I *3781:DI[30] I *D CF_SRAM_1024x32
*I *3700:X O *D sky130_fd_sc_hd__dlygate4sd3_1
*CAP
1 *3781:DI[30] 0.000770018
2 *3700:X 0
3 *175:8 0.00654513
4 *175:6 0.00577511
5 *175:8 *179:16 0.00679241
6 *175:8 *193:20 0.000462739
7 *175:8 *248:10 0.000346128
8 *175:8 *251:8 0.0106949
9 *136:11 *3781:DI[30] 0.00158833
10 *168:10 *175:8 0
*RES
1 *3700:X *175:6 38 
2 *175:6 *175:8 202.979 
3 *175:8 *3781:DI[30] 33.4771 
*END

*D_NET *176 0.000108734
*CONN
*I *3798:A I *D sky130_fd_sc_hd__buf_2
*I *3701:X O *D sky130_fd_sc_hd__dlygate4sd3_1
*CAP
1 *3798:A 1.06148e-05
2 *3701:X 1.06148e-05
3 *3798:A *324:28 3.07986e-05
4 *3798:A *339:18 5.67058e-05
*RES
1 *3701:X *3798:A 46.6214 
*END

*D_NET *177 0.0242659
*CONN
*I *3781:DI[12] I *D CF_SRAM_1024x32
*I *3702:X O *D sky130_fd_sc_hd__dlygate4sd3_1
*CAP
1 *3781:DI[12] 0.000768064
2 *3702:X 0.000107655
3 *177:46 0.00130948
4 *177:42 0.00117782
5 *177:30 0.000958057
6 *177:24 0.00176209
7 *177:14 0.00230826
8 *177:8 0.000975482
9 *3781:DI[12] *241:94 0
10 *177:8 *328:36 2.26497e-05
11 *177:14 *241:18 0.000216853
12 *177:14 *244:24 0.00313883
13 *177:24 *186:18 0.000106737
14 *177:24 *219:36 8.4047e-05
15 *177:24 *244:24 1.41129e-05
16 *177:24 *244:32 0.00045179
17 *177:24 *258:44 1.01436e-05
18 *177:24 *281:50 9.68919e-05
19 *177:24 *351:8 0.000343689
20 *177:24 *361:48 9.25621e-05
21 *177:30 *304:16 0.000211699
22 *177:30 *306:42 0.000803176
23 *177:42 *244:38 0.00193332
24 *177:42 *244:44 3.06133e-05
25 *177:42 *317:66 7.11824e-06
26 *177:46 *241:94 0.000222432
27 *177:46 *244:46 0.000319078
28 *115:15 *177:46 0.000130191
29 *116:9 *3781:DI[12] 0
30 *116:11 *177:46 0.000666843
31 *118:11 *177:42 5.96346e-06
32 *118:11 *177:46 0.000139704
33 *119:23 *177:14 0.00213793
34 *126:27 *177:8 3.11575e-05
35 *130:43 *177:30 0.000390942
36 *131:27 *177:24 0.000265598
37 *132:39 *177:24 8.15641e-05
38 *132:41 *177:24 3.62323e-05
39 *132:43 *177:24 4.6318e-06
40 *164:40 *177:24 4.13794e-05
41 *171:20 *177:42 0.00190772
42 *171:32 *177:42 0.000192198
43 *171:32 *177:46 0.000761215
*RES
1 *3702:X *177:8 39.5536 
2 *177:8 *177:14 49.945 
3 *177:14 *177:24 37.5579 
4 *177:24 *177:30 39.1971 
5 *177:30 *177:42 44.145 
6 *177:42 *177:46 36.6257 
7 *177:46 *3781:DI[12] 25.8232 
*END

*D_NET *178 0.00132496
*CONN
*I *3821:A I *D sky130_fd_sc_hd__buf_4
*I *3703:X O *D sky130_fd_sc_hd__dlygate4sd3_1
*CAP
1 *3821:A 0
2 *3703:X 0.00047535
3 *178:10 0.00047535
4 *178:10 *288:6 0.000230604
5 *520:DIODE *178:10 0.000143655
*RES
1 *3703:X *178:10 47.6114 
2 *178:10 *3821:A 38 
*END

*D_NET *179 0.0296496
*CONN
*I *3781:DI[31] I *D CF_SRAM_1024x32
*I *3705:X O *D sky130_fd_sc_hd__dlygate4sd3_1
*CAP
1 *3781:DI[31] 0.000824661
2 *3705:X 0
3 *179:16 0.00799221
4 *179:14 0.00716755
5 *179:12 0.00124149
6 *179:6 0.00124149
7 *179:16 *248:10 0.00181249
8 *134:11 *179:16 0
9 *136:13 *179:12 0.000450025
10 *137:11 *3781:DI[31] 0.00167723
11 *145:67 *179:12 0.000450025
12 *175:8 *179:16 0.00679241
*RES
1 *3705:X *179:6 38 
2 *179:6 *179:12 43.3164 
3 *179:12 *179:14 15 
4 *179:14 *179:16 187.485 
5 *179:16 *3781:DI[31] 34.4507 
*END

*D_NET *180 0.00072233
*CONN
*I *3827:A I *D sky130_fd_sc_hd__clkbuf_4
*I *3706:X O *D sky130_fd_sc_hd__dlygate4sd3_1
*CAP
1 *3827:A 5.89607e-05
2 *3706:X 8.98998e-05
3 *180:8 0.000148861
4 *3827:A *319:6 0.00018536
5 *3827:A *363:22 0.000100061
6 *3827:A *367:49 5.3304e-05
7 *180:8 *181:46 2.28814e-05
8 *180:8 *363:28 2.99257e-05
9 *180:8 *367:43 3.30774e-05
*RES
1 *3706:X *180:8 39.5536 
2 *180:8 *3827:A 40.0507 
*END

*D_NET *181 0.0189699
*CONN
*I *3689:A I *D sky130_fd_sc_hd__dlygate4sd3_1
*I *3795:X O *D sky130_fd_sc_hd__buf_4
*CAP
1 *3689:A 0
2 *3795:X 0.00131494
3 *181:52 0.00106188
4 *181:46 0.00169787
5 *181:42 0.00103932
6 *181:32 0.00143582
7 *181:14 0.00234743
8 *181:14 *3743:A 0.000130676
9 *181:14 *3772:A 0.000300125
10 *181:14 *218:6 0.000512371
11 *181:14 *243:10 5.50049e-05
12 *181:14 *246:12 0.000278063
13 *181:14 *317:18 0.000169248
14 *181:14 *335:22 4.82867e-05
15 *181:32 *315:10 0.000178235
16 *181:32 *317:26 0.000385375
17 *181:32 *329:38 0.000160585
18 *181:32 *333:12 0.000154967
19 *181:32 *335:22 0.000574953
20 *181:32 *355:20 2.05503e-05
21 *181:32 *363:22 0.000387672
22 *181:42 *333:22 0.00155849
23 *181:42 *350:14 0.000100139
24 *181:42 *364:26 0.000781949
25 *181:46 *367:43 0
26 *181:52 *328:18 0.00136441
27 *181:52 *337:32 0.000259632
28 *482:DIODE *181:32 2.31116e-05
29 *111:12 *181:52 0
30 *111:14 *181:42 0.000341613
31 *113:55 *181:32 7.82491e-05
32 *119:41 *181:52 0.0008022
33 *119:47 *181:52 0.00130068
34 *141:15 *181:32 2.53784e-05
35 *145:24 *181:32 8.21456e-06
36 *145:24 *181:42 4.96207e-05
37 *180:8 *181:46 2.28814e-05
*RES
1 *3795:X *181:14 49.0689 
2 *181:14 *181:32 41.0637 
3 *181:32 *181:42 48.415 
4 *181:42 *181:46 23.2443 
5 *181:46 *181:52 49.075 
6 *181:52 *3689:A 38 
*END

*D_NET *182 0.0404917
*CONN
*I *3781:DI[7] I *D CF_SRAM_1024x32
*I *3707:X O *D sky130_fd_sc_hd__dlygate4sd3_1
*CAP
1 *3781:DI[7] 0.000483862
2 *3707:X 0
3 *182:62 0.000853194
4 *182:58 0.0011649
5 *182:52 0.0015725
6 *182:44 0.00077693
7 *182:42 0.000642161
8 *182:32 0.000697266
9 *182:26 0.00153431
10 *182:20 0.00349614
11 *182:8 0.0026329
12 *182:4 0.000615971
13 *3781:DI[7] *244:62 0
14 *182:8 *219:12 0.00306852
15 *182:8 *327:73 0.00306852
16 *182:20 *241:18 0.000833198
17 *182:20 *328:40 0.000130187
18 *182:20 *329:84 0.000112764
19 *182:26 *219:46 1.00084e-05
20 *182:26 *308:12 7.25054e-05
21 *182:26 *327:73 0.000200294
22 *182:32 *259:56 0.000137368
23 *182:58 *244:46 0
24 *182:62 *206:10 0.00178459
25 *461:DIODE *182:32 0.000135037
26 *3781:DI[9] *182:58 6.17437e-06
27 *116:11 *182:26 0.000353192
28 *118:11 *182:26 1.03972e-05
29 *118:11 *182:42 0.00175994
30 *128:35 *182:20 5.17208e-05
31 *129:11 *182:62 0.0017642
32 *129:19 *182:26 0.000667283
33 *129:19 *182:52 0.00287462
34 *130:11 *182:58 0.00149597
35 *131:37 *182:20 5.47795e-05
36 *132:19 *182:42 6.17437e-06
37 *133:17 *3781:DI[7] 8.78733e-06
38 *142:9 *3781:DI[7] 0.0001469
39 *144:15 *182:58 2.35602e-06
40 *151:24 *182:26 0.000764672
41 *157:14 *182:20 9.84953e-05
42 *162:24 *182:52 0.00295379
43 *162:24 *182:58 0
44 *164:40 *182:20 0.0014597
45 *170:80 *182:8 0.00015022
46 *171:20 *182:26 1.58785e-05
47 *171:20 *182:42 0.00175994
48 *171:32 *182:42 6.33533e-05
*RES
1 *3707:X *182:4 23 
2 *182:4 *182:8 48.9714 
3 *182:8 *182:20 39.1608 
4 *182:20 *182:26 39.07 
5 *182:26 *182:32 31.5743 
6 *182:32 *182:42 41.5557 
7 *182:42 *182:44 15 
8 *182:44 *182:52 40.5275 
9 *182:52 *182:58 36.9261 
10 *182:58 *182:62 38.0343 
11 *182:62 *3781:DI[7] 22.4882 
*END

*D_NET *183 0.00171753
*CONN
*I *3826:A I *D sky130_fd_sc_hd__clkbuf_4
*I *3708:X O *D sky130_fd_sc_hd__dlygate4sd3_1
*CAP
1 *3826:A 6.41063e-05
2 *3708:X 0.000386941
3 *183:8 0.000451047
4 *3826:A *361:10 2.43944e-05
5 *3826:A *361:14 2.93845e-05
6 *3826:A *363:22 0.000136743
7 *183:8 *187:14 0.00029803
8 *183:8 *231:10 0.000298162
9 *183:8 *294:8 0
10 *183:8 *296:8 1.94418e-05
11 *183:8 *324:18 9.28078e-06
12 *3683:A *183:8 0
*RES
1 *3708:X *183:8 45.54 
2 *183:8 *3826:A 39.5743 
*END

*D_NET *184 0.0451313
*CONN
*I *3781:DI[6] I *D CF_SRAM_1024x32
*I *3709:X O *D sky130_fd_sc_hd__dlygate4sd3_1
*CAP
1 *3781:DI[6] 0.00185635
2 *3709:X 0.00107107
3 *184:42 0.00480675
4 *184:40 0.00379294
5 *184:36 0.00109899
6 *184:26 0.00084496
7 *184:10 0.00165959
8 *3781:DI[6] *197:8 0.000228558
9 *184:10 *386:DIODE 0.000205081
10 *184:10 *186:8 0.000235651
11 *184:10 *192:28 6.33508e-05
12 *184:10 *203:14 0.000170529
13 *184:10 *321:26 2.93845e-05
14 *184:10 *322:26 0.000229795
15 *184:26 *186:8 0.00043585
16 *184:26 *186:18 0.00186256
17 *184:26 *301:10 2.01788e-05
18 *184:40 *186:22 0.000827557
19 *184:42 *270:36 0
20 *184:42 *307:10 0.000823087
21 *128:23 *184:36 0.000264324
22 *129:27 *184:40 0.00109652
23 *139:11 *184:42 0.00910251
24 *141:9 *3781:DI[6] 0
25 *153:8 *184:10 0.000317281
26 *157:14 *184:10 0.000160838
27 *157:14 *184:26 0.000107129
28 *157:14 *184:36 0.000270343
29 *173:8 *184:10 0.000779237
30 *173:8 *184:26 2.81664e-05
31 *173:12 *184:26 0.00248338
32 *173:16 *184:40 0.0026365
33 *173:18 *184:42 0.00762287
*RES
1 *3709:X *184:10 49.7421 
2 *184:10 *184:26 45.7089 
3 *184:26 *184:36 32.2444 
4 *184:36 *184:40 44.6836 
5 *184:40 *184:42 124.804 
6 *184:42 *3781:DI[6] 40.7789 
*END

*D_NET *185 0.000713765
*CONN
*I *3797:A I *D sky130_fd_sc_hd__buf_2
*I *3710:X O *D sky130_fd_sc_hd__dlygate4sd3_1
*CAP
1 *3797:A 0
2 *3710:X 0.000142104
3 *185:10 0.000142104
4 *185:10 *3710:A 0.000204673
5 *185:10 *258:20 2.93747e-05
6 *185:10 *306:8 0.000139352
7 *111:14 *185:10 5.61579e-05
*RES
1 *3710:X *185:10 27.1221 
2 *185:10 *3797:A 23 
*END

*D_NET *186 0.0301741
*CONN
*I *3781:DI[11] I *D CF_SRAM_1024x32
*I *3711:X O *D sky130_fd_sc_hd__dlygate4sd3_1
*CAP
1 *3781:DI[11] 0.00238365
2 *3711:X 0.000303671
3 *186:26 0.00492017
4 *186:24 0.00253653
5 *186:22 0.00200294
6 *186:18 0.00307803
7 *186:8 0.00137876
8 *186:26 *309:10 0.000139163
9 *115:15 *3781:DI[11] 0.000236006
10 *121:22 *186:26 0
11 *129:27 *186:22 0.000554827
12 *130:47 *186:18 8.34394e-05
13 *130:49 *186:18 9.67842e-05
14 *131:11 *186:26 0
15 *132:39 *186:18 0.000104515
16 *135:21 *186:26 0.000439929
17 *153:8 *186:8 0.00137057
18 *153:8 *186:18 1.72202e-05
19 *153:16 *186:18 0.00127028
20 *153:22 *186:26 0.00499054
21 *173:12 *186:18 2.07695e-05
22 *173:16 *186:18 0.000762047
23 *173:16 *186:22 1.59071e-05
24 *177:24 *186:18 0.000106737
25 *184:10 *186:8 0.000235651
26 *184:26 *186:8 0.00043585
27 *184:26 *186:18 0.00186256
28 *184:40 *186:22 0.000827557
*RES
1 *3711:X *186:8 38.4114 
2 *186:8 *186:18 46.8793 
3 *186:18 *186:22 41.825 
4 *186:22 *186:24 15 
5 *186:24 *186:26 69.5171 
6 *186:26 *3781:DI[11] 43.3682 
*END

*D_NET *187 0.00498362
*CONN
*I *3825:A I *D sky130_fd_sc_hd__clkbuf_4
*I *3712:X O *D sky130_fd_sc_hd__dlygate4sd3_1
*CAP
1 *3825:A 0
2 *3712:X 0.0011611
3 *187:14 0.00050469
4 *187:6 0.00166579
5 *187:6 *224:12 0.000838506
6 *187:6 *339:12 7.45491e-05
7 *187:14 *231:10 1.15883e-05
8 *187:14 *296:8 2.57949e-05
9 *187:14 *312:36 5.50106e-05
10 *187:14 *317:26 2.05503e-05
11 *187:14 *360:18 0
12 *187:14 *364:18 0
13 *187:14 *369:31 5.50106e-05
14 *478:DIODE *187:14 1.14452e-05
15 *3653:A *187:6 6.9805e-05
16 *3683:A *187:14 1.34395e-05
17 *109:14 *187:6 5.3304e-05
18 *113:55 *187:14 7.37986e-05
19 *124:29 *187:14 0
20 *145:16 *187:14 5.12151e-05
21 *183:8 *187:14 0.00029803
*RES
1 *3712:X *187:6 38.8671 
2 *187:6 *187:14 38.8657 
3 *187:14 *3825:A 23 
*END

*D_NET *188 0.0359779
*CONN
*I *3781:DI[5] I *D CF_SRAM_1024x32
*I *3713:X O *D sky130_fd_sc_hd__dlygate4sd3_1
*CAP
1 *3781:DI[5] 4.2781e-05
2 *3713:X 0.000610399
3 *188:28 0.00455048
4 *188:26 0.00502294
5 *188:14 0.00107476
6 *188:10 0.000559523
7 *188:8 0.000610399
8 *188:26 *3781:vpwrac 0.000111701
9 *188:26 *241:28 0.000221228
10 *188:26 *258:52 2.64616e-05
11 *188:26 *281:60 0.000139982
12 *188:28 *258:44 3.55458e-05
13 *122:27 *188:8 0
14 *123:27 *188:8 0
15 *126:27 *188:14 0.000207844
16 *127:19 *188:28 0.00365008
17 *138:29 *188:26 5.94644e-05
18 *138:31 *188:14 0.00193915
19 *138:31 *188:26 0.00194958
20 *140:9 *3781:DI[5] 8.46966e-05
21 *140:11 *188:28 0.00971871
22 *140:15 *188:14 0.00344153
23 *140:15 *188:26 0.00192067
*RES
1 *3713:X *188:8 48.005 
2 *188:8 *188:10 15 
3 *188:10 *188:14 38.0418 
4 *188:14 *188:26 45.2532 
5 *188:26 *188:28 125.798 
6 *188:28 *3781:DI[5] 16.0254 
*END

*D_NET *189 0.000270562
*CONN
*I *3805:A I *D sky130_fd_sc_hd__clkbuf_4
*I *3714:X O *D sky130_fd_sc_hd__dlygate4sd3_1
*CAP
1 *3805:A 4.11105e-05
2 *3714:X 4.11105e-05
3 *3805:A *236:32 9.41704e-05
4 *3805:A *270:14 9.41704e-05
*RES
1 *3714:X *3805:A 47.0979 
*END

*D_NET *190 0.0255079
*CONN
*I *3781:DI[18] I *D CF_SRAM_1024x32
*I *3716:X O *D sky130_fd_sc_hd__dlygate4sd3_1
*CAP
1 *3781:DI[18] 0.000449113
2 *3716:X 5.77176e-05
3 *190:18 0.00256847
4 *190:16 0.00211935
5 *190:14 0.00102895
6 *190:8 0.00108666
7 *190:14 *195:12 2.26065e-05
8 *190:14 *195:22 0.00161284
9 *190:14 *210:8 9.64943e-05
10 *190:14 *234:10 0.00079161
11 *190:14 *326:24 0.000244542
12 *190:18 *206:10 0.00464909
13 *491:DIODE *190:14 0.000185095
14 *3:17 *190:14 0.000114083
15 *110:12 *190:14 0.000225265
16 *122:17 *3781:DI[18] 0
17 *129:11 *190:18 0.00861575
18 *133:11 *190:18 0.000908109
19 *146:16 *190:18 0.000732121
*RES
1 *3716:X *190:8 38.6214 
2 *190:8 *190:14 45.5329 
3 *190:14 *190:16 15 
4 *190:16 *190:18 112.831 
5 *190:18 *3781:DI[18] 22.6229 
*END

*D_NET *191 0.000546601
*CONN
*I *3813:A I *D sky130_fd_sc_hd__buf_4
*I *3717:X O *D sky130_fd_sc_hd__dlygate4sd3_1
*CAP
1 *3813:A 0
2 *3717:X 0.000202575
3 *191:10 0.000202575
4 *191:10 *192:14 8.64402e-05
5 *191:10 *257:14 0
6 *159:10 *191:10 5.50106e-05
*RES
1 *3717:X *191:10 40.8793 
2 *191:10 *3813:A 38 
*END

*D_NET *192 0.0144353
*CONN
*I *3737:A I *D sky130_fd_sc_hd__dlygate4sd3_1
*I *3796:X O *D sky130_fd_sc_hd__clkbuf_4
*CAP
1 *3737:A 0
2 *3796:X 0.000971634
3 *192:28 0.00217113
4 *192:20 0.00266034
5 *192:14 0.00111143
6 *192:6 0.00159386
7 *192:6 *317:42 0.000120171
8 *192:14 *257:14 3.39037e-05
9 *192:14 *312:46 0.000612372
10 *192:14 *371:63 0.000610665
11 *192:20 *312:54 0
12 *192:20 *315:42 8.62876e-05
13 *192:20 *324:34 0.000170638
14 *192:28 *386:DIODE 0.000354836
15 *192:28 *3713:A 0.000251876
16 *192:28 *316:26 0.000147595
17 *192:28 *319:26 0.00064167
18 *192:28 *321:26 0.000182832
19 *192:28 *322:26 0.000433866
20 *3636:A *192:20 0
21 *111:12 *192:14 0
22 *111:12 *192:20 0
23 *111:14 *192:6 0.00128854
24 *157:14 *192:28 0.000170495
25 *164:8 *192:20 0
26 *173:8 *192:28 0.000671318
27 *184:10 *192:28 6.33508e-05
28 *191:10 *192:14 8.64402e-05
*RES
1 *3796:X *192:6 37.4379 
2 *192:6 *192:14 43.6507 
3 *192:14 *192:20 37.54 
4 *192:20 *192:28 40.3514 
5 *192:28 *3737:A 23 
*END

*D_NET *193 0.0223407
*CONN
*I *3781:AD[9] I *D CF_SRAM_1024x32
*I *3718:X O *D sky130_fd_sc_hd__dlygate4sd3_1
*CAP
1 *3781:AD[9] 0.0014786
2 *3718:X 0.000189221
3 *193:20 0.004205
4 *193:18 0.0029394
5 *193:10 0.000402217
6 *3781:AD[9] *3781:AD[3] 3.13999e-05
7 *3781:AD[9] *3781:AD[8] 0
8 *3781:AD[9] *195:32 0.000178716
9 *3781:AD[9] *234:32 7.43209e-05
10 *193:10 *281:72 3.05976e-05
11 *193:10 *304:26 0.000162179
12 *193:10 *339:38 0.000102247
13 *193:20 *221:8 0
14 *193:20 *248:10 0.00671292
15 *193:20 *251:8 0.000890854
16 *193:20 *259:58 0.00100797
17 *193:20 *302:26 0.00315272
18 *193:20 *303:38 0.000120018
19 *193:20 *304:26 0
20 *193:20 *305:14 0.000132429
21 *3746:A *193:18 6.17437e-06
22 *144:15 *193:18 6.09861e-05
23 *175:8 *193:20 0.000462739
*RES
1 *3718:X *193:10 41.3557 
2 *193:10 *193:18 33.0243 
3 *193:18 *193:20 105.788 
4 *193:20 *3781:AD[9] 35.357 
*END

*D_NET *194 0.000241554
*CONN
*I *3804:A I *D sky130_fd_sc_hd__clkbuf_4
*I *3719:X O *D sky130_fd_sc_hd__dlygate4sd3_1
*CAP
1 *3804:A 2.19236e-05
2 *3719:X 2.19236e-05
3 *3804:A *3719:A 9.84794e-05
4 *3804:A *236:22 9.92279e-05
*RES
1 *3719:X *3804:A 47.0979 
*END

*D_NET *195 0.0263666
*CONN
*I *3781:DI[17] I *D CF_SRAM_1024x32
*I *3720:X O *D sky130_fd_sc_hd__dlygate4sd3_1
*CAP
1 *3781:DI[17] 0.000197908
2 *3720:X 0.000373659
3 *195:34 0.00121367
4 *195:32 0.00171731
5 *195:26 0.00156014
6 *195:24 0.000858591
7 *195:22 0.00136067
8 *195:12 0.00173433
9 *3781:DI[17] *377:10 0.000264773
10 *195:22 *197:10 0.000250541
11 *195:22 *208:10 0.000200284
12 *195:22 *210:10 0.000294373
13 *195:22 *217:10 0.000447843
14 *195:22 *234:10 0.00045768
15 *195:22 *326:24 0.000376864
16 *195:26 *212:10 0.00319428
17 *195:26 *226:10 0.000109991
18 *195:26 *226:18 0.00301969
19 *195:26 *381:16 0.000600819
20 *195:32 *3781:AD[3] 0.000455365
21 *3781:CLKin *3781:DI[17] 0
22 *3781:AD[9] *195:32 0.000178716
23 *110:12 *195:12 0.000462269
24 *112:10 *195:34 0.0034667
25 *121:20 *3781:DI[17] 3.34129e-05
26 *126:19 *195:34 0.000524381
27 *133:23 *195:12 0.000173473
28 *155:10 *195:34 0.00118641
29 *168:10 *195:26 1.69668e-05
30 *190:14 *195:12 2.26065e-05
31 *190:14 *195:22 0.00161284
*RES
1 *3720:X *195:12 47.2075 
2 *195:12 *195:22 45.3153 
3 *195:22 *195:24 8 
4 *195:24 *195:26 42.2261 
5 *195:26 *195:32 40.6264 
6 *195:32 *195:34 45.2193 
7 *195:34 *3781:DI[17] 19.3914 
*END

*D_NET *196 0.000432988
*CONN
*I *3806:A I *D sky130_fd_sc_hd__clkbuf_4
*I *3721:X O *D sky130_fd_sc_hd__dlygate4sd3_1
*CAP
1 *3806:A 0
2 *3721:X 0.00013661
3 *196:10 0.00013661
4 *196:10 *259:10 0.000104463
5 *196:10 *270:14 5.53064e-05
*RES
1 *3721:X *196:10 40.175 
2 *196:10 *3806:A 38 
*END

*D_NET *197 0.0277194
*CONN
*I *3781:DI[19] I *D CF_SRAM_1024x32
*I *3722:X O *D sky130_fd_sc_hd__dlygate4sd3_1
*CAP
1 *3781:DI[19] 0.000653379
2 *3722:X 0.000151567
3 *197:10 0.00323444
4 *197:8 0.00273262
5 *197:10 *201:10 0.000213953
6 *197:10 *204:10 0.0103312
7 *197:10 *208:10 0.00989595
8 *3781:DI[6] *197:8 0.000228558
9 *123:17 *3781:DI[19] 2.72257e-05
10 *141:9 *197:8 0
11 *195:22 *197:10 0.000250541
*RES
1 *3722:X *197:8 40.5271 
2 *197:8 *197:10 140.65 
3 *197:10 *3781:DI[19] 25.9786 
*END

*D_NET *198 0.00234882
*CONN
*I *3823:A I *D sky130_fd_sc_hd__clkbuf_4
*I *3723:X O *D sky130_fd_sc_hd__dlygate4sd3_1
*CAP
1 *3823:A 0.000296025
2 *3723:X 0.000247292
3 *198:8 0.000543317
4 *3823:A *312:14 0.000297412
5 *3823:A *316:18 5.56279e-05
6 *3823:A *355:14 0.000181131
7 *3823:A *362:12 0.000142283
8 *3823:A *365:6 8.48502e-06
9 *198:8 *329:38 1.75427e-05
10 *198:8 *335:28 0.000141156
11 *389:DIODE *198:8 0.000152426
12 *390:DIODE *198:8 0.000153756
13 *3600:D *3823:A 2.35426e-05
14 *3661:A *198:8 7.95416e-05
15 *124:65 *198:8 9.28078e-06
*RES
1 *3723:X *198:8 43.075 
2 *198:8 *3823:A 44.5043 
*END

*D_NET *199 0.050609
*CONN
*I *3781:DI[4] I *D CF_SRAM_1024x32
*I *3724:X O *D sky130_fd_sc_hd__dlygate4sd3_1
*CAP
1 *3781:DI[4] 0.00238494
2 *3724:X 0.000342514
3 *199:24 0.00524093
4 *199:22 0.00469096
5 *199:18 0.00188809
6 *199:12 0.00251231
7 *199:10 0.00245918
8 *199:8 0.000342514
9 *3781:DI[4] *3738:A 4.9662e-05
10 *3781:DI[4] *212:8 0.000139067
11 *3781:DI[4] *219:58 0.000135037
12 *3781:DI[4] *244:102 0
13 *199:12 *304:16 0.000573778
14 *199:12 *328:48 0.00184452
15 *199:18 *303:28 8.11135e-05
16 *199:22 *361:48 0.000392492
17 *119:15 *199:12 0
18 *122:27 *199:8 0
19 *122:27 *199:12 0.000724966
20 *131:19 *199:12 0.000475288
21 *131:19 *199:22 0.000178665
22 *135:21 *199:24 0.000849505
23 *137:13 *199:24 0.000504646
24 *139:9 *3781:DI[4] 0
25 *141:11 *199:24 0.00931196
26 *145:63 *199:12 0.00286292
27 *145:63 *199:22 0.00161122
28 *146:16 *199:18 8.11135e-05
29 *157:16 *199:24 0.0108315
30 *162:22 *199:12 0.000100139
*RES
1 *3724:X *199:8 43.075 
2 *199:8 *199:10 15 
3 *199:10 *199:12 76.3736 
4 *199:12 *199:18 31.2014 
5 *199:18 *199:22 41.825 
6 *199:22 *199:24 142.411 
7 *199:24 *3781:DI[4] 48.4432 
*END

*D_NET *200 0.00156842
*CONN
*I *3803:A I *D sky130_fd_sc_hd__clkbuf_4
*I *3725:X O *D sky130_fd_sc_hd__dlygate4sd3_1
*CAP
1 *3803:A 0
2 *3725:X 0.000287097
3 *200:10 0.000287097
4 *200:10 *272:8 4.9809e-06
5 *200:10 *338:20 4.77164e-06
6 *200:10 *340:22 0.000484545
7 wbs_dat_o[15] *200:10 5.3304e-05
8 wbs_dat_o[16] *200:10 0.000207996
9 *46:7 *200:10 0
10 *117:59 *200:10 0.000238626
*RES
1 *3725:X *200:10 46.7 
2 *200:10 *3803:A 38 
*END

*D_NET *201 0.023967
*CONN
*I *3781:DI[16] I *D CF_SRAM_1024x32
*I *3727:X O *D sky130_fd_sc_hd__dlygate4sd3_1
*CAP
1 *3781:DI[16] 0.000439479
2 *3727:X 0.000250323
3 *201:10 0.00285938
4 *201:8 0.00267022
5 *201:8 *3781:BEN[7] 0.000100061
6 *201:10 *204:10 0.00774357
7 *201:10 *237:10 0.00840776
8 *120:16 *3781:DI[16] 0.000801114
9 *130:11 *201:10 0.000310191
10 *133:23 *201:10 0.000171004
11 *197:10 *201:10 0.000213953
*RES
1 *3727:X *201:8 41.48 
2 *201:8 *201:10 123.747 
3 *201:10 *3781:DI[16] 24.9636 
*END

*D_NET *202 0.00144658
*CONN
*I *3808:A I *D sky130_fd_sc_hd__clkbuf_4
*I *3728:X O *D sky130_fd_sc_hd__dlygate4sd3_1
*CAP
1 *3808:A 0.000146705
2 *3728:X 0.000231208
3 *202:8 0.000377914
4 *202:8 *258:26 0.000103653
5 *202:8 *339:28 0
6 wbs_dat_o[22] *202:8 0
7 *120:42 *3808:A 0.000313249
8 *128:43 *202:8 1.02029e-05
9 *128:45 *202:8 3.53667e-05
10 *128:47 *202:8 4.334e-05
11 *128:49 *202:8 6.07611e-06
12 *148:38 *3808:A 5.3304e-05
13 *148:38 *202:8 0.000125566
*RES
1 *3728:X *202:8 42.3707 
2 *202:8 *3808:A 41.48 
*END

*D_NET *203 0.0122543
*CONN
*I *3711:A I *D sky130_fd_sc_hd__dlygate4sd3_1
*I *3797:X O *D sky130_fd_sc_hd__buf_2
*CAP
1 *3711:A 0
2 *3797:X 0
3 *203:14 0.00118987
4 *203:6 0.00383056
5 *203:4 0.00264069
6 *203:6 *306:8 9.30054e-05
7 *203:6 *317:44 0.00373778
8 *203:6 *350:14 0.000277784
9 *203:14 *341:18 0.000123425
10 *203:14 *342:20 0
11 *3614:D *203:14 2.01195e-05
12 *151:12 *203:14 0
13 *173:8 *203:14 0.000170529
14 *184:10 *203:14 0.000170529
*RES
1 *3797:X *203:4 23 
2 *203:4 *203:6 43.0236 
3 *203:6 *203:14 48.415 
4 *203:14 *3711:A 23 
*END

*D_NET *204 0.0267616
*CONN
*I *3781:DI[20] I *D CF_SRAM_1024x32
*I *3729:X O *D sky130_fd_sc_hd__dlygate4sd3_1
*CAP
1 *3781:DI[20] 0.000628773
2 *3729:X 0.000235138
3 *204:10 0.00389269
4 *204:8 0.00349905
5 *204:10 *208:10 0.000431155
6 *125:17 *3781:DI[20] 0
7 *130:11 *204:10 0
8 *141:9 *204:8 0
9 *197:10 *204:10 0.0103312
10 *201:10 *204:10 0.00774357
*RES
1 *3729:X *204:8 41.0036 
2 *204:8 *204:10 146.284 
3 *204:10 *3781:DI[20] 25.5229 
*END

*D_NET *205 0.000549578
*CONN
*I *3802:A I *D sky130_fd_sc_hd__buf_4
*I *3730:X O *D sky130_fd_sc_hd__dlygate4sd3_1
*CAP
1 *3802:A 3.21736e-05
2 *3730:X 0.000135804
3 *205:8 0.000167978
4 *111:14 *3802:A 2.64616e-05
5 *148:10 *3802:A 2.64616e-05
6 *161:8 *205:8 0.0001607
*RES
1 *3730:X *205:8 40.2579 
2 *205:8 *3802:A 38.6214 
*END

*D_NET *206 0.0218076
*CONN
*I *3781:AD[8] I *D CF_SRAM_1024x32
*I *3731:X O *D sky130_fd_sc_hd__dlygate4sd3_1
*CAP
1 *3781:AD[8] 0.000377916
2 *3731:X 0.000486533
3 *206:10 0.00209951
4 *206:8 0.00220812
5 *3781:AD[8] *3781:AD[7] 0.000117196
6 *206:8 *393:DIODE 7.95471e-06
7 *3781:AD[9] *3781:AD[8] 0
8 *3781:DI[9] *206:8 3.82058e-06
9 *3781:DI[9] *206:10 0.000145969
10 *129:11 *206:10 0.00114524
11 *146:16 *206:10 0.00878162
12 *182:62 *206:10 0.00178459
13 *190:18 *206:10 0.00464909
*RES
1 *3731:X *206:8 44.3386 
2 *206:8 *206:10 113.183 
3 *206:10 *3781:AD[8] 21.5509 
*END

*D_NET *207 0.00286907
*CONN
*I *3809:A I *D sky130_fd_sc_hd__clkbuf_4
*I *3732:X O *D sky130_fd_sc_hd__dlygate4sd3_1
*CAP
1 *3809:A 9.44376e-05
2 *3732:X 0.000514729
3 *207:8 0.000609166
4 *3809:A *306:22 0.000448457
5 *3809:A *317:44 8.99655e-05
6 *207:8 *209:10 0
7 *207:8 *292:16 0.000253665
8 wbs_dat_o[22] *207:8 0
9 *422:DIODE *207:8 0.000206403
10 *54:9 *207:8 0
11 *85:8 *3809:A 0.000274292
12 *129:45 *207:8 3.5259e-05
13 *129:47 *207:8 0.000135701
14 *129:49 *207:8 0.000206998
*RES
1 *3732:X *207:8 46.9486 
2 *207:8 *3809:A 42.9093 
*END

*D_NET *208 0.0291369
*CONN
*I *3781:DI[21] I *D CF_SRAM_1024x32
*I *3733:X O *D sky130_fd_sc_hd__dlygate4sd3_1
*CAP
1 *3781:DI[21] 0.000674758
2 *3733:X 0.000181145
3 *208:10 0.0035095
4 *208:8 0.00301589
5 *208:10 *210:10 0.0112282
6 *126:17 *3781:DI[21] 0
7 *195:22 *208:10 0.000200284
8 *197:10 *208:10 0.00989595
9 *204:10 *208:10 0.000431155
*RES
1 *3733:X *208:8 40.0507 
2 *208:8 *208:10 151.919 
3 *208:10 *3781:DI[21] 26.4964 
*END

*D_NET *209 0.000971439
*CONN
*I *3810:A I *D sky130_fd_sc_hd__clkbuf_4
*I *3734:X O *D sky130_fd_sc_hd__dlygate4sd3_1
*CAP
1 *3810:A 0
2 *3734:X 0.000388218
3 *209:10 0.000388218
4 *209:10 *270:24 0.000101226
5 *209:10 *270:34 4.83443e-05
6 *209:10 *281:34 0
7 *209:10 *292:16 3.48883e-05
8 *209:10 *361:34 1.05441e-05
9 *130:69 *209:10 0
10 *130:71 *209:10 0
11 *130:73 *209:10 0
12 *207:8 *209:10 0
*RES
1 *3734:X *209:10 44.1729 
2 *209:10 *3810:A 38 
*END

*D_NET *210 0.0312097
*CONN
*I *3781:DI[22] I *D CF_SRAM_1024x32
*I *3735:X O *D sky130_fd_sc_hd__dlygate4sd3_1
*CAP
1 *3781:DI[22] 0.000688391
2 *3735:X 0.000120651
3 *210:10 0.00409985
4 *210:8 0.00353211
5 *210:10 *217:10 0.0111497
6 *127:17 *3781:DI[22] 0
7 *130:11 *210:10 0
8 *190:14 *210:8 9.64943e-05
9 *195:22 *210:10 0.000294373
10 *208:10 *210:10 0.0112282
*RES
1 *3735:X *210:8 39.5743 
2 *210:8 *210:10 157.905 
3 *210:10 *3781:DI[22] 26.6414 
*END

*D_NET *211 0.000207585
*CONN
*I *3811:A I *D sky130_fd_sc_hd__clkbuf_4
*I *3736:X O *D sky130_fd_sc_hd__dlygate4sd3_1
*CAP
1 *3811:A 3.83858e-05
2 *3736:X 3.83858e-05
3 *3811:A *259:44 9.72368e-05
4 *3811:A *292:20 3.3577e-05
*RES
1 *3736:X *3811:A 47.0979 
*END

*D_NET *212 0.0278231
*CONN
*I *3781:DI[23] I *D CF_SRAM_1024x32
*I *3738:X O *D sky130_fd_sc_hd__dlygate4sd3_1
*CAP
1 *3781:DI[23] 0.00031199
2 *3738:X 0.000116045
3 *212:26 0.00181496
4 *212:24 0.00231101
5 *212:16 0.00233439
6 *212:10 0.00303454
7 *212:8 0.00162424
8 *212:10 *226:10 2.46707e-05
9 *212:10 *234:10 1.83142e-05
10 *212:10 *234:24 0.00133922
11 *212:10 *234:32 0.000351075
12 *212:10 *239:8 0.00248053
13 *212:10 *239:22 0.000734447
14 *212:10 *381:16 0.000562183
15 *212:16 *234:32 0.000367457
16 *212:16 *239:22 0.000233261
17 *212:16 *381:12 2.33476e-05
18 *212:26 *230:24 0.000104976
19 *3781:DI[4] *212:8 0.000139067
20 *110:31 *212:10 0.000579654
21 *128:9 *3781:DI[23] 0
22 *132:11 *212:26 0.00395757
23 *155:10 *212:26 0
24 *160:10 *212:10 1.11421e-05
25 *160:14 *212:16 0.00100331
26 *160:14 *212:24 6.07611e-06
27 *160:16 *212:24 9.01597e-05
28 *168:10 *212:10 0
29 *168:10 *212:16 0.0010552
30 *168:10 *212:24 0
31 *195:26 *212:10 0.00319428
*RES
1 *3738:X *212:8 39.5743 
2 *212:8 *212:10 62.2982 
3 *212:10 *212:16 48.14 
4 *212:16 *212:24 43.2468 
5 *212:24 *212:26 50.8536 
6 *212:26 *3781:DI[23] 20.3443 
*END

*D_NET *213 0.000507217
*CONN
*I *3793:A I *D sky130_fd_sc_hd__buf_4
*I *3739:X O *D sky130_fd_sc_hd__dlygate4sd3_1
*CAP
1 *3793:A 2.77218e-05
2 *3739:X 0.000106866
3 *213:8 0.000134588
4 *3793:A *339:16 5.3304e-05
5 *213:8 *261:8 0
6 *213:8 *324:24 3.062e-05
7 *213:8 *332:30 0.000127656
8 *159:10 *3793:A 2.64616e-05
*RES
1 *3739:X *213:8 39.9057 
2 *213:8 *3793:A 38.6214 
*END

*D_NET *214 0.0113814
*CONN
*I *3702:A I *D sky130_fd_sc_hd__dlygate4sd3_1
*I *3798:X O *D sky130_fd_sc_hd__buf_2
*CAP
1 *3702:A 0.000760114
2 *3798:X 0.000132769
3 *214:24 0.00181327
4 *214:18 0.00266405
5 *214:8 0.00174366
6 *3702:A *327:73 0.000296057
7 *214:8 *339:18 0.000977551
8 *214:18 *225:6 0.000303408
9 *214:18 *236:8 0
10 *214:18 *254:8 0.000104463
11 *214:18 *259:10 0.0010851
12 *214:18 *338:14 0
13 *214:24 *268:8 4.99877e-05
14 *214:24 *342:20 0.000132926
15 *214:24 *371:102 5.97021e-05
16 wbs_dat_o[14] *214:18 0.000102093
17 *3614:D *214:24 0
18 *151:6 *3702:A 0.000141215
19 *151:12 *214:24 3.74427e-05
20 *159:12 *214:8 0.000977551
*RES
1 *3798:X *214:8 48.6264 
2 *214:8 *214:18 41.6179 
3 *214:18 *214:24 45.2871 
4 *214:24 *3702:A 34.2893 
*END

*D_NET *215 0.0224688
*CONN
*I *3781:AD[7] I *D CF_SRAM_1024x32
*I *3740:X O *D sky130_fd_sc_hd__dlygate4sd3_1
*CAP
1 *3781:AD[7] 0.00147702
2 *3740:X 0
3 *215:8 0.00396466
4 *215:6 0.00248763
5 *3781:AD[7] *3781:AD[6] 0
6 *215:8 *248:10 0.00202127
7 *215:8 *305:14 0.00418063
8 *3781:AD[8] *3781:AD[7] 0.000117196
9 *134:11 *215:8 0.00822039
*RES
1 *3740:X *215:6 38 
2 *215:6 *215:8 108.957 
3 *215:8 *3781:AD[7] 36.9313 
*END

*D_NET *216 0.000470111
*CONN
*I *3812:A I *D sky130_fd_sc_hd__clkbuf_4
*I *3741:X O *D sky130_fd_sc_hd__dlygate4sd3_1
*CAP
1 *3812:A 8.13993e-05
2 *3741:X 0.000103406
3 *216:8 0.000184805
4 *216:8 *281:46 4.21594e-05
5 wbs_dat_o[24] *3812:A 5.83407e-05
*RES
1 *3741:X *216:8 39.5536 
2 *216:8 *3812:A 39.5743 
*END

*D_NET *217 0.0358002
*CONN
*I *3781:DI[24] I *D CF_SRAM_1024x32
*I *3742:X O *D sky130_fd_sc_hd__dlygate4sd3_1
*CAP
1 *3781:DI[24] 0.000595474
2 *3742:X 8.4513e-05
3 *217:10 0.00464807
4 *217:8 0.00413711
5 *217:10 *228:10 0.0123351
6 *217:10 *230:20 0.00194276
7 *217:10 *234:10 6.27466e-05
8 *217:10 *380:16 0.000102679
9 *129:9 *3781:DI[24] 0.000243094
10 *130:11 *217:10 0
11 *139:9 *217:8 5.1098e-05
12 *195:22 *217:10 0.000447843
13 *210:10 *217:10 0.0111497
*RES
1 *3742:X *217:8 39.0979 
2 *217:8 *217:10 171.639 
3 *217:10 *3781:DI[24] 27.5114 
*END

*D_NET *218 0.00123761
*CONN
*I *3822:A I *D sky130_fd_sc_hd__clkbuf_4
*I *3743:X O *D sky130_fd_sc_hd__dlygate4sd3_1
*CAP
1 *3822:A 0
2 *3743:X 0.00019149
3 *218:6 0.00019149
4 *218:6 *3605:A_N 9.58714e-05
5 *218:6 *3743:A 5.50049e-05
6 *218:6 *333:12 2.18506e-05
7 *218:6 *335:22 5.3304e-05
8 *218:6 *370:44 4.36915e-05
9 *218:6 *370:56 4.89908e-05
10 *115:97 *218:6 2.35426e-05
11 *181:14 *218:6 0.000512371
*RES
1 *3743:X *218:6 28.8621 
2 *218:6 *3822:A 23 
*END

*D_NET *219 0.0540684
*CONN
*I *3781:DI[3] I *D CF_SRAM_1024x32
*I *3744:X O *D sky130_fd_sc_hd__dlygate4sd3_1
*CAP
1 *3781:DI[3] 0.00134148
2 *3744:X 0
3 *219:58 0.00175068
4 *219:50 0.00378524
5 *219:48 0.00337604
6 *219:46 0.001193
7 *219:36 0.00225513
8 *219:28 0.00211988
9 *219:12 0.00405241
10 *219:4 0.00299466
11 *3781:DI[3] *228:8 5.9115e-06
12 *219:12 *327:73 0.000721194
13 *219:28 *304:10 2.96866e-05
14 *219:28 *327:73 0.000732418
15 *219:36 *281:50 0.00018425
16 *219:36 *329:84 0.00118734
17 *219:46 *3860:A 1.89873e-05
18 *219:46 *244:32 0.000377694
19 *219:46 *308:12 0.000141247
20 *219:46 *327:73 0.000186115
21 *219:50 *226:10 0.000850442
22 *219:50 *234:10 6.15639e-05
23 *219:50 *239:8 0.00365108
24 *219:50 *292:22 0.0073376
25 *219:50 *328:67 0.000260827
26 *219:50 *381:16 0.00105084
27 *219:58 *221:8 0.000365727
28 *219:58 *226:10 0.000760804
29 *3781:DI[4] *219:58 0.000135037
30 *3:17 *219:50 1.06354e-05
31 *110:31 *219:50 0.00208814
32 *112:6 *3781:DI[3] 9.70078e-05
33 *115:25 *219:50 0.000277518
34 *130:59 *219:28 1.22803e-05
35 *132:43 *219:36 2.51033e-05
36 *133:27 *219:50 0.00715497
37 *138:15 *3781:DI[3] 0
38 *151:20 *219:28 0.000105117
39 *151:24 *219:28 5.3304e-05
40 *170:80 *219:12 0.000130115
41 *170:82 *219:46 2.43944e-05
42 *177:24 *219:36 8.4047e-05
43 *182:8 *219:12 0.00306852
44 *182:26 *219:46 1.00084e-05
*RES
1 *3744:X *219:4 23 
2 *219:4 *219:12 48.4507 
3 *219:12 *219:28 47.6279 
4 *219:28 *219:36 46.095 
5 *219:36 *219:46 48.4771 
6 *219:46 *219:48 15 
7 *219:48 *219:50 148.749 
8 *219:50 *219:58 41.9314 
9 *219:58 *3781:DI[3] 33.1975 
*END

*D_NET *220 0.000559586
*CONN
*I *3792:A I *D sky130_fd_sc_hd__buf_4
*I *3745:X O *D sky130_fd_sc_hd__dlygate4sd3_1
*CAP
1 *3792:A 0
2 *3745:X 0.000257829
3 *220:10 0.000257829
4 *220:10 *339:12 4.39278e-05
5 *220:10 *363:28 0
*RES
1 *3745:X *220:10 41.8321 
2 *220:10 *3792:A 38 
*END

*D_NET *221 0.0210204
*CONN
*I *3781:AD[6] I *D CF_SRAM_1024x32
*I *3746:X O *D sky130_fd_sc_hd__dlygate4sd3_1
*CAP
1 *3781:AD[6] 0.00122313
2 *3746:X 0
3 *221:8 0.00423223
4 *221:6 0.0030091
5 *3781:AD[6] *3781:AD[5] 0.000114707
6 *221:8 *226:10 0.000580879
7 *221:8 *226:18 0.00063868
8 *221:8 *251:8 0.00198409
9 *221:8 *281:72 1.83371e-05
10 *221:8 *292:34 0.0020806
11 *221:8 *304:26 0.00395806
12 *221:8 *339:38 0.000141879
13 *221:8 *381:16 0.000903758
14 *3781:AD[7] *3781:AD[6] 0
15 *168:10 *221:8 0.00176927
16 *193:20 *221:8 0
17 *219:58 *221:8 0.000365727
*RES
1 *3746:X *221:6 38 
2 *221:6 *221:8 111.07 
3 *221:8 *3781:AD[6] 31.5662 
*END

*D_NET *222 0.000501856
*CONN
*I *3840:A I *D sky130_fd_sc_hd__buf_4
*I *3747:X O *D sky130_fd_sc_hd__dlygate4sd3_1
*CAP
1 *3840:A 0
2 *3747:X 0.000147929
3 *222:10 0.000147929
4 *222:10 *263:8 5.84798e-05
5 *222:10 *363:28 0
6 *222:10 *364:26 7.60402e-05
7 *497:DIODE *222:10 5.79559e-05
8 *3650:A *222:10 1.3523e-05
*RES
1 *3747:X *222:10 40.8793 
2 *222:10 *3840:A 38 
*END

*D_NET *223 0.0204987
*CONN
*I *3781:AD[5] I *D CF_SRAM_1024x32
*I *3749:X O *D sky130_fd_sc_hd__dlygate4sd3_1
*CAP
1 *3781:AD[5] 0.00172091
2 *3749:X 0.000436878
3 *223:10 0.00572378
4 *223:8 0.00443975
5 *3781:AD[5] *3781:AD[4] 4.6752e-05
6 *223:8 *3749:A 2.81066e-05
7 *223:10 *270:36 0.00120445
8 *223:10 *308:16 0.00525552
9 *3781:AD[6] *3781:AD[5] 0.000114707
10 *134:11 *223:10 0.00152783
11 *145:67 *223:10 0
*RES
1 *3749:X *223:8 42.4329 
2 *223:8 *223:10 110.014 
3 *223:10 *3781:AD[5] 38.1534 
*END

*D_NET *224 0.0038773
*CONN
*I *3838:A I *D sky130_fd_sc_hd__buf_4
*I *3750:X O *D sky130_fd_sc_hd__dlygate4sd3_1
*CAP
1 *3838:A 0
2 *3750:X 0.000474311
3 *224:18 0.000162893
4 *224:12 0.000637204
5 *224:12 *3750:A 1.24376e-05
6 *224:12 *266:6 0.000659085
7 *224:12 *339:12 3.59635e-05
8 *224:12 *362:20 0.000383805
9 *224:18 *331:14 0
10 *224:18 *360:18 6.16352e-05
11 *3653:A *224:12 0.000188307
12 *109:14 *224:12 0.000386135
13 *111:20 *224:18 0
14 *145:24 *224:18 3.70187e-05
15 *187:6 *224:12 0.000838506
*RES
1 *3750:X *224:12 39.53 
2 *224:12 *224:18 32.61 
3 *224:18 *3838:A 23 
*END

*D_NET *225 0.0111334
*CONN
*I *3696:A I *D sky130_fd_sc_hd__dlygate4sd3_1
*I *3799:X O *D sky130_fd_sc_hd__buf_2
*CAP
1 *3696:A 0
2 *3799:X 0.000703482
3 *225:20 0.00134189
4 *225:16 0.00206441
5 *225:6 0.001426
6 *225:6 *259:10 0.000268864
7 *225:6 *321:20 0.00185866
8 *225:6 *336:34 0.000107901
9 *225:16 *259:10 0.000617863
10 *225:20 *236:32 3.83778e-05
11 *225:20 *236:38 0
12 *225:20 *281:10 2.01531e-05
13 *225:20 *344:14 0.00031118
14 wbs_dat_o[14] *225:6 0.000269781
15 wbs_dat_o[16] *225:6 0.00026808
16 wbs_dat_o[18] *225:16 0.000269781
17 wbs_dat_o[20] *225:20 0
18 *399:DIODE *225:20 2.50707e-05
19 *503:DIODE *225:20 0
20 *3656:A *225:16 0.000399415
21 *3657:A *225:16 0.000185434
22 *47:9 *225:6 0.000389772
23 *47:9 *225:16 1.22822e-05
24 *126:27 *225:20 0.000251621
25 *214:18 *225:6 0.000303408
*RES
1 *3799:X *225:6 49.825 
2 *225:6 *225:16 32.2343 
3 *225:16 *225:20 35.2171 
4 *225:20 *3696:A 23 
*END

*D_NET *226 0.0219998
*CONN
*I *3781:AD[3] I *D CF_SRAM_1024x32
*I *3751:X O *D sky130_fd_sc_hd__dlygate4sd3_1
*CAP
1 *3781:AD[3] 0.000670903
2 *3751:X 0.000153898
3 *226:25 7.87003e-07
4 *226:18 0.00165913
5 *226:10 0.00269603
6 *226:8 0.00186091
7 *3781:AD[3] *3781:ScanInCC 0.00108388
8 *226:10 *281:72 0.00183386
9 *226:10 *292:34 0.000329628
10 *226:10 *328:67 0.000258586
11 *226:10 *381:16 0.000855768
12 *226:18 *381:16 0.000598438
13 *226:25 *3781:ScanInCC 1.32314e-05
14 *3781:AD[9] *3781:AD[3] 3.13999e-05
15 *110:31 *226:10 0.0027093
16 *133:27 *226:10 0.000188926
17 *168:10 *226:18 0.000614556
18 *195:26 *226:10 0.000109991
19 *195:26 *226:18 0.00301969
20 *195:32 *3781:AD[3] 0.000455365
21 *212:10 *226:10 2.46707e-05
22 *219:50 *226:10 0.000850442
23 *219:58 *226:10 0.000760804
24 *221:8 *226:10 0.000580879
25 *221:8 *226:18 0.00063868
*RES
1 *3751:X *226:8 39.5743 
2 *226:8 *226:10 66.5239 
3 *226:10 *226:18 41.5011 
4 *226:18 *3781:AD[3] 29.9143 
5 *3781:AD[3] *226:25 0.15037 
*END

*D_NET *227 0.00463666
*CONN
*I *3814:A I *D sky130_fd_sc_hd__clkbuf_4
*I *3752:X O *D sky130_fd_sc_hd__dlygate4sd3_1
*CAP
1 *3814:A 0
2 *3752:X 0.000624779
3 *227:18 0.000896062
4 *227:10 0.00152084
5 *227:10 *3752:A 0.000353638
6 *227:10 *3860:A 0
7 *227:10 *229:10 0.000304645
8 *227:10 *325:68 9.61071e-05
9 *227:18 *3748:A 7.73389e-05
10 *227:18 *305:6 0.000147224
11 *227:18 *309:8 0.000276557
12 *227:18 *354:16 0.000186025
13 wbs_dat_o[26] *227:10 0
14 *3668:A *227:18 9.61498e-05
15 *3816:A *227:18 5.72975e-05
*RES
1 *3752:X *227:10 49.4964 
2 *227:10 *227:18 31.9857 
3 *227:18 *3814:A 23 
*END

*D_NET *228 0.0339733
*CONN
*I *3781:DI[25] I *D CF_SRAM_1024x32
*I *3753:X O *D sky130_fd_sc_hd__dlygate4sd3_1
*CAP
1 *3781:DI[25] 0.000713692
2 *3753:X 4.74606e-05
3 *228:10 0.00468873
4 *228:8 0.00402249
5 *228:10 *230:12 2.26406e-05
6 *228:10 *230:20 0.00121048
7 *228:10 *234:10 0.000637979
8 *228:10 *380:12 2.5343e-05
9 *228:10 *380:16 0.000119516
10 *3781:DI[3] *228:8 5.9115e-06
11 *130:9 *3781:DI[25] 0
12 *160:10 *228:10 0.00255517
13 *160:14 *228:10 0.00173915
14 *160:16 *228:10 0.00584961
15 *217:10 *228:10 0.0123351
*RES
1 *3753:X *228:8 38.6214 
2 *228:8 *228:10 174.456 
3 *228:10 *3781:DI[25] 28.0086 
*END

*D_NET *229 0.00126516
*CONN
*I *3815:A I *D sky130_fd_sc_hd__clkbuf_4
*I *3754:X O *D sky130_fd_sc_hd__dlygate4sd3_1
*CAP
1 *3815:A 0
2 *3754:X 0.000327273
3 *229:10 0.000327273
4 *229:10 *292:20 0.000185364
5 *229:10 *325:68 0.000120611
6 *227:10 *229:10 0.000304645
*RES
1 *3754:X *229:10 44.4214 
2 *229:10 *3815:A 38 
*END

*D_NET *230 0.0312315
*CONN
*I *3781:DI[26] I *D CF_SRAM_1024x32
*I *3755:X O *D sky130_fd_sc_hd__dlygate4sd3_1
*CAP
1 *3781:DI[26] 0.000180353
2 *3755:X 0.000127724
3 *230:24 0.00127369
4 *230:20 0.00964419
5 *230:12 0.00867858
6 *230:12 *234:10 2.26406e-05
7 *230:20 *380:16 0.00358753
8 *131:9 *3781:DI[26] 0.000268822
9 *132:11 *230:24 0
10 *155:10 *230:24 0.00293496
11 *160:10 *230:20 0.000246018
12 *160:14 *230:20 0.000399785
13 *160:16 *230:20 0.000586356
14 *212:26 *230:24 0.000104976
15 *217:10 *230:20 0.00194276
16 *228:10 *230:12 2.26406e-05
17 *228:10 *230:20 0.00121048
*RES
1 *3755:X *230:12 46.5059 
2 *230:12 *230:20 42.8333 
3 *230:20 *230:24 45.6482 
4 *230:24 *3781:DI[26] 18.9771 
*END

*D_NET *231 0.00115222
*CONN
*I *3839:A I *D sky130_fd_sc_hd__buf_4
*I *3756:X O *D sky130_fd_sc_hd__dlygate4sd3_1
*CAP
1 *3839:A 0
2 *3756:X 0.000365409
3 *231:10 0.000365409
4 *231:10 *339:12 4.39278e-05
5 *145:16 *231:10 6.77278e-05
6 *183:8 *231:10 0.000298162
7 *187:14 *231:10 1.15883e-05
*RES
1 *3756:X *231:10 44.2971 
2 *231:10 *3839:A 38 
*END

*D_NET *232 0.023044
*CONN
*I *3781:AD[4] I *D CF_SRAM_1024x32
*I *3757:X O *D sky130_fd_sc_hd__dlygate4sd3_1
*CAP
1 *3781:AD[4] 0.000537244
2 *3757:X 0.000272711
3 *232:10 0.00265572
4 *232:8 0.00239119
5 *232:10 *237:10 0.00813692
6 *232:10 *244:46 0
7 *3781:AD[5] *3781:AD[4] 4.6752e-05
8 *130:11 *232:10 0.00877712
9 *133:23 *232:8 0.000175903
10 *144:15 *232:8 5.04281e-05
*RES
1 *3757:X *232:8 42.4329 
2 *232:8 *232:10 114.591 
3 *232:10 *3781:AD[4] 23.612 
*END

*D_NET *233 0.00129139
*CONN
*I *3837:A I *D sky130_fd_sc_hd__buf_4
*I *3758:X O *D sky130_fd_sc_hd__dlygate4sd3_1
*CAP
1 *3837:A 0.00011458
2 *3758:X 0.000216774
3 *233:10 0.000331354
4 *3837:A *3750:A 0.000178235
5 *3837:A *329:22 0.000274942
6 *3837:A *339:12 4.78497e-05
7 *233:10 *329:38 6.89053e-05
8 *233:10 *333:12 5.3304e-05
9 *64:28 *233:10 5.44889e-06
*RES
1 *3758:X *233:10 40.5271 
2 *233:10 *3837:A 41.5007 
*END

*D_NET *234 0.0247652
*CONN
*I *3781:AD[2] I *D CF_SRAM_1024x32
*I *3760:X O *D sky130_fd_sc_hd__dlygate4sd3_1
*CAP
1 *3781:AD[2] 0.00105619
2 *3760:X 5.43338e-05
3 *234:32 0.0015763
4 *234:24 0.00121279
5 *234:10 0.0027295
6 *234:8 0.00209115
7 *3781:AD[2] *3781:AD[0] 0
8 *3781:AD[2] *3781:AD[1] 9.78505e-05
9 *234:8 *292:30 1.33694e-05
10 *234:8 *328:67 2.92911e-06
11 *234:10 *239:8 0.00616237
12 *234:10 *326:24 0.00012705
13 *234:10 *380:16 0.00104893
14 *234:24 *239:22 0.00134398
15 *234:24 *380:16 0.000141169
16 *234:32 *381:16 0.000193368
17 *491:DIODE *234:10 0.00019654
18 *3781:AD[9] *234:32 7.43209e-05
19 *3:17 *234:10 0.00159106
20 *160:10 *234:10 0.000401855
21 *168:10 *234:32 0.000539875
22 *190:14 *234:10 0.00079161
23 *195:22 *234:10 0.00045768
24 *212:10 *234:10 1.83142e-05
25 *212:10 *234:24 0.00133922
26 *212:10 *234:32 0.000351075
27 *212:16 *234:32 0.000367457
28 *217:10 *234:10 6.27466e-05
29 *219:50 *234:10 6.15639e-05
30 *228:10 *234:10 0.000637979
31 *230:12 *234:10 2.26406e-05
*RES
1 *3760:X *234:8 38.6214 
2 *234:8 *234:10 84.1311 
3 *234:10 *234:24 49.5218 
4 *234:24 *234:32 46.1571 
5 *234:32 *3781:AD[2] 16.0691 
*END

*D_NET *235 0.000965737
*CONN
*I *3824:A I *D sky130_fd_sc_hd__buf_4
*I *3761:X O *D sky130_fd_sc_hd__dlygate4sd3_1
*CAP
1 *3824:A 0.000136029
2 *3761:X 0.000295021
3 *235:8 0.00043105
4 *235:8 *238:8 0
5 *235:8 *317:8 0
6 *104:26 *3824:A 0.000103637
*RES
1 *3761:X *235:8 43.075 
2 *235:8 *3824:A 41.0036 
*END

*D_NET *236 0.0116601
*CONN
*I *3691:A I *D sky130_fd_sc_hd__dlygate4sd3_1
*I *3800:X O *D sky130_fd_sc_hd__buf_2
*CAP
1 *3691:A 0
2 *3800:X 9.97375e-05
3 *236:38 0.0010782
4 *236:32 0.00159672
5 *236:22 0.00195142
6 *236:8 0.00153264
7 *236:8 *255:8 0
8 *236:22 *3643:A 5.50106e-05
9 *236:22 *3719:A 0.000175236
10 *236:22 *3801:A 5.67058e-05
11 *236:22 *270:14 0.000485416
12 *236:22 *338:14 0.00109535
13 *236:22 *339:18 0.000999895
14 *236:32 *247:6 0.000398497
15 *236:32 *270:14 0.000439691
16 *236:32 *281:10 1.01436e-05
17 *236:32 *339:18 0.000653221
18 *236:38 *247:12 0
19 *236:38 *281:18 8.29264e-05
20 *236:38 *345:10 0.000194439
21 *236:38 *346:10 4.39527e-05
22 *236:38 *369:117 0
23 *400:DIODE *236:38 7.0318e-05
24 *505:DIODE *236:22 0.000361247
25 *3616:D *236:38 4.08379e-06
26 *3804:A *236:22 9.92279e-05
27 *3805:A *236:32 9.41704e-05
28 *44:7 *236:8 3.29127e-05
29 *121:50 *236:38 0
30 *166:8 *236:38 0
31 *171:8 *236:38 1.05441e-05
32 *214:18 *236:8 0
33 *225:20 *236:32 3.83778e-05
34 *225:20 *236:38 0
*RES
1 *3800:X *236:8 39.5536 
2 *236:8 *236:22 48.8471 
3 *236:22 *236:32 42.9257 
4 *236:32 *236:38 45.9914 
5 *236:38 *3691:A 23 
*END

*D_NET *237 0.0232152
*CONN
*I *3781:AD[0] I *D CF_SRAM_1024x32
*I *3762:X O *D sky130_fd_sc_hd__dlygate4sd3_1
*CAP
1 *3781:AD[0] 0.000576937
2 *3762:X 0.000227486
3 *237:10 0.00261829
4 *237:8 0.00226884
5 *3781:AD[0] *3781:AD[1] 0.000161369
6 *237:10 *244:46 0.000121999
7 *3781:AD[2] *3781:AD[0] 0
8 *3781:R_WB *3781:AD[0] 0
9 *3781:DI[8] *237:8 0.000352396
10 *130:11 *237:10 0.000343207
11 *201:10 *237:10 0.00840776
12 *232:10 *237:10 0.00813692
*RES
1 *3762:X *237:8 41.9564 
2 *237:8 *237:10 115.296 
3 *237:10 *3781:AD[0] 25.3727 
*END

*D_NET *238 0.00125313
*CONN
*I *3835:A I *D sky130_fd_sc_hd__buf_4
*I *3763:X O *D sky130_fd_sc_hd__dlygate4sd3_1
*CAP
1 *3835:A 2.90831e-05
2 *3763:X 0.000379053
3 *238:8 0.000408136
4 *3835:A *328:12 5.52998e-05
5 *238:8 *367:18 9.28078e-06
6 *61:19 *238:8 5.34262e-05
7 *104:26 *238:8 0.000318853
8 *235:8 *238:8 0
*RES
1 *3763:X *238:8 45.54 
2 *238:8 *3835:A 38.6214 
*END

*D_NET *239 0.0256496
*CONN
*I *3781:AD[1] I *D CF_SRAM_1024x32
*I *3764:X O *D sky130_fd_sc_hd__dlygate4sd3_1
*CAP
1 *3781:AD[1] 0.000893711
2 *3764:X 0
3 *239:22 0.00181838
4 *239:16 0.00104415
5 *239:8 0.00179441
6 *239:6 0.00167493
7 *239:8 *380:16 0.000978763
8 *239:22 *380:16 0.000268814
9 *239:22 *381:12 2.5343e-05
10 *3781:AD[0] *3781:AD[1] 0.000161369
11 *3781:AD[2] *3781:AD[1] 9.78505e-05
12 *110:31 *239:8 1.80419e-05
13 *160:10 *239:22 0.00177116
14 *160:14 *239:22 0.000496961
15 *212:10 *239:8 0.00248053
16 *212:10 *239:22 0.000734447
17 *212:16 *239:22 0.000233261
18 *219:50 *239:8 0.00365108
19 *234:10 *239:8 0.00616237
20 *234:24 *239:22 0.00134398
*RES
1 *3764:X *239:6 38 
2 *239:6 *239:8 81.49 
3 *239:8 *239:16 31.8229 
4 *239:16 *239:22 35.7736 
5 *239:22 *3781:AD[1] 28.9666 
*END

*D_NET *240 0.00213307
*CONN
*I *3831:A I *D sky130_fd_sc_hd__buf_12
*I *3765:X O *D sky130_fd_sc_hd__dlygate4sd3_1
*CAP
1 *3831:A 0
2 *3765:X 0.000452461
3 *240:10 0.000452461
4 *240:10 *317:18 0.000125441
5 *240:10 *343:22 0.000198342
6 *61:19 *240:10 0.000160906
7 *104:9 *240:10 5.43589e-05
8 *104:26 *240:10 0.000689101
*RES
1 *3765:X *240:10 48.9786 
2 *240:10 *3831:A 38 
*END

*D_NET *241 0.0466672
*CONN
*I *3781:BEN[8] I *D CF_SRAM_1024x32
*I *3781:BEN[9] I *D CF_SRAM_1024x32
*I *3781:BEN[10] I *D CF_SRAM_1024x32
*I *3781:BEN[11] I *D CF_SRAM_1024x32
*I *3781:BEN[12] I *D CF_SRAM_1024x32
*I *3781:BEN[13] I *D CF_SRAM_1024x32
*I *3781:BEN[14] I *D CF_SRAM_1024x32
*I *3781:BEN[15] I *D CF_SRAM_1024x32
*I *3766:X O *D sky130_fd_sc_hd__buf_12
*CAP
1 *3781:BEN[8] 0.000432598
2 *3781:BEN[9] 0.000253002
3 *3781:BEN[10] 0.000172151
4 *3781:BEN[11] 0.000681228
5 *3781:BEN[12] 0.0012795
6 *3781:BEN[13] 0.000170678
7 *3781:BEN[14] 0.000245038
8 *3781:BEN[15] 0.000767596
9 *3766:X 0.000284267
10 *241:138 0.000846681
11 *241:133 0
12 *241:126 0.000348301
13 *241:122 0.00163302
14 *241:98 0.00240763
15 *241:94 0.000973134
16 *241:64 0.000767771
17 *241:52 0.000998522
18 *241:28 0.00171075
19 *241:18 0.00520997
20 *241:8 0.00397988
21 *241:8 *244:14 0.0013576
22 *241:8 *328:26 0.00127029
23 *241:18 *322:26 5.08422e-06
24 *241:18 *328:36 0.00172742
25 *241:28 *3781:vpwrpc 2.59001e-05
26 *241:28 *3781:vpwrac 0.00217559
27 *241:28 *258:44 2.12347e-06
28 *241:94 *244:46 0.000880263
29 *3781:DI[12] *241:94 0
30 *3781:DI[15] *241:52 1.17745e-05
31 *3781:DI[13] *3781:BEN[13] 0
32 *114:11 *3781:BEN[9] 0
33 *115:15 *241:94 0.000322554
34 *115:15 *241:122 4.80465e-05
35 *119:11 *241:52 1.85916e-05
36 *119:21 *241:28 0.000866624
37 *119:23 *241:18 0.000250359
38 *119:33 *241:18 3.54739e-05
39 *123:27 *241:18 5.02657e-05
40 *125:19 *3781:BEN[8] 0.000161888
41 *125:19 *241:52 0.000129592
42 *125:19 *241:64 0.000113946
43 *125:19 *241:138 0.000138759
44 *126:27 *241:28 0.00216918
45 *127:19 *241:122 0.000451623
46 *128:11 *3781:BEN[12] 0.00075126
47 *128:11 *3781:BEN[8] 0.000871196
48 *128:11 *241:52 0.000617564
49 *128:11 *241:64 0.000751309
50 *128:11 *241:126 2.11066e-05
51 *128:11 *241:138 0.00076009
52 *128:29 *241:28 0
53 *129:37 *241:28 3.76761e-05
54 *129:39 *241:28 3.86028e-05
55 *130:19 *241:122 4.80465e-05
56 *140:11 *241:28 0.00051664
57 *140:15 *241:28 0.000377127
58 *142:17 *3781:BEN[10] 6.17437e-06
59 *142:23 *3781:BEN[12] 6.17437e-06
60 *142:23 *241:94 3.47277e-05
61 *143:41 *241:94 0.00021677
62 *144:15 *3781:BEN[8] 0
63 *151:26 *241:52 0.000205112
64 *157:14 *241:18 0
65 *164:40 *241:28 0.000633482
66 *164:50 *241:52 9.66308e-05
67 *164:52 *3781:BEN[12] 0.000761404
68 *164:52 *3781:BEN[8] 0.000880477
69 *164:52 *241:52 0.000615342
70 *164:52 *241:64 0.000761452
71 *164:52 *241:126 2.11066e-05
72 *164:52 *241:138 0.00076937
73 *177:14 *241:18 0.000216853
74 *177:46 *241:94 0.000222432
75 *182:20 *241:18 0.000833198
76 *188:26 *241:28 0.000221228
*RES
1 *3766:X *241:8 38.4114 
2 *241:8 *241:18 39.0279 
3 *241:18 *241:28 42.0385 
4 *241:28 *3781:BEN[15] 18.8425 
5 *3781:BEN[15] *241:52 32.9489 
6 *241:52 *3781:BEN[14] 19.0289 
7 *241:52 *241:64 10.005 
8 *241:64 *3781:BEN[13] 17.4546 
9 *241:64 *3781:BEN[12] 29.8004 
10 *3781:BEN[12] *241:94 37.3196 
11 *241:94 *241:98 16.5743 
12 *241:98 *3781:BEN[11] 9.45607 
13 *241:98 *241:122 43.7649 
14 *241:122 *241:126 8.32107 
15 *241:126 *3781:BEN[10] 17.5271 
16 *3781:BEN[10] *241:133 0.156154 
17 *241:126 *241:138 10.005 
18 *241:138 *3781:BEN[9] 19.0911 
19 *241:138 *3781:BEN[8] 30.5254 
*END

*D_NET *242 0.000243237
*CONN
*I *3765:A I *D sky130_fd_sc_hd__dlygate4sd3_1
*I *3767:X O *D sky130_fd_sc_hd__dlygate4sd3_1
*CAP
1 *3765:A 4.89992e-05
2 *3767:X 4.89992e-05
3 *104:26 *3765:A 0.000145238
*RES
1 *3767:X *3765:A 47.5743 
*END

*D_NET *243 0.00133716
*CONN
*I *3830:A I *D sky130_fd_sc_hd__buf_12
*I *3768:X O *D sky130_fd_sc_hd__dlygate4sd3_1
*CAP
1 *3830:A 0
2 *3768:X 0.000454057
3 *243:10 0.000454057
4 *243:10 *3761:A 8.9374e-05
5 *243:10 *3768:A 2.76123e-05
6 *243:10 *3772:A 2.63049e-05
7 *103:11 *243:10 0.000230747
8 *181:14 *243:10 5.50049e-05
*RES
1 *3768:X *243:10 45.7264 
2 *243:10 *3830:A 38 
*END

*D_NET *244 0.0553668
*CONN
*I *3781:BEN[0] I *D CF_SRAM_1024x32
*I *3781:BEN[1] I *D CF_SRAM_1024x32
*I *3781:BEN[2] I *D CF_SRAM_1024x32
*I *3781:BEN[3] I *D CF_SRAM_1024x32
*I *3781:BEN[4] I *D CF_SRAM_1024x32
*I *3781:BEN[5] I *D CF_SRAM_1024x32
*I *3781:BEN[6] I *D CF_SRAM_1024x32
*I *3781:BEN[7] I *D CF_SRAM_1024x32
*I *3769:X O *D sky130_fd_sc_hd__buf_12
*CAP
1 *3781:BEN[0] 0.000563429
2 *3781:BEN[1] 0.000170446
3 *3781:BEN[2] 0.00099392
4 *3781:BEN[3] 0.000142804
5 *3781:BEN[4] 0.000838996
6 *3781:BEN[5] 0.000251887
7 *3781:BEN[6] 0.000250909
8 *3781:BEN[7] 0.00107366
9 *3769:X 0.00056824
10 *244:130 0.00113592
11 *244:102 0.00120248
12 *244:74 0.000776645
13 *244:62 0.000725941
14 *244:46 0.00260982
15 *244:44 0.00187606
16 *244:38 0.0011963
17 *244:32 0.00206173
18 *244:24 0.00187993
19 *244:20 0.00120234
20 *244:14 0.000774505
21 *244:14 *3766:A 0.00035868
22 *244:14 *328:26 9.38112e-06
23 *244:14 *337:40 0.000881226
24 *244:14 *371:94 5.3304e-05
25 *244:20 *371:94 0.000142011
26 *244:24 *367:171 0.000152873
27 *244:32 *3620:A_N 6.70361e-05
28 *244:32 *351:8 0.000890818
29 *244:32 *367:171 5.61255e-06
30 *244:38 *308:12 0.000141741
31 *244:38 *325:68 0.00027718
32 *244:38 *325:70 6.5534e-05
33 *244:38 *361:54 0.00226472
34 *244:38 *361:56 3.61511e-05
35 *244:44 *317:66 6.4794e-05
36 *244:46 *3757:A 0.000270841
37 *244:46 *317:68 2.15604e-05
38 *244:46 *361:56 0.00421143
39 *3781:DI[4] *244:102 0
40 *3781:DI[2] *244:130 0
41 *3781:DI[7] *244:62 0
42 *110:12 *244:38 3.38568e-05
43 *115:15 *244:46 0.000108829
44 *118:11 *244:38 1.61501e-05
45 *119:23 *244:20 0.000343684
46 *119:23 *244:24 0.000653907
47 *119:33 *244:14 0.000868794
48 *119:41 *244:14 0.000301931
49 *125:19 *244:62 0.000135375
50 *125:19 *244:74 0.000187416
51 *127:19 *3781:BEN[0] 0.000374831
52 *127:19 *3781:BEN[2] 0.000374831
53 *128:11 *3781:BEN[0] 0.000890136
54 *128:11 *3781:BEN[2] 0.000466341
55 *128:11 *3781:BEN[4] 0.000924395
56 *128:11 *244:62 0.000639985
57 *128:11 *244:74 0.000880002
58 *128:11 *244:102 0.000308546
59 *128:11 *244:130 0.000638767
60 *131:37 *244:32 1.16872e-05
61 *133:23 *244:46 0.00108137
62 *135:17 *3781:BEN[1] 0
63 *135:17 *244:130 2.11157e-05
64 *139:9 *3781:BEN[3] 0
65 *141:9 *3781:BEN[5] 0
66 *151:14 *244:24 0.00374743
67 *164:26 *244:20 6.22878e-06
68 *164:26 *244:24 5.64335e-05
69 *164:52 *3781:BEN[4] 0.000934538
70 *164:52 *244:62 0.000639985
71 *164:52 *244:74 0.000890145
72 *171:20 *244:38 0.000129565
73 *171:32 *244:46 0.000764318
74 *177:14 *244:24 0.00313883
75 *177:24 *244:24 1.41129e-05
76 *177:24 *244:32 0.00045179
77 *177:42 *244:38 0.00193332
78 *177:42 *244:44 3.06133e-05
79 *177:46 *244:46 0.000319078
80 *182:58 *244:46 0
81 *201:8 *3781:BEN[7] 0.000100061
82 *219:46 *244:32 0.000377694
83 *232:10 *244:46 0
84 *237:10 *244:46 0.000121999
85 *241:8 *244:14 0.0013576
86 *241:94 *244:46 0.000880263
*RES
1 *3769:X *244:14 49.68 
2 *244:14 *244:20 4.95071 
3 *244:20 *244:24 48.7614 
4 *244:24 *244:32 34.8443 
5 *244:32 *244:38 40.3514 
6 *244:38 *244:44 30.8493 
7 *244:44 *244:46 73.0386 
8 *244:46 *3781:BEN[7] 26.7554 
9 *3781:BEN[7] *244:62 27.4804 
10 *244:62 *3781:BEN[6] 19.1532 
11 *244:62 *244:74 11.4136 
12 *244:74 *3781:BEN[5] 19.1739 
13 *244:74 *3781:BEN[4] 30.6082 
14 *3781:BEN[4] *244:102 25.9889 
15 *244:102 *3781:BEN[3] 17.7861 
16 *244:102 *3781:BEN[2] 29.2204 
17 *3781:BEN[2] *244:130 26.4239 
18 *244:130 *3781:BEN[1] 18.3039 
19 *244:130 *3781:BEN[0] 29.7382 
*END

*D_NET *245 0.00109517
*CONN
*I *3768:A I *D sky130_fd_sc_hd__dlygate4sd3_1
*I *3771:X O *D sky130_fd_sc_hd__dlygate4sd3_1
*CAP
1 *3768:A 0.000357525
2 *3771:X 5.34392e-05
3 *245:8 0.000410965
4 *3768:A *3772:A 9.5877e-05
5 *245:8 *317:8 3.5664e-05
6 *103:11 *245:8 0.000114092
7 *243:10 *3768:A 2.76123e-05
*RES
1 *3771:X *245:8 39.5536 
2 *245:8 *3768:A 43.8829 
*END

*D_NET *246 0.0032014
*CONN
*I *3832:A I *D sky130_fd_sc_hd__buf_12
*I *3772:X O *D sky130_fd_sc_hd__dlygate4sd3_1
*CAP
1 *3832:A 0.000347633
2 *3772:X 0.000644418
3 *246:12 0.000992051
4 *3832:A *250:8 0.000332042
5 *3832:A *327:38 0.000159708
6 *246:12 *3743:A 0.000110389
7 *246:12 *327:38 1.52314e-05
8 wbs_dat_o[2] *3832:A 0.000218952
9 *447:DIODE *246:12 5.50049e-05
10 *3607:D *3832:A 4.79096e-05
11 *31:9 *3832:A 0
12 *61:11 *3832:A 0
13 *181:14 *246:12 0.000278063
*RES
1 *3772:X *246:12 46.7104 
2 *246:12 *3832:A 45.7161 
*END

*D_NET *247 0.0112415
*CONN
*I *3693:A I *D sky130_fd_sc_hd__dlygate4sd3_1
*I *3801:X O *D sky130_fd_sc_hd__buf_2
*CAP
1 *3693:A 0
2 *3801:X 0
3 *247:12 0.0011989
4 *247:6 0.00217432
5 *247:4 0.000975416
6 *247:6 *281:10 0.000187129
7 *247:6 *281:26 0.000320308
8 *247:6 *339:18 0.0037645
9 *247:12 *346:10 0
10 *247:12 *367:140 5.64492e-05
11 *247:12 *369:117 0
12 *247:12 *369:132 2.51583e-05
13 *159:12 *247:6 0.0020828
14 *166:8 *247:12 5.80693e-05
15 *236:32 *247:6 0.000398497
16 *236:38 *247:12 0
*RES
1 *3801:X *247:4 23 
2 *247:4 *247:6 41.5943 
3 *247:6 *247:12 46.3436 
4 *247:12 *3693:A 23 
*END

*D_NET *248 0.0376776
*CONN
*I *3781:BEN[23] I *D CF_SRAM_1024x32
*I *3781:BEN[22] I *D CF_SRAM_1024x32
*I *3781:BEN[21] I *D CF_SRAM_1024x32
*I *3781:BEN[20] I *D CF_SRAM_1024x32
*I *3781:BEN[19] I *D CF_SRAM_1024x32
*I *3781:BEN[18] I *D CF_SRAM_1024x32
*I *3781:BEN[17] I *D CF_SRAM_1024x32
*I *3781:BEN[16] I *D CF_SRAM_1024x32
*I *3773:X O *D sky130_fd_sc_hd__buf_12
*CAP
1 *3781:BEN[23] 0.000605177
2 *3781:BEN[22] 0.00118531
3 *3781:BEN[21] 0.000172428
4 *3781:BEN[20] 0.000162979
5 *3781:BEN[19] 0.000112101
6 *3781:BEN[18] 0.000161022
7 *3781:BEN[17] 0.000126777
8 *3781:BEN[16] 0.00175567
9 *3773:X 4.90818e-05
10 *248:75 0.00117063
11 *248:63 0.000935315
12 *248:51 0.000882133
13 *248:39 0.000934605
14 *248:27 0.00094778
15 *248:10 0.00437217
16 *248:8 0.00312876
17 *248:10 *305:14 0.00293042
18 *248:27 *3781:WLBI 0
19 *248:27 *3781:TM 0.000220873
20 *3781:CLKin *3781:BEN[17] 0
21 *122:17 *248:39 0.000127918
22 *123:17 *248:51 2.11066e-05
23 *125:17 *248:63 2.11066e-05
24 *126:17 *248:75 2.11066e-05
25 *127:17 *3781:BEN[22] 2.11066e-05
26 *127:19 *248:27 0.000102381
27 *127:19 *248:51 0.000216327
28 *127:19 *248:63 0.000204763
29 *128:9 *3781:BEN[23] 0
30 *128:11 *3781:BEN[22] 0.000879258
31 *128:11 *3781:BEN[23] 8.96721e-05
32 *128:11 *248:27 0.000669235
33 *128:11 *248:39 0.000820211
34 *128:11 *248:51 0.000972313
35 *128:11 *248:63 0.00080554
36 *128:11 *248:75 0.000880807
37 *134:11 *248:10 0.000901449
38 *155:10 *3781:BEN[23] 0.000177275
39 *175:8 *248:10 0.000346128
40 *179:16 *248:10 0.00181249
41 *193:20 *248:10 0.00671292
42 *215:8 *248:10 0.00202127
*RES
1 *3773:X *248:8 38.6214 
2 *248:8 *248:10 126.916 
3 *248:10 *3781:BEN[16] 34.2021 
4 *3781:BEN[16] *248:27 27.2421 
5 *248:27 *3781:BEN[17] 17.4857 
6 *248:27 *248:39 10.7093 
7 *248:39 *3781:BEN[18] 18.2107 
8 *248:39 *248:51 12.47 
9 *248:51 *3781:BEN[19] 17.175 
10 *248:51 *248:63 10.3571 
11 *248:63 *3781:BEN[20] 18.2521 
12 *248:63 *248:75 11.4136 
13 *248:75 *3781:BEN[21] 18.2729 
14 *248:75 *3781:BEN[22] 29.7071 
15 *3781:BEN[22] *3781:BEN[23] 43.775 
*END

*D_NET *249 0.00311157
*CONN
*I *3772:A I *D sky130_fd_sc_hd__dlygate4sd3_1
*I *3774:X O *D sky130_fd_sc_hd__dlygate4sd3_1
*CAP
1 *3772:A 0.000157655
2 *3774:X 0.000342923
3 *249:10 0.000500578
4 *3772:A *317:18 0.000404502
5 wbs_dat_o[0] *249:10 4.73585e-05
6 *3768:A *3772:A 9.5877e-05
7 *3774:A *249:10 0.00014196
8 *3795:A *249:10 0.000492954
9 *50:13 *249:10 0.000140259
10 *103:11 *249:10 0.000461079
11 *181:14 *3772:A 0.000300125
12 *243:10 *3772:A 2.63049e-05
*RES
1 *3774:X *249:10 48.5229 
2 *249:10 *3772:A 44.815 
*END

*D_NET *250 0.00316047
*CONN
*I *3833:A I *D sky130_fd_sc_hd__buf_12
*I *3775:X O *D sky130_fd_sc_hd__dlygate4sd3_1
*CAP
1 *3833:A 0
2 *3775:X 0.000207242
3 *250:14 0.000314582
4 *250:8 0.000521824
5 *250:14 *295:8 0.000145587
6 *250:14 *297:12 0.00026382
7 *250:14 *323:14 0.00103339
8 *250:14 *325:16 9.63031e-05
9 *3684:A *250:14 4.37033e-05
10 *3832:A *250:8 0.000332042
11 *31:9 *250:8 0
12 *105:13 *250:14 7.88828e-05
13 *117:87 *250:8 0.000123096
*RES
1 *3775:X *250:8 42.7229 
2 *250:8 *250:14 27.0764 
3 *250:14 *3833:A 23 
*END

*D_NET *251 0.0386615
*CONN
*I *3781:BEN[31] I *D CF_SRAM_1024x32
*I *3781:BEN[30] I *D CF_SRAM_1024x32
*I *3781:BEN[29] I *D CF_SRAM_1024x32
*I *3781:BEN[28] I *D CF_SRAM_1024x32
*I *3781:BEN[27] I *D CF_SRAM_1024x32
*I *3781:BEN[26] I *D CF_SRAM_1024x32
*I *3781:BEN[25] I *D CF_SRAM_1024x32
*I *3781:BEN[24] I *D CF_SRAM_1024x32
*I *3776:X O *D sky130_fd_sc_hd__buf_12
*CAP
1 *3781:BEN[31] 0.000583385
2 *3781:BEN[30] 0.000150071
3 *3781:BEN[29] 9.68541e-05
4 *3781:BEN[28] 0.00128224
5 *3781:BEN[27] 0.00125598
6 *3781:BEN[26] 9.68541e-05
7 *3781:BEN[25] 0.000145775
8 *3781:BEN[24] 8.41345e-05
9 *3776:X 0
10 *251:112 7.37692e-06
11 *251:93 0.00142417
12 *251:81 0.00145473
13 *251:37 0.00126354
14 *251:25 0.00107078
15 *251:12 0.00155412
16 *251:8 0.00561794
17 *251:6 0.00453978
18 *251:8 *381:16 0.00010785
19 *3781:DI[27] *3781:BEN[27] 0
20 *3781:DI[28] *3781:BEN[28] 0
21 *130:9 *3781:BEN[24] 0
22 *130:9 *251:12 0
23 *133:9 *3781:BEN[28] 1.02949e-05
24 *133:11 *3781:BEN[27] 0
25 *133:11 *3781:BEN[28] 0
26 *134:9 *251:81 0
27 *137:11 *3781:BEN[30] 0
28 *155:10 *3781:BEN[27] 0.000184586
29 *155:10 *251:25 0.000268679
30 *155:10 *251:37 0.000324351
31 *160:24 *3781:BEN[28] 0.000409056
32 *168:10 *251:8 0.00315915
33 *175:8 *251:8 0.0106949
34 *193:20 *251:8 0.000890854
35 *221:8 *251:8 0.00198409
*RES
1 *3776:X *251:6 38 
2 *251:6 *251:8 175.512 
3 *251:8 *251:12 31.3436 
4 *251:12 *3781:BEN[24] 1.57429 
5 *251:12 *251:25 24.6529 
6 *251:25 *3781:BEN[25] 17.8793 
7 *251:25 *251:37 12.47 
8 *251:37 *3781:BEN[26] 16.8436 
9 *251:37 *3781:BEN[27] 28.2779 
10 *3781:BEN[27] *3781:BEN[28] 44.7279 
11 *3781:BEN[28] *251:81 28.2779 
12 *251:81 *3781:BEN[29] 16.8436 
13 *251:81 *251:93 12.47 
14 *251:93 *3781:BEN[30] 17.8793 
15 *251:93 *3781:BEN[31] 25.7507 
16 *3781:BEN[31] *251:112 0.145 
*END

*D_NET *252 0.00312422
*CONN
*I *3775:A I *D sky130_fd_sc_hd__dlygate4sd3_1
*I *3777:X O *D sky130_fd_sc_hd__dlygate4sd3_1
*CAP
1 *3775:A 0.000434189
2 *3777:X 0.000187008
3 *252:8 0.000621198
4 *3775:A *323:8 0
5 *3775:A *327:20 3.74878e-05
6 *252:8 *323:14 0.000152828
7 wbs_dat_o[1] *252:8 9.67842e-05
8 *31:17 *3775:A 0.000313872
9 *50:13 *252:8 0.000141954
10 *104:9 *3775:A 0.000284481
11 *104:26 *3775:A 0.000146158
12 *105:13 *252:8 0.000270539
13 *109:14 *3775:A 0.000437718
14 *147:30 *3775:A 0
*RES
1 *3777:X *252:8 44.3386 
2 *252:8 *3775:A 49.0407 
*END

*D_NET *253 0.000501708
*CONN
*I *3643:A I *D sky130_fd_sc_hd__dlygate4sd3_1
*I *3778:X O *D sky130_fd_sc_hd__dlygate4sd3_1
*CAP
1 *3643:A 1.49804e-05
2 *3778:X 0.000101452
3 *253:8 0.000116432
4 *3643:A *339:18 5.50106e-05
5 *253:8 *337:50 2.89252e-05
6 *253:8 *340:22 0.000129897
7 *236:22 *3643:A 5.50106e-05
*RES
1 *3778:X *253:8 39.9057 
2 *253:8 *3643:A 38.6214 
*END

*D_NET *254 0.00234755
*CONN
*I *3690:A I *D sky130_fd_sc_hd__dlygate4sd3_1
*I *3779:X O *D sky130_fd_sc_hd__dlygate4sd3_1
*CAP
1 *3690:A 0.00040673
2 *3779:X 0.000361639
3 *254:8 0.000768369
4 *3690:A *340:22 9.84851e-05
5 *254:8 *325:40 1.01436e-05
6 *254:8 *338:14 2.75733e-06
7 wbs_dat_o[14] *254:8 6.57844e-05
8 wbs_dat_o[15] *3690:A 0.000139352
9 *45:17 *3690:A 4.21378e-05
10 *75:8 *3690:A 0.00014196
11 *117:59 *3690:A 5.72024e-05
12 *165:10 *3690:A 0.000148524
13 *165:10 *254:8 0
14 *214:18 *254:8 0.000104463
*RES
1 *3779:X *254:8 43.7793 
2 *254:8 *3690:A 46.2857 
*END

*D_NET *255 0.000733688
*CONN
*I *3695:A I *D sky130_fd_sc_hd__dlygate4sd3_1
*I *3780:X O *D sky130_fd_sc_hd__dlygate4sd3_1
*CAP
1 *3695:A 9.92162e-05
2 *3780:X 0.000110717
3 *255:8 0.000209933
4 *3695:A *339:18 0.000232734
5 *169:8 *255:8 8.10876e-05
6 *236:8 *255:8 0
*RES
1 *3780:X *255:8 39.9057 
2 *255:8 *3695:A 40.5271 
*END

*D_NET *256 0.00258838
*CONN
*I *3701:A I *D sky130_fd_sc_hd__dlygate4sd3_1
*I *3645:X O *D sky130_fd_sc_hd__dlygate4sd3_1
*CAP
1 *3701:A 0.000413083
2 *3645:X 9.22496e-05
3 *256:8 0.000505333
4 *3701:A *257:14 0.000125566
5 *3701:A *323:30 6.6599e-05
6 *3701:A *339:16 9.58714e-05
7 *3645:A *256:8 0.000620855
8 *43:17 *3701:A 0
9 *117:59 *256:8 0.00061916
10 *159:10 *3701:A 4.9662e-05
*RES
1 *3645:X *256:8 44.815 
2 *256:8 *3701:A 44.525 
*END

*D_NET *257 0.00255434
*CONN
*I *3710:A I *D sky130_fd_sc_hd__dlygate4sd3_1
*I *3646:X O *D sky130_fd_sc_hd__dlygate4sd3_1
*CAP
1 *3710:A 0.0004609
2 *3646:X 0.000535035
3 *257:14 0.000995935
4 *257:14 *258:18 9.28078e-06
5 *257:14 *323:30 3.92922e-05
6 *257:14 *336:34 5.52998e-05
7 *3701:A *257:14 0.000125566
8 *111:12 *257:14 4.14775e-05
9 *111:14 *3710:A 5.29747e-05
10 *185:10 *3710:A 0.000204673
11 *191:10 *257:14 0
12 *192:14 *257:14 3.39037e-05
*RES
1 *3646:X *257:14 46.12 
2 *257:14 *3710:A 44.235 
*END

*D_NET *258 0.0479915
*CONN
*I *3731:A I *D sky130_fd_sc_hd__dlygate4sd3_1
*I *3802:X O *D sky130_fd_sc_hd__buf_4
*CAP
1 *3731:A 0
2 *3802:X 0.000115828
3 *258:60 0.000399521
4 *258:56 0.00146085
5 *258:52 0.00231912
6 *258:44 0.00158035
7 *258:36 0.0013311
8 *258:30 0.00182876
9 *258:26 0.000918597
10 *258:20 0.00443154
11 *258:18 0.00504839
12 *258:10 0.000831061
13 *258:10 *365:22 0.000117869
14 *258:18 *322:10 0.000173494
15 *258:18 *372:14 0.00186176
16 *258:20 *306:8 0.00012664
17 *258:20 *306:10 0.00113054
18 *258:20 *306:22 0.00104545
19 *258:20 *322:20 0.00257715
20 *258:20 *350:14 0.000260231
21 *258:30 *301:6 1.72202e-05
22 *258:30 *306:28 0.000944733
23 *258:30 *347:14 0.00155796
24 *258:36 *259:48 0.00129582
25 *258:36 *302:10 0.000542373
26 *258:36 *306:42 0.000178517
27 *258:44 *281:50 9.73933e-05
28 *258:44 *281:60 5.90675e-06
29 *258:52 *281:60 0.00129265
30 *258:52 *302:18 4.50291e-05
31 *258:52 *304:22 0.00103242
32 *258:52 *317:56 0.00107411
33 *258:52 *339:38 0.000197686
34 *258:56 *281:72 0.000958917
35 *258:56 *304:26 0.00343585
36 *258:56 *317:56 8.35638e-06
37 *258:56 *350:24 0.000490123
38 *258:60 *281:72 0.00119106
39 *258:60 *304:26 0.000544933
40 *258:60 *339:38 0.000175426
41 *258:60 *350:24 7.76035e-05
42 *111:12 *258:18 6.56284e-05
43 *113:27 *258:26 0
44 *117:15 *258:52 5.11935e-06
45 *117:15 *258:56 0.00159468
46 *120:42 *258:30 0.00014196
47 *121:30 *258:30 0.000200042
48 *130:43 *258:36 0.000180218
49 *138:29 *258:44 0
50 *138:29 *258:52 0.000384268
51 *140:11 *258:44 1.66113e-05
52 *141:15 *258:18 0.00182101
53 *148:38 *258:30 0.000618059
54 *161:8 *258:10 2.49865e-05
55 *164:40 *258:44 0
56 *166:16 *258:52 0
57 *177:24 *258:44 1.01436e-05
58 *185:10 *258:20 2.93747e-05
59 *188:26 *258:52 2.64616e-05
60 *188:28 *258:44 3.55458e-05
61 *202:8 *258:26 0.000103653
62 *241:28 *258:44 2.12347e-06
63 *257:14 *258:18 9.28078e-06
*RES
1 *3802:X *258:10 47.7296 
2 *258:10 *258:18 27.6019 
3 *258:18 *258:20 67.3214 
4 *258:20 *258:26 31.5536 
5 *258:26 *258:30 40.8721 
6 *258:30 *258:36 36.2114 
7 *258:36 *258:44 34.8679 
8 *258:44 *258:52 46.9725 
9 *258:52 *258:56 46.545 
10 *258:56 *258:60 30.8154 
11 *258:60 *3731:A 23 
*END

*D_NET *259 0.0429082
*CONN
*I *3727:A I *D sky130_fd_sc_hd__dlygate4sd3_1
*I *3803:X O *D sky130_fd_sc_hd__clkbuf_4
*CAP
1 *3727:A 0.00028812
2 *3803:X 0
3 *259:58 0.00249686
4 *259:56 0.00312952
5 *259:48 0.00213099
6 *259:44 0.00213093
7 *259:36 0.00163147
8 *259:22 0.00246993
9 *259:10 0.00310542
10 *259:4 0.00134624
11 *259:10 *269:8 0.000117936
12 *259:10 *344:14 0.000108481
13 *259:22 *270:24 0.00044347
14 *259:22 *350:14 0.00017732
15 *259:36 *3728:A 1.44895e-05
16 *259:36 *271:10 5.52998e-05
17 *259:36 *281:26 5.61255e-06
18 *259:36 *292:16 0.000214046
19 *259:36 *292:20 9.16599e-05
20 *259:44 *3736:A 0.000117598
21 *259:44 *3741:A 6.04203e-05
22 *259:44 *292:20 4.61621e-05
23 *259:44 *348:16 0.000249093
24 *259:48 *281:46 0
25 *259:48 *281:50 0.00169023
26 *259:48 *302:10 4.23527e-05
27 *259:48 *303:12 0
28 *259:48 *349:14 2.4387e-05
29 *259:56 *305:12 0.000107616
30 *259:56 *305:14 1.06693e-05
31 *259:56 *317:56 0.000124169
32 *259:58 *301:22 1.12487e-05
33 *259:58 *302:24 0.00176449
34 *259:58 *302:26 0.00222647
35 *259:58 *305:14 0.00731691
36 *259:58 *317:56 7.31043e-06
37 wbs_dat_o[16] *259:10 0.000145784
38 wbs_dat_o[18] *259:10 0.000148698
39 wbs_dat_o[22] *259:36 7.68979e-05
40 *410:DIODE *259:22 1.05441e-05
41 *461:DIODE *259:56 0.000184117
42 *473:DIODE *259:56 2.64616e-05
43 *3657:A *259:10 0.000103647
44 *3658:A *259:36 0.000180829
45 *3811:A *259:44 9.72368e-05
46 *53:9 *259:36 5.3304e-05
47 *128:49 *259:22 0.000119498
48 *131:79 *259:48 0
49 *134:15 *259:56 4.05745e-05
50 *143:53 *259:56 0.000622136
51 *148:58 *259:58 0.00114767
52 *159:30 *259:56 0.00167639
53 *182:32 *259:56 0.000137368
54 *193:20 *259:58 0.00100797
55 *196:10 *259:10 0.000104463
56 *214:18 *259:10 0.0010851
57 *225:6 *259:10 0.000268864
58 *225:16 *259:10 0.000617863
59 *258:36 *259:48 0.00129582
*RES
1 *3803:X *259:4 23 
2 *259:4 *259:10 45.8125 
3 *259:10 *259:22 39.7557 
4 *259:22 *259:36 42.2525 
5 *259:36 *259:44 28.4125 
6 *259:44 *259:48 41.2036 
7 *259:48 *259:56 37.0296 
8 *259:56 *259:58 96.8082 
9 *259:58 *3727:A 41.48 
*END

*D_NET *260 0.000479003
*CONN
*I *3726:A I *D sky130_fd_sc_hd__dlygate4sd3_1
*I *3647:X O *D sky130_fd_sc_hd__dlygate4sd3_1
*CAP
1 *3726:A 0
2 *3647:X 0.000197747
3 *260:8 0.000197747
4 *521:DIODE *260:8 8.35096e-05
5 *152:8 *260:8 0
*RES
1 *3647:X *260:8 41.3143 
2 *260:8 *3726:A 38 
*END

*D_NET *261 0.000739388
*CONN
*I *3677:A I *D sky130_fd_sc_hd__dlygate4sd3_1
*I *3648:X O *D sky130_fd_sc_hd__dlygate4sd3_1
*CAP
1 *3677:A 4.14896e-05
2 *3648:X 0.00011821
3 *261:8 0.0001597
4 *3677:A *339:16 0.000188927
5 *261:8 *333:34 0.000127656
6 *159:10 *3677:A 0.000103405
7 *213:8 *261:8 0
*RES
1 *3648:X *261:8 39.9057 
2 *261:8 *3677:A 40.0507 
*END

*D_NET *262 0.000126903
*CONN
*I *3697:A I *D sky130_fd_sc_hd__dlygate4sd3_1
*I *3649:X O *D sky130_fd_sc_hd__dlygate4sd3_1
*CAP
1 *3697:A 6.74574e-06
2 *3649:X 6.74574e-06
3 *69:17 *3697:A 5.67058e-05
4 *117:69 *3697:A 5.67058e-05
*RES
1 *3649:X *3697:A 46.6214 
*END

*D_NET *263 0.000277874
*CONN
*I *3706:A I *D sky130_fd_sc_hd__dlygate4sd3_1
*I *3650:X O *D sky130_fd_sc_hd__dlygate4sd3_1
*CAP
1 *3706:A 0
2 *3650:X 0.000109697
3 *263:8 0.000109697
4 *222:10 *263:8 5.84798e-05
*RES
1 *3650:X *263:8 39.9057 
2 *263:8 *3706:A 38 
*END

*D_NET *264 0.000627923
*CONN
*I *3708:A I *D sky130_fd_sc_hd__dlygate4sd3_1
*I *3651:X O *D sky130_fd_sc_hd__dlygate4sd3_1
*CAP
1 *3708:A 0
2 *3651:X 0.000147405
3 *264:10 0.000147405
4 *264:10 *323:14 9.75779e-05
5 *264:10 *360:18 0.000135557
6 *34:5 *264:10 1.59312e-05
7 *115:63 *264:10 8.4047e-05
*RES
1 *3651:X *264:10 41.0036 
2 *264:10 *3708:A 38 
*END

*D_NET *265 0.00135033
*CONN
*I *3714:A I *D sky130_fd_sc_hd__dlygate4sd3_1
*I *3652:X O *D sky130_fd_sc_hd__dlygate4sd3_1
*CAP
1 *3714:A 0
2 *3652:X 0.000430754
3 *265:10 0.000430754
4 *265:10 *341:18 7.45924e-05
5 *265:10 *342:20 0.000228909
6 wbs_dat_o[18] *265:10 5.40192e-05
7 *48:9 *265:10 0.000131304
8 *159:22 *265:10 0
*RES
1 *3652:X *265:10 46.3064 
2 *265:10 *3714:A 38 
*END

*D_NET *266 0.00295888
*CONN
*I *3712:A I *D sky130_fd_sc_hd__dlygate4sd3_1
*I *3653:X O *D sky130_fd_sc_hd__dlygate4sd3_1
*CAP
1 *3712:A 0
2 *3653:X 0.000358192
3 *266:6 0.000358192
4 *266:6 *339:12 0.0011446
5 *266:6 *362:20 0.000385506
6 *3653:A *266:6 5.3304e-05
7 *224:12 *266:6 0.000659085
*RES
1 *3653:X *266:6 36.0086 
2 *266:6 *3712:A 23 
*END

*D_NET *267 0.00226175
*CONN
*I *3728:A I *D sky130_fd_sc_hd__dlygate4sd3_1
*I *3654:X O *D sky130_fd_sc_hd__dlygate4sd3_1
*CAP
1 *3728:A 0.000290252
2 *3654:X 0.000114764
3 *267:8 0.000405016
4 *3728:A *273:8 0.000189054
5 *267:8 *325:52 0.000575797
6 wbs_dat_o[22] *3728:A 0
7 *410:DIODE *267:8 5.70419e-05
8 *501:DIODE *267:8 5.67058e-05
9 *53:9 *3728:A 0.0003995
10 *117:57 *267:8 8.85082e-05
11 *117:59 *267:8 7.06229e-05
12 *259:36 *3728:A 1.44895e-05
*RES
1 *3654:X *267:8 44.3386 
2 *267:8 *3728:A 44.1314 
*END

*D_NET *268 0.00147564
*CONN
*I *3719:A I *D sky130_fd_sc_hd__dlygate4sd3_1
*I *3656:X O *D sky130_fd_sc_hd__dlygate4sd3_1
*CAP
1 *3719:A 0.000162866
2 *3656:X 0.000134236
3 *268:8 0.000297102
4 *3719:A *339:18 0.000430638
5 *268:8 *342:20 0.000127096
6 *3804:A *3719:A 9.84794e-05
7 *214:24 *268:8 4.99877e-05
8 *236:22 *3719:A 0.000175236
*RES
1 *3656:X *268:8 39.9057 
2 *268:8 *3719:A 42.9093 
*END

*D_NET *269 0.000777083
*CONN
*I *3721:A I *D sky130_fd_sc_hd__dlygate4sd3_1
*I *3657:X O *D sky130_fd_sc_hd__dlygate4sd3_1
*CAP
1 *3721:A 4.62547e-05
2 *3657:X 7.82032e-05
3 *269:8 0.000124458
4 *3721:A *270:14 0.000137651
5 *3721:A *339:18 0.000137651
6 *269:8 *344:14 0.000130649
7 *269:8 *345:10 4.2812e-06
8 *259:10 *269:8 0.000117936
*RES
1 *3657:X *269:8 39.9057 
2 *269:8 *3721:A 39.5743 
*END

*D_NET *270 0.0397414
*CONN
*I *3720:A I *D sky130_fd_sc_hd__dlygate4sd3_1
*I *3804:X O *D sky130_fd_sc_hd__clkbuf_4
*CAP
1 *3720:A 0.00052479
2 *3804:X 0.00142422
3 *270:36 0.0041563
4 *270:34 0.00726825
5 *270:24 0.00423581
6 *270:14 0.00202329
7 *270:14 *3855:A 0.00028012
8 *270:14 *339:18 0.000430429
9 *270:34 *271:10 4.21594e-05
10 *270:34 *281:34 7.56293e-06
11 *270:34 *339:28 0.00165975
12 *270:34 *372:14 0
13 *270:36 *303:36 0.00112853
14 *270:36 *306:58 0.000373331
15 *270:36 *307:10 0
16 *270:36 *308:16 0.00237068
17 *270:36 *353:14 0
18 *270:36 *354:16 0.000208646
19 *270:36 *372:24 0.000288272
20 *410:DIODE *270:24 4.77164e-06
21 *503:DIODE *270:14 0.000143163
22 *3721:A *270:14 0.000137651
23 *3805:A *270:14 9.41704e-05
24 *54:9 *270:24 6.17437e-06
25 *84:14 *270:14 5.50106e-05
26 *115:47 *270:24 0.000927751
27 *117:29 *270:36 0.00203282
28 *128:49 *270:24 4.89664e-05
29 *141:15 *270:34 0
30 *144:17 *270:36 0.00667515
31 *145:67 *270:36 0.000403134
32 *159:32 *270:36 1.26098e-05
33 *184:42 *270:36 0
34 *196:10 *270:14 5.53064e-05
35 *209:10 *270:24 0.000101226
36 *209:10 *270:34 4.83443e-05
37 *223:10 *270:36 0.00120445
38 *236:22 *270:14 0.000485416
39 *236:32 *270:14 0.000439691
40 *259:22 *270:24 0.00044347
*RES
1 *3804:X *270:14 49.68 
2 *270:14 *270:24 43.9821 
3 *270:24 *270:34 40.3506 
4 *270:34 *270:36 129.91 
5 *270:36 *3720:A 44.3386 
*END

*D_NET *271 0.000510142
*CONN
*I *3734:A I *D sky130_fd_sc_hd__dlygate4sd3_1
*I *3658:X O *D sky130_fd_sc_hd__dlygate4sd3_1
*CAP
1 *3734:A 0
2 *3658:X 0.00014124
3 *271:10 0.00014124
4 *271:10 *281:34 0.000130202
5 *259:36 *271:10 5.52998e-05
6 *270:34 *271:10 4.21594e-05
*RES
1 *3658:X *271:10 40.5271 
2 *271:10 *3734:A 38 
*END

*D_NET *272 0.00259715
*CONN
*I *3725:A I *D sky130_fd_sc_hd__dlygate4sd3_1
*I *3659:X O *D sky130_fd_sc_hd__dlygate4sd3_1
*CAP
1 *3725:A 0.0005052
2 *3659:X 0.000365232
3 *272:8 0.000870432
4 *3725:A *340:22 0.000613517
5 *272:8 *321:26 0
6 *272:8 *338:20 0.000124066
7 wbs_dat_o[16] *272:8 0.000113727
8 *47:9 *272:8 0
9 *200:10 *272:8 4.9809e-06
*RES
1 *3659:X *272:8 43.7793 
2 *272:8 *3725:A 45.6643 
*END

*D_NET *273 0.00147656
*CONN
*I *3732:A I *D sky130_fd_sc_hd__dlygate4sd3_1
*I *3660:X O *D sky130_fd_sc_hd__dlygate4sd3_1
*CAP
1 *3732:A 0.000177341
2 *3660:X 0.000101409
3 *273:8 0.000278749
4 *3732:A *325:52 0.000253053
5 wbs_dat_o[22] *273:8 5.33333e-05
6 *3728:A *273:8 0.000189054
7 *117:57 *3732:A 0.000423625
*RES
1 *3660:X *273:8 40.61 
2 *273:8 *3732:A 44.9807 
*END

*D_NET *274 0.00149917
*CONN
*I *3723:A I *D sky130_fd_sc_hd__dlygate4sd3_1
*I *3661:X O *D sky130_fd_sc_hd__dlygate4sd3_1
*CAP
1 *3723:A 0
2 *3661:X 0.000331428
3 *274:10 0.000331428
4 *274:10 *334:44 0.000327782
5 *274:10 *362:12 0.000508531
*RES
1 *3661:X *274:10 44.7736 
2 *274:10 *3723:A 38 
*END

*D_NET *275 0.000839516
*CONN
*I *3736:A I *D sky130_fd_sc_hd__dlygate4sd3_1
*I *3662:X O *D sky130_fd_sc_hd__dlygate4sd3_1
*CAP
1 *3736:A 7.6467e-05
2 *3662:X 0.000118596
3 *275:8 0.000195063
4 *3736:A *292:20 2.18506e-05
5 *3736:A *348:16 0.000183777
6 *509:DIODE *275:8 0.000126166
7 *259:44 *3736:A 0.000117598
*RES
1 *3662:X *275:8 39.9057 
2 *275:8 *3736:A 40.5271 
*END

*D_NET *276 0.00308363
*CONN
*I *3741:A I *D sky130_fd_sc_hd__dlygate4sd3_1
*I *3663:X O *D sky130_fd_sc_hd__dlygate4sd3_1
*CAP
1 *3741:A 4.27746e-05
2 *3663:X 0.000181259
3 *276:18 0.000695207
4 *276:10 0.000833691
5 *3741:A *348:16 2.93335e-05
6 *276:10 *325:52 4.21158e-05
7 *276:10 *347:24 9.41704e-05
8 *276:18 *325:60 4.587e-05
9 wbs_dat_o[24] *276:10 0.000157378
10 wbs_dat_o[25] *276:18 0
11 *449:DIODE *276:18 0.000283224
12 *509:DIODE *276:10 2.75733e-06
13 *55:9 *276:10 4.55317e-05
14 *86:12 *276:18 0.000360771
15 *115:39 *276:10 0.000175903
16 *131:92 *276:18 3.32226e-05
17 *259:44 *3741:A 6.04203e-05
*RES
1 *3663:X *276:10 42.3086 
2 *276:10 *276:18 41.4964 
3 *276:18 *3741:A 39.1186 
*END

*D_NET *277 0.000484782
*CONN
*I *3704:A I *D sky130_fd_sc_hd__dlygate4sd3_1
*I *3664:X O *D sky130_fd_sc_hd__dlygate4sd3_1
*CAP
1 *3704:A 0.00014139
2 *3664:X 0.00014139
3 *3704:A *300:12 0.000144045
4 *150:8 *3704:A 5.79559e-05
*RES
1 *3664:X *3704:A 49.48 
*END

*D_NET *278 0.00403125
*CONN
*I *3743:A I *D sky130_fd_sc_hd__dlygate4sd3_1
*I *3665:X O *D sky130_fd_sc_hd__dlygate4sd3_1
*CAP
1 *3743:A 0.000119191
2 *3665:X 0.000369686
3 *278:18 0.000628167
4 *278:10 0.000878662
5 *278:10 *3604:C 9.28078e-06
6 *278:10 *336:12 0.000158468
7 *278:10 *368:56 0.000113522
8 *278:10 *368:58 0.000160634
9 *278:10 *369:22 0.000222898
10 *278:18 *300:12 0.000262858
11 *278:18 *312:14 1.72202e-05
12 *278:18 *366:33 8.62876e-05
13 *278:18 *370:38 0.000129504
14 *278:18 *370:44 0.000161121
15 *447:DIODE *3743:A 9.84851e-05
16 *447:DIODE *278:18 0.000104051
17 *142:51 *278:18 0.000181925
18 *143:63 *278:10 3.32226e-05
19 *181:14 *3743:A 0.000130676
20 *218:6 *3743:A 5.50049e-05
21 *246:12 *3743:A 0.000110389
*RES
1 *3665:X *278:10 44.5457 
2 *278:10 *278:18 39.4043 
3 *278:18 *3743:A 41.48 
*END

*D_NET *279 0.00384763
*CONN
*I *3752:A I *D sky130_fd_sc_hd__dlygate4sd3_1
*I *3667:X O *D sky130_fd_sc_hd__dlygate4sd3_1
*CAP
1 *3752:A 0.000345692
2 *3667:X 0.000478338
3 *279:8 0.00082403
4 *279:8 *325:68 0.00035613
5 *279:8 *352:14 0.000410504
6 *3668:A *279:8 9.45236e-05
7 *3:17 *279:8 0.000179786
8 *113:15 *3752:A 0.00078179
9 *121:30 *3752:A 2.32004e-05
10 *227:10 *3752:A 0.000353638
*RES
1 *3667:X *279:8 49.4136 
2 *279:8 *3752:A 47.1971 
*END

*D_NET *280 0.000239314
*CONN
*I *3748:A I *D sky130_fd_sc_hd__dlygate4sd3_1
*I *3668:X O *D sky130_fd_sc_hd__dlygate4sd3_1
*CAP
1 *3748:A 4.23181e-05
2 *3668:X 4.23181e-05
3 *3748:A *305:6 7.73389e-05
4 *227:18 *3748:A 7.73389e-05
*RES
1 *3668:X *3748:A 47.5743 
*END

*D_NET *281 0.0381598
*CONN
*I *3716:A I *D sky130_fd_sc_hd__dlygate4sd3_1
*I *3805:X O *D sky130_fd_sc_hd__clkbuf_4
*CAP
1 *3716:A 0
2 *3805:X 0.000187655
3 *281:72 0.00216032
4 *281:70 0.0025755
5 *281:60 0.00108266
6 *281:50 0.00198046
7 *281:46 0.00180785
8 *281:34 0.00127886
9 *281:26 0.00185413
10 *281:18 0.00150724
11 *281:10 0.000624762
12 *281:18 *317:44 0.00048051
13 *281:26 *292:16 0.000355029
14 *281:26 *339:18 0.000895638
15 *281:46 *292:20 0.000269781
16 *281:50 *349:14 0.000220586
17 *281:60 *302:18 0.00100027
18 *281:70 *304:22 0.00111891
19 *281:70 *350:24 0.000190123
20 *281:72 *292:34 0.00144191
21 *281:72 *304:26 2.65002e-05
22 *281:72 *339:38 0.000290031
23 *281:72 *350:24 0.000111045
24 *281:72 *381:16 0.000897493
25 wbs_dat_o[24] *281:34 0.000196096
26 *432:DIODE *281:34 2.86398e-05
27 *446:DIODE *281:34 9.06605e-05
28 *449:DIODE *281:46 3.71651e-05
29 *508:DIODE *281:34 0.000312348
30 *3658:A *281:26 5.99365e-05
31 *53:9 *281:26 4.59139e-05
32 *54:9 *281:34 0.000358425
33 *117:15 *281:70 3.91386e-05
34 *117:15 *281:72 0.00158171
35 *117:21 *281:70 0.000999364
36 *119:11 *281:70 3.3211e-05
37 *130:73 *281:34 0
38 *131:27 *281:50 0.000473784
39 *131:92 *281:46 8.45703e-05
40 *133:27 *281:72 0.00208825
41 *140:15 *281:60 0.000182087
42 *142:31 *281:60 5.21345e-05
43 *166:16 *281:72 0.000792776
44 *177:24 *281:50 9.68919e-05
45 *188:26 *281:60 0.000139982
46 *193:10 *281:72 3.05976e-05
47 *209:10 *281:34 0
48 *216:8 *281:46 4.21594e-05
49 *219:36 *281:50 0.00018425
50 *221:8 *281:72 1.83371e-05
51 *225:20 *281:10 2.01531e-05
52 *226:10 *281:72 0.00183386
53 *236:32 *281:10 1.01436e-05
54 *236:38 *281:18 8.29264e-05
55 *247:6 *281:10 0.000187129
56 *247:6 *281:26 0.000320308
57 *258:44 *281:50 9.73933e-05
58 *258:44 *281:60 5.90675e-06
59 *258:52 *281:60 0.00129265
60 *258:56 *281:72 0.000958917
61 *258:60 *281:72 0.00119106
62 *259:36 *281:26 5.61255e-06
63 *259:48 *281:46 0
64 *259:48 *281:50 0.00169023
65 *270:34 *281:34 7.56293e-06
66 *271:10 *281:34 0.000130202
*RES
1 *3805:X *281:10 41.2521 
2 *281:10 *281:18 36.5871 
3 *281:18 *281:26 36.75 
4 *281:26 *281:34 45.8464 
5 *281:34 *281:46 37.9129 
6 *281:46 *281:50 41.9079 
7 *281:50 *281:60 47.8143 
8 *281:60 *281:70 45.8257 
9 *281:70 *281:72 89.5893 
10 *281:72 *3716:A 38 
*END

*D_NET *282 0.000799681
*CONN
*I *3770:A I *D sky130_fd_sc_hd__dlygate4sd3_1
*I *3669:X O *D sky130_fd_sc_hd__dlygate4sd3_1
*CAP
1 *3770:A 0.000137152
2 *3669:X 0.000112476
3 *282:8 0.000249628
4 *3770:A *285:10 0.000170306
5 *541:DIODE *282:8 0.000130119
*RES
1 *3669:X *282:8 39.9057 
2 *282:8 *3770:A 41.48 
*END

*D_NET *283 0.00170334
*CONN
*I *3655:A I *D sky130_fd_sc_hd__dlygate4sd3_1
*I *3670:X O *D sky130_fd_sc_hd__dlygate4sd3_1
*CAP
1 *3655:A 4.67873e-05
2 *3670:X 0.000280494
3 *283:8 0.000327281
4 *283:8 *305:12 0.000473032
5 wbs_dat_o[28] *283:8 1.37246e-05
6 *474:DIODE *283:8 0
7 *115:29 *283:8 3.9779e-05
8 *115:33 *283:8 0.000522243
*RES
1 *3670:X *283:8 46.5964 
2 *283:8 *3655:A 38.6214 
*END

*D_NET *284 0.00215948
*CONN
*I *3754:A I *D sky130_fd_sc_hd__dlygate4sd3_1
*I *3671:X O *D sky130_fd_sc_hd__dlygate4sd3_1
*CAP
1 *3754:A 0
2 *3671:X 0.000689327
3 *284:10 0.000689327
4 *284:10 *292:22 4.70182e-05
5 *284:10 *317:44 0.000733804
6 *3:17 *284:10 0
7 *134:46 *284:10 0
8 *134:48 *284:10 0
*RES
1 *3671:X *284:10 48.15 
2 *284:10 *3754:A 38 
*END

*D_NET *285 0.00169817
*CONN
*I *3688:A I *D sky130_fd_sc_hd__dlygate4sd3_1
*I *3672:X O *D sky130_fd_sc_hd__dlygate4sd3_1
*CAP
1 *3688:A 0.000261351
2 *3672:X 0.000397483
3 *285:10 0.000658834
4 *3688:A *327:16 5.53064e-05
5 *285:10 *327:8 7.89973e-05
6 *3770:A *285:10 0.000170306
7 *3794:A *3688:A 1.4638e-05
8 *170:20 *3688:A 6.12551e-05
*RES
1 *3672:X *285:10 43.6343 
2 *285:10 *3688:A 41.8529 
*END

*D_NET *286 0.0012651
*CONN
*I *3692:A I *D sky130_fd_sc_hd__dlygate4sd3_1
*I *3673:X O *D sky130_fd_sc_hd__dlygate4sd3_1
*CAP
1 *3692:A 0
2 *3673:X 0.000475074
3 *286:10 0.000475074
4 *286:10 *309:10 0
5 *286:10 *314:10 0
6 wbs_dat_o[29] *286:10 0
7 *519:DIODE *286:10 0
8 *60:11 *286:10 0.00031495
9 *62:5 *286:10 0
*RES
1 *3673:X *286:10 47.2593 
2 *286:10 *3692:A 38 
*END

*D_NET *287 0.000623324
*CONN
*I *3699:A I *D sky130_fd_sc_hd__dlygate4sd3_1
*I *3674:X O *D sky130_fd_sc_hd__dlygate4sd3_1
*CAP
1 *3699:A 5.39756e-05
2 *3674:X 7.60147e-05
3 *287:8 0.00012999
4 *3699:A *313:10 6.17437e-06
5 *3699:A *314:6 9.58714e-05
6 *287:8 *311:10 0.000130649
7 *287:8 *356:14 0.000130649
*RES
1 *3674:X *287:8 39.9057 
2 *287:8 *3699:A 39.0979 
*END

*D_NET *288 0.000693396
*CONN
*I *3703:A I *D sky130_fd_sc_hd__dlygate4sd3_1
*I *3675:X O *D sky130_fd_sc_hd__dlygate4sd3_1
*CAP
1 *3703:A 0
2 *3675:X 0.000231396
3 *288:6 0.000231396
4 *178:10 *288:6 0.000230604
*RES
1 *3675:X *288:6 28.3857 
2 *288:6 *3703:A 23 
*END

*D_NET *289 0.000109898
*CONN
*I *3717:A I *D sky130_fd_sc_hd__dlygate4sd3_1
*I *3676:X O *D sky130_fd_sc_hd__dlygate4sd3_1
*CAP
1 *3717:A 9.86826e-06
2 *3676:X 9.86826e-06
3 *3717:A *339:16 5.79559e-05
4 *159:10 *3717:A 3.22051e-05
*RES
1 *3676:X *3717:A 46.6214 
*END

*D_NET *290 0.00264155
*CONN
*I *3730:A I *D sky130_fd_sc_hd__dlygate4sd3_1
*I *3678:X O *D sky130_fd_sc_hd__dlygate4sd3_1
*CAP
1 *3730:A 5.21196e-05
2 *3678:X 0.000411023
3 *290:10 0.000463143
4 *3730:A *339:16 0.000182826
5 *290:10 *323:16 0.000526998
6 *290:10 *365:22 9.78653e-05
7 *7:21 *290:10 0.000142419
8 *8:5 *290:10 0.000396203
9 *102:6 *290:10 0.000269775
10 *159:10 *3730:A 9.91798e-05
*RES
1 *3678:X *290:10 49.6414 
2 *290:10 *3730:A 40.0507 
*END

*D_NET *291 0.000382801
*CONN
*I *3739:A I *D sky130_fd_sc_hd__dlygate4sd3_1
*I *3679:X O *D sky130_fd_sc_hd__dlygate4sd3_1
*CAP
1 *3739:A 0
2 *3679:X 0.0001209
3 *291:8 0.0001209
4 *291:8 *333:34 7.35193e-06
5 *117:69 *291:8 0.000133649
*RES
1 *3679:X *291:8 40.2579 
2 *291:8 *3739:A 38 
*END

*D_NET *292 0.0379084
*CONN
*I *3722:A I *D sky130_fd_sc_hd__dlygate4sd3_1
*I *3806:X O *D sky130_fd_sc_hd__clkbuf_4
*CAP
1 *3722:A 0
2 *3806:X 0.000898378
3 *292:34 0.000609025
4 *292:30 0.000832962
5 *292:22 0.00312851
6 *292:20 0.00445014
7 *292:16 0.00192982
8 *292:6 0.00128263
9 *292:6 *344:14 2.31591e-05
10 *292:20 *348:16 0.00103175
11 *292:20 *352:14 7.44257e-05
12 *292:22 *317:52 0.000143688
13 *292:22 *328:50 0.00673652
14 *292:22 *380:16 0.00108624
15 *292:30 *3760:A 6.17437e-06
16 *292:30 *328:67 1.85916e-05
17 *292:34 *381:16 0.000310624
18 wbs_dat_o[20] *292:6 0.000275256
19 *430:DIODE *292:20 5.50106e-05
20 *444:DIODE *292:20 0.000100069
21 *462:DIODE *292:22 0.000124075
22 *3736:A *292:20 2.18506e-05
23 *3811:A *292:20 3.3577e-05
24 *3:17 *292:22 0.000648383
25 *52:9 *292:6 0.000482844
26 *52:24 *292:6 0.000129522
27 *87:10 *292:20 0.000181131
28 *115:47 *292:6 0.000242346
29 *133:27 *292:22 0.000136761
30 *170:88 *292:22 0.000214244
31 *207:8 *292:16 0.000253665
32 *209:10 *292:16 3.48883e-05
33 *219:50 *292:22 0.0073376
34 *221:8 *292:34 0.0020806
35 *226:10 *292:34 0.000329628
36 *229:10 *292:20 0.000185364
37 *234:8 *292:30 1.33694e-05
38 *259:36 *292:16 0.000214046
39 *259:36 *292:20 9.16599e-05
40 *259:44 *292:20 4.61621e-05
41 *281:26 *292:16 0.000355029
42 *281:46 *292:20 0.000269781
43 *281:72 *292:34 0.00144191
44 *284:10 *292:22 4.70182e-05
*RES
1 *3806:X *292:6 40.2964 
2 *292:6 *292:16 38.5964 
3 *292:16 *292:20 44.6836 
4 *292:20 *292:22 112.479 
5 *292:22 *292:30 33.0243 
6 *292:30 *292:34 42.6121 
7 *292:34 *3722:A 23 
*END

*D_NET *293 0.00159368
*CONN
*I *3745:A I *D sky130_fd_sc_hd__dlygate4sd3_1
*I *3680:X O *D sky130_fd_sc_hd__dlygate4sd3_1
*CAP
1 *3745:A 0
2 *3680:X 0.000505941
3 *293:14 0.000505941
4 *293:14 *323:16 0.000278334
5 *293:14 *363:28 0
6 wbs_dat_o[7] *293:14 0.000187752
7 *36:9 *293:14 0.000115715
8 *69:9 *293:14 0
*RES
1 *3680:X *293:14 47.9014 
2 *293:14 *3745:A 38 
*END

*D_NET *294 0.000431574
*CONN
*I *3747:A I *D sky130_fd_sc_hd__dlygate4sd3_1
*I *3681:X O *D sky130_fd_sc_hd__dlygate4sd3_1
*CAP
1 *3747:A 1.49804e-05
2 *3681:X 0.000145796
3 *294:8 0.000160776
4 *3747:A *339:12 5.50106e-05
5 *525:DIODE *3747:A 5.50106e-05
6 *525:DIODE *294:8 0
7 *183:8 *294:8 0
*RES
1 *3681:X *294:8 39.9057 
2 *294:8 *3747:A 38.6214 
*END

*D_NET *295 0.00396286
*CONN
*I *3750:A I *D sky130_fd_sc_hd__dlygate4sd3_1
*I *3682:X O *D sky130_fd_sc_hd__dlygate4sd3_1
*CAP
1 *3750:A 0.000506916
2 *3682:X 0.000728183
3 *295:8 0.0012351
4 *3750:A *3758:A 3.41812e-05
5 *3750:A *297:12 2.15048e-05
6 *3750:A *329:22 2.46906e-05
7 *3750:A *331:22 6.63944e-05
8 *3750:A *339:12 0.000264773
9 *295:8 *325:16 0.000345263
10 wbs_dat_o[3] *3750:A 0.000108253
11 *3837:A *3750:A 0.000178235
12 *64:28 *3750:A 5.43589e-05
13 *105:13 *295:8 0.000227208
14 *109:14 *3750:A 9.77922e-06
15 *224:12 *3750:A 1.24376e-05
16 *250:14 *295:8 0.000145587
*RES
1 *3682:X *295:8 48.6264 
2 *295:8 *3750:A 47.4871 
*END

*D_NET *296 0.000340095
*CONN
*I *3756:A I *D sky130_fd_sc_hd__dlygate4sd3_1
*I *3683:X O *D sky130_fd_sc_hd__dlygate4sd3_1
*CAP
1 *3756:A 0
2 *3683:X 6.7483e-05
3 *296:8 6.7483e-05
4 *296:8 *317:26 2.26497e-05
5 *3683:A *296:8 0.000137242
6 *183:8 *296:8 1.94418e-05
7 *187:14 *296:8 2.57949e-05
*RES
1 *3683:X *296:8 39.9057 
2 *296:8 *3756:A 38 
*END

*D_NET *297 0.00225711
*CONN
*I *3758:A I *D sky130_fd_sc_hd__dlygate4sd3_1
*I *3684:X O *D sky130_fd_sc_hd__dlygate4sd3_1
*CAP
1 *3758:A 0.000495912
2 *3684:X 0.000184028
3 *297:12 0.00067994
4 *3758:A *330:12 0
5 *3758:A *331:22 0.000176725
6 *3758:A *355:20 0
7 *3758:A *364:10 5.64582e-05
8 *297:12 *325:16 0.000265521
9 *3750:A *3758:A 3.41812e-05
10 *3750:A *297:12 2.15048e-05
11 *64:28 *3758:A 7.90161e-05
12 *250:14 *297:12 0.00026382
*RES
1 *3684:X *297:12 42.2982 
2 *297:12 *3758:A 46.0682 
*END

*D_NET *298 0.00138073
*CONN
*I *3763:A I *D sky130_fd_sc_hd__dlygate4sd3_1
*I *3685:X O *D sky130_fd_sc_hd__dlygate4sd3_1
*CAP
1 *3763:A 0
2 *3685:X 0.000440412
3 *298:10 0.000440412
4 *298:10 *343:22 5.43285e-05
5 *61:11 *298:10 0
6 *109:14 *298:10 0.000445576
*RES
1 *3685:X *298:10 44.815 
2 *298:10 *3763:A 38 
*END

*D_NET *299 0.00228906
*CONN
*I *3761:A I *D sky130_fd_sc_hd__dlygate4sd3_1
*I *3686:X O *D sky130_fd_sc_hd__dlygate4sd3_1
*CAP
1 *3761:A 0.000284859
2 *3686:X 0.000342281
3 *299:12 0.00062714
4 *3761:A *331:32 0
5 *299:12 *327:16 0.000182963
6 *299:12 *329:10 0.000224893
7 *3836:A *299:12 0.000353151
8 *103:11 *3761:A 0
9 *170:20 *299:12 0.000184399
10 *243:10 *3761:A 8.9374e-05
*RES
1 *3686:X *299:12 46.8864 
2 *299:12 *3761:A 43.075 
*END

*D_NET *300 0.0165889
*CONN
*I *3644:A I *D sky130_fd_sc_hd__dlygate4sd3_1
*I *3807:X O *D sky130_fd_sc_hd__buf_4
*CAP
1 *3644:A 2.30556e-05
2 *3807:X 0.000158883
3 *300:24 0.0031579
4 *300:22 0.00366254
5 *300:12 0.00195604
6 *300:8 0.00158722
7 *300:12 *312:14 0.000601021
8 *300:22 *334:20 2.05503e-05
9 *300:22 *336:12 4.24694e-06
10 *300:22 *366:76 0.000113689
11 *300:22 *370:87 7.89973e-05
12 *300:24 *316:26 0.00177562
13 *300:24 *367:213 0.000520195
14 *3604:D *300:22 0.000278673
15 *3704:A *300:12 0.000144045
16 *3771:A *300:12 0.000173452
17 *61:11 *300:12 4.75937e-05
18 *114:21 *300:22 0.000116314
19 *138:56 *300:24 0.00108516
20 *143:59 *300:22 7.39764e-05
21 *143:63 *300:22 0.000119435
22 *150:8 *300:12 0.000439398
23 *170:34 *300:22 0.000188025
24 *278:18 *300:12 0.000262858
*RES
1 *3807:X *300:8 40.9621 
2 *300:8 *300:12 42.7779 
3 *300:12 *300:22 41.1236 
4 *300:22 *300:24 67.3214 
5 *300:24 *3644:A 23.4971 
*END

*D_NET *301 0.0385265
*CONN
*I *3729:A I *D sky130_fd_sc_hd__dlygate4sd3_1
*I *3808:X O *D sky130_fd_sc_hd__clkbuf_4
*CAP
1 *3729:A 0.000160786
2 *3808:X 0.000448955
3 *301:32 0.00209738
4 *301:30 0.00203691
5 *301:22 0.000596318
6 *301:18 0.00152034
7 *301:10 0.00237788
8 *301:6 0.0018025
9 *301:6 *347:14 0.00147363
10 *301:6 *361:28 0.00126146
11 *301:10 *348:16 0.000129353
12 *301:18 *3781:vpwrpc 0.000112764
13 *301:18 *302:18 0.00186791
14 *301:22 *302:24 0.00171327
15 *301:22 *317:56 0.00173567
16 *301:22 *339:38 0.000212458
17 *301:30 *317:66 6.17437e-06
18 *301:32 *302:26 0.0072099
19 *301:32 *303:38 0.00720889
20 *301:32 *339:38 0.000571788
21 *461:DIODE *301:18 5.21801e-05
22 *117:25 *301:18 0.00022466
23 *120:34 *301:10 8.49387e-06
24 *120:42 *301:6 0.000614963
25 *121:30 *301:6 0.000272913
26 *121:38 *301:6 0.000241539
27 *130:43 *301:10 0
28 *131:56 *301:10 2.91533e-05
29 *131:60 *301:10 0.000499467
30 *131:62 *301:10 7.33672e-05
31 *131:68 *301:10 5.80848e-05
32 *142:31 *301:18 0.000341592
33 *143:53 *301:18 0.00140031
34 *159:26 *301:10 0
35 *162:22 *301:10 0.000116835
36 *184:26 *301:10 2.01788e-05
37 *258:30 *301:6 1.72202e-05
38 *259:58 *301:22 1.12487e-05
*RES
1 *3808:X *301:6 46.49 
2 *301:6 *301:10 35.5693 
3 *301:10 *301:18 44 
4 *301:18 *301:22 38.0343 
5 *301:22 *301:30 31.4707 
6 *301:30 *301:32 95.2236 
7 *301:32 *3729:A 40.0507 
*END

*D_NET *302 0.037364
*CONN
*I *3733:A I *D sky130_fd_sc_hd__dlygate4sd3_1
*I *3809:X O *D sky130_fd_sc_hd__clkbuf_4
*CAP
1 *3733:A 0.000186403
2 *3809:X 0.00156436
3 *302:26 0.00244347
4 *302:24 0.00281179
5 *302:18 0.00132518
6 *302:10 0.00199086
7 *302:6 0.00278477
8 *302:6 *306:22 0.00109728
9 *302:6 *361:38 0.000418635
10 *302:10 *303:12 0.00122245
11 *302:10 *306:32 8.50685e-05
12 *302:24 *303:38 9.9025e-06
13 *302:26 *303:38 0.000218593
14 *302:26 *381:16 0.000341849
15 *117:25 *302:18 2.4754e-05
16 *131:68 *302:6 0.00021677
17 *131:79 *302:6 9.77405e-05
18 *142:31 *302:18 0.00060996
19 *148:58 *302:24 0.000272267
20 *148:58 *302:26 7.71407e-05
21 *193:20 *302:26 0.00315272
22 *258:36 *302:10 0.000542373
23 *258:52 *302:18 4.50291e-05
24 *259:48 *302:10 4.23527e-05
25 *259:58 *302:24 0.00176449
26 *259:58 *302:26 0.00222647
27 *281:60 *302:18 0.00100027
28 *301:18 *302:18 0.00186791
29 *301:22 *302:24 0.00171327
30 *301:32 *302:26 0.0072099
*RES
1 *3809:X *302:6 46.9664 
2 *302:6 *302:10 38.0343 
3 *302:10 *302:18 37.8064 
4 *302:18 *302:24 39.0079 
5 *302:24 *302:26 100.858 
6 *302:26 *3733:A 40.5271 
*END

*D_NET *303 0.0418611
*CONN
*I *3735:A I *D sky130_fd_sc_hd__dlygate4sd3_1
*I *3810:X O *D sky130_fd_sc_hd__clkbuf_4
*CAP
1 *3735:A 0.000121341
2 *3810:X 0.000345984
3 *303:38 0.00259567
4 *303:36 0.00319103
5 *303:28 0.00287828
6 *303:12 0.00304598
7 *303:6 0.00123038
8 *303:6 *306:22 9.45178e-05
9 *303:6 *317:44 0.00159567
10 *303:6 *361:38 0.00142205
11 *303:12 *306:32 0.00115415
12 *303:28 *3781:vpwrpc 0.000387561
13 *303:28 *3781:vpwrac 0.000685645
14 *303:28 *306:42 1.24219e-05
15 *303:28 *361:48 0.000262576
16 *303:36 *306:58 0.000235375
17 *303:36 *308:16 0.00112853
18 *303:38 *304:26 0.0086449
19 *303:38 *317:56 0.000554911
20 *303:38 *339:38 0.000665549
21 *303:38 *381:16 0.000282858
22 *116:15 *303:28 0.000216239
23 *124:11 *303:28 0.000149043
24 *130:37 *303:28 0.000241187
25 *131:79 *303:12 0
26 *139:17 *303:28 0
27 *142:27 *303:28 2.31209e-05
28 *145:63 *303:28 0.000681278
29 *146:16 *303:28 2.53246e-05
30 *193:20 *303:38 0.000120018
31 *199:18 *303:28 8.11135e-05
32 *259:48 *303:12 0
33 *270:36 *303:36 0.00112853
34 *301:32 *303:38 0.00720889
35 *302:10 *303:12 0.00122245
36 *302:24 *303:38 9.9025e-06
37 *302:26 *303:38 0.000218593
*RES
1 *3810:X *303:6 40.7729 
2 *303:6 *303:12 49.1607 
3 *303:12 *303:28 47.7983 
4 *303:28 *303:36 49.1918 
5 *303:36 *303:38 114.591 
6 *303:38 *3735:A 39.5743 
*END

*D_NET *304 0.0377303
*CONN
*I *3738:A I *D sky130_fd_sc_hd__dlygate4sd3_1
*I *3811:X O *D sky130_fd_sc_hd__clkbuf_4
*CAP
1 *3738:A 6.51276e-05
2 *3811:X 0
3 *304:26 0.0027706
4 *304:24 0.00270548
5 *304:22 0.000560109
6 *304:16 0.00170217
7 *304:10 0.00255943
8 *304:6 0.00141737
9 *304:16 *306:42 1.77339e-05
10 *304:22 *317:56 7.35591e-05
11 *304:22 *339:38 0.000218028
12 *304:26 *339:38 0.000786671
13 *304:26 *350:24 0.000293655
14 *431:DIODE *304:10 0
15 *3781:DI[4] *3738:A 4.9662e-05
16 *117:21 *304:22 3.08323e-05
17 *119:11 *304:22 5.15971e-05
18 *119:15 *304:16 1.61361e-05
19 *130:43 *304:16 0.00146957
20 *130:55 *304:10 2.50707e-05
21 *130:59 *304:10 0
22 *130:69 *304:10 0
23 *130:71 *304:10 0
24 *131:19 *304:16 0.00143539
25 *134:26 *304:22 0.000203416
26 *134:28 *304:22 1.01436e-05
27 *151:20 *304:10 0
28 *159:26 *304:10 0.00152969
29 *177:30 *304:16 0.000211699
30 *193:10 *304:26 0.000162179
31 *193:20 *304:26 0
32 *199:12 *304:16 0.000573778
33 *219:28 *304:10 2.96866e-05
34 *221:8 *304:26 0.00395806
35 *258:52 *304:22 0.00103242
36 *258:56 *304:26 0.00343585
37 *258:60 *304:26 0.000544933
38 *281:70 *304:22 0.00111891
39 *281:72 *304:26 2.65002e-05
40 *303:38 *304:26 0.0086449
*RES
1 *3811:X *304:6 38 
2 *304:6 *304:10 37.6821 
3 *304:10 *304:16 43.8757 
4 *304:16 *304:22 35.01 
5 *304:22 *304:24 15 
6 *304:24 *304:26 120.226 
7 *304:26 *3738:A 39.0979 
*END

*D_NET *305 0.0374067
*CONN
*I *3742:A I *D sky130_fd_sc_hd__dlygate4sd3_1
*I *3812:X O *D sky130_fd_sc_hd__clkbuf_4
*CAP
1 *3742:A 0.000189696
2 *3812:X 0.00164712
3 *305:14 0.00310575
4 *305:12 0.00439237
5 *305:6 0.00312344
6 *305:12 *317:56 0.000274819
7 *305:14 *306:62 0.0044083
8 wbs_dat_o[24] *305:6 0.000616669
9 wbs_dat_o[25] *305:6 9.16459e-05
10 *474:DIODE *305:12 0
11 *3668:A *305:6 9.61498e-05
12 *3748:A *305:6 7.73389e-05
13 *115:29 *305:12 0.000501877
14 *115:29 *305:14 0.00167028
15 *134:11 *305:14 0.000152225
16 *134:32 *305:12 4.45401e-05
17 *134:34 *305:12 9.25497e-05
18 *134:36 *305:12 2.29834e-05
19 *134:38 *305:12 6.1764e-05
20 *134:40 *305:12 5.08556e-05
21 *134:46 *305:12 5.83509e-05
22 *134:48 *305:12 0
23 *139:9 *3742:A 0.000353616
24 *148:58 *305:14 0.00107546
25 *193:20 *305:14 0.000132429
26 *215:8 *305:14 0.00418063
27 *227:18 *305:6 0.000147224
28 *248:10 *305:14 0.00293042
29 *259:56 *305:12 0.000107616
30 *259:56 *305:14 1.06693e-05
31 *259:58 *305:14 0.00731691
32 *283:8 *305:12 0.000473032
*RES
1 *3812:X *305:6 46.0136 
2 *305:6 *305:12 46.3511 
3 *305:12 *305:14 139.77 
4 *305:14 *3742:A 41.9564 
*END

*D_NET *306 0.0452728
*CONN
*I *3718:A I *D sky130_fd_sc_hd__dlygate4sd3_1
*I *3813:X O *D sky130_fd_sc_hd__buf_4
*CAP
1 *3718:A 0
2 *3813:X 0.000186603
3 *306:62 0.00118367
4 *306:60 0.00118367
5 *306:58 0.00108484
6 *306:42 0.00241308
7 *306:32 0.00246515
8 *306:28 0.00185361
9 *306:22 0.00135194
10 *306:10 0.00160301
11 *306:8 0.00115438
12 *306:8 *317:44 9.67842e-05
13 *306:10 *317:44 0.000262941
14 *306:10 *322:20 0.00258054
15 *306:10 *350:14 0.000300439
16 *306:22 *317:44 9.78729e-06
17 *306:22 *350:14 0.000110155
18 *306:22 *361:38 0.000400204
19 *306:32 *369:159 2.71494e-05
20 *306:42 *308:16 0.000100717
21 *306:58 *308:16 0.00037602
22 *306:58 *372:24 0.0014448
23 *3809:A *306:22 0.000448457
24 *85:8 *306:22 0.000111779
25 *111:14 *306:8 0.000139352
26 *115:29 *306:42 0.000103356
27 *119:15 *306:42 0.00163685
28 *121:38 *306:22 0
29 *130:43 *306:42 0.000105769
30 *130:69 *306:22 6.61462e-05
31 *131:37 *306:32 0.000157705
32 *134:11 *306:62 0.00440621
33 *139:17 *306:42 0
34 *148:28 *306:10 0.00419721
35 *148:28 *306:22 0.000111545
36 *148:38 *306:22 0.000746968
37 *148:58 *306:62 0.000665549
38 *159:30 *306:42 0.000246791
39 *177:30 *306:42 0.000803176
40 *185:10 *306:8 0.000139352
41 *203:6 *306:8 9.30054e-05
42 *258:20 *306:8 0.00012664
43 *258:20 *306:10 0.00113054
44 *258:20 *306:22 0.00104545
45 *258:30 *306:28 0.000944733
46 *258:36 *306:42 0.000178517
47 *270:36 *306:58 0.000373331
48 *302:6 *306:22 0.00109728
49 *302:10 *306:32 8.50685e-05
50 *303:6 *306:22 9.45178e-05
51 *303:12 *306:32 0.00115415
52 *303:28 *306:42 1.24219e-05
53 *303:36 *306:58 0.000235375
54 *304:16 *306:42 1.77339e-05
55 *305:14 *306:62 0.0044083
*RES
1 *3813:X *306:8 28.8829 
2 *306:8 *306:10 51.5993 
3 *306:10 *306:22 42.26 
4 *306:22 *306:28 40.6264 
5 *306:28 *306:32 34.865 
6 *306:32 *306:42 48.5287 
7 *306:42 *306:58 48.9284 
8 *306:58 *306:60 15 
9 *306:60 *306:62 58.2486 
10 *306:62 *3718:A 38 
*END

*D_NET *307 0.0335237
*CONN
*I *3753:A I *D sky130_fd_sc_hd__dlygate4sd3_1
*I *3814:X O *D sky130_fd_sc_hd__clkbuf_4
*CAP
1 *3753:A 0.000652946
2 *3814:X 4.05842e-05
3 *307:10 0.00535752
4 *307:8 0.00474515
5 *307:8 *354:16 5.72975e-05
6 *307:10 *3624:C 6.15719e-05
7 *307:10 *309:10 3.69234e-05
8 *307:10 *310:8 0.0130187
9 *307:10 *327:126 8.29264e-05
10 *307:10 *353:14 0.000354875
11 *139:11 *307:10 0.000502023
12 *145:67 *307:10 0
13 *158:10 *307:10 0.000167266
14 *173:18 *307:10 0.00762287
15 *184:42 *307:10 0.000823087
16 *270:36 *307:10 0
*RES
1 *3814:X *307:8 38.6214 
2 *307:8 *307:10 176.569 
3 *307:10 *3753:A 47.6736 
*END

*D_NET *308 0.0346547
*CONN
*I *3755:A I *D sky130_fd_sc_hd__dlygate4sd3_1
*I *3815:X O *D sky130_fd_sc_hd__clkbuf_4
*CAP
1 *3755:A 0.000381618
2 *3815:X 0
3 *308:16 0.00404828
4 *308:14 0.00366667
5 *308:12 0.00120281
6 *308:6 0.00120281
7 *308:12 *3860:A 0
8 *308:12 *325:68 0
9 *308:16 *372:24 0.000493522
10 *110:16 *308:12 0.000227476
11 *115:29 *308:16 0.000178615
12 *117:29 *308:16 0.000570563
13 *134:11 *308:16 0.0118631
14 *153:18 *308:12 0.00107501
15 *166:12 *308:12 0.000148019
16 *171:20 *308:12 9.28078e-06
17 *182:26 *308:12 7.25054e-05
18 *219:46 *308:12 0.000141247
19 *223:10 *308:16 0.00525552
20 *244:38 *308:12 0.000141741
21 *270:36 *308:16 0.00237068
22 *303:36 *308:16 0.00112853
23 *306:42 *308:16 0.000100717
24 *306:58 *308:16 0.00037602
*RES
1 *3815:X *308:6 38 
2 *308:6 *308:12 40.23 
3 *308:12 *308:14 15 
4 *308:14 *308:16 163.539 
5 *308:16 *3755:A 43.3857 
*END

*D_NET *309 0.0338896
*CONN
*I *3759:A I *D sky130_fd_sc_hd__dlygate4sd3_1
*I *3816:X O *D sky130_fd_sc_hd__buf_4
*CAP
1 *3759:A 0.000743517
2 *3816:X 0.000176653
3 *309:10 0.00674488
4 *309:8 0.00617802
5 *309:8 *354:16 7.12002e-05
6 *309:10 *310:8 0.000314355
7 *309:10 *327:126 0.000138718
8 *309:10 *353:14 0
9 wbs_dat_o[29] *309:10 1.01436e-05
10 *476:DIODE *309:10 0.000203509
11 *121:22 *309:10 0
12 *131:11 *309:10 0
13 *136:13 *309:10 0.0130044
14 *153:22 *309:10 0.00585158
15 *186:26 *309:10 0.000139163
16 *227:18 *309:8 0.000276557
17 *286:10 *309:10 0
18 *307:10 *309:10 3.69234e-05
*RES
1 *3816:X *309:8 42.4329 
2 *309:8 *309:10 188.894 
3 *309:10 *3759:A 49.1029 
*END

*D_NET *310 0.0378061
*CONN
*I *3666:A I *D sky130_fd_sc_hd__dlygate4sd3_1
*I *3817:X O *D sky130_fd_sc_hd__buf_4
*CAP
1 *3666:A 0.000664627
2 *3817:X 0
3 *310:8 0.00542963
4 *310:6 0.00476501
5 *476:DIODE *310:8 0.000200406
6 *136:13 *310:8 0.0134134
7 *145:67 *310:8 0
8 *307:10 *310:8 0.0130187
9 *309:10 *310:8 0.000314355
*RES
1 *3817:X *310:6 38 
2 *310:6 *310:8 191.359 
3 *310:8 *3666:A 48.15 
*END

*D_NET *311 0.0373671
*CONN
*I *3694:A I *D sky130_fd_sc_hd__dlygate4sd3_1
*I *3818:X O *D sky130_fd_sc_hd__buf_4
*CAP
1 *3694:A 0
2 *3818:X 0.000294871
3 *311:14 0.0010018
4 *311:10 0.00533003
5 *311:8 0.00462311
6 *311:10 *313:12 0.0149575
7 *311:10 *314:10 0.00452899
8 *311:10 *356:14 3.16618e-05
9 *519:DIODE *311:10 0
10 *3818:A *311:8 0.000405665
11 *114:13 *311:10 0.0060628
12 *287:8 *311:10 0.000130649
*RES
1 *3818:X *311:8 43.8621 
2 *311:8 *311:10 199.458 
3 *311:10 *311:14 30.3907 
4 *311:14 *3694:A 23 
*END

*D_NET *312 0.0201615
*CONN
*I *3715:A I *D sky130_fd_sc_hd__dlygate4sd3_1
*I *488:DIODE I *D sky130_fd_sc_hd__diode_2
*I *3819:X O *D sky130_fd_sc_hd__buf_4
*CAP
1 *3715:A 2.44383e-05
2 *488:DIODE 0
3 *3819:X 0.000686773
4 *312:54 0.000505479
5 *312:46 0.00124732
6 *312:36 0.00127173
7 *312:26 0.00136283
8 *312:14 0.00154415
9 *3715:A *327:73 0.000143874
10 *3715:A *329:66 0.000131437
11 *312:14 *3607:B 1.21972e-05
12 *312:14 *3607:C 0.000221992
13 *312:14 *316:18 2.18286e-05
14 *312:14 *335:10 4.38084e-05
15 *312:14 *365:6 7.96283e-05
16 *312:14 *366:33 9.41704e-05
17 *312:14 *366:104 2.42898e-05
18 *312:26 *3628:A_N 6.56284e-05
19 *312:26 *3628:C 1.37747e-05
20 *312:26 *315:24 0.000129652
21 *312:26 *316:18 2.51653e-05
22 *312:26 *316:24 1.98354e-05
23 *312:26 *329:38 3.7473e-07
24 *312:26 *334:32 0.000246107
25 *312:26 *343:22 0.000111127
26 *312:26 *355:20 9.28078e-06
27 *312:26 *360:12 0.000988592
28 *312:26 *367:43 0.000286136
29 *312:26 *368:121 0.000114198
30 *312:26 *370:170 4.77164e-06
31 *312:36 *318:8 1.72202e-05
32 *312:36 *366:145 3.7877e-05
33 *312:36 *367:43 0.000192373
34 *312:36 *369:31 0.00118267
35 *312:36 *371:63 0
36 *312:46 *318:8 0.00250908
37 *312:46 *318:14 0.000221615
38 *312:46 *367:59 0.000210316
39 *312:46 *367:74 0.000100069
40 *312:46 *369:31 6.40359e-05
41 *312:46 *369:44 1.10658e-05
42 *312:46 *371:63 0.00133622
43 *312:54 *319:18 7.40726e-05
44 *312:54 *327:73 0.000142173
45 *312:54 *329:66 0.000142173
46 *3610:D *312:46 2.18286e-05
47 *3626:D *312:36 0.000122349
48 *3823:A *312:14 0.000297412
49 *61:11 *312:14 5.41288e-05
50 *113:43 *312:36 0.000112043
51 *135:27 *312:26 2.51653e-05
52 *141:15 *312:26 5.0744e-05
53 *142:51 *312:14 0.000514341
54 *144:46 *312:14 0.000195531
55 *145:6 *312:36 0.00014196
56 *145:16 *312:36 0.00166884
57 *187:14 *312:36 5.50106e-05
58 *192:14 *312:46 0.000612372
59 *192:20 *312:54 0
60 *278:18 *312:14 1.72202e-05
61 *300:12 *312:14 0.000601021
*RES
1 *3819:X *312:14 41.1043 
2 *312:14 *312:26 36.3011 
3 *312:26 *312:36 40.5821 
4 *312:36 *312:46 49.9346 
5 *312:46 *312:54 22.4468 
6 *312:54 *488:DIODE 23 
7 *312:54 *3715:A 24.5743 
*END

*D_NET *313 0.0325824
*CONN
*I *3700:A I *D sky130_fd_sc_hd__dlygate4sd3_1
*I *3820:X O *D sky130_fd_sc_hd__buf_4
*CAP
1 *3700:A 0
2 *3820:X 0.000224168
3 *313:16 0.000909138
4 *313:12 0.0080112
5 *313:10 0.00732623
6 *313:10 *314:6 8.97184e-05
7 *313:12 *314:10 0.000146245
8 *313:12 *356:14 0.00085504
9 *3699:A *313:10 6.17437e-06
10 *3820:A *313:10 5.70006e-05
11 *311:10 *313:12 0.0149575
*RES
1 *3820:X *313:10 42.4536 
2 *313:10 *313:12 202.275 
3 *313:12 *313:16 29.4379 
4 *313:16 *3700:A 23 
*END

*D_NET *314 0.0373075
*CONN
*I *3705:A I *D sky130_fd_sc_hd__dlygate4sd3_1
*I *3821:X O *D sky130_fd_sc_hd__buf_4
*CAP
1 *3705:A 0.000393526
2 *3821:X 0.000826849
3 *314:10 0.00522809
4 *314:8 0.00483457
5 *314:6 0.000826849
6 *477:DIODE *314:10 5.1455e-05
7 *3699:A *314:6 9.58714e-05
8 *3820:A *314:6 0.000100805
9 *114:13 *314:10 0.0060628
10 *137:13 *314:10 0.0129943
11 *137:17 *314:10 0.00102281
12 *141:11 *314:10 0.00010469
13 *286:10 *314:10 0
14 *311:10 *314:10 0.00452899
15 *313:10 *314:6 8.97184e-05
16 *313:12 *314:10 0.000146245
*RES
1 *3821:X *314:6 36.0086 
2 *314:6 *314:8 15 
3 *314:8 *314:10 208.966 
4 *314:10 *3705:A 43.8621 
*END

*D_NET *315 0.0226479
*CONN
*I *489:DIODE I *D sky130_fd_sc_hd__diode_2
*I *3744:A I *D sky130_fd_sc_hd__dlygate4sd3_1
*I *3822:X O *D sky130_fd_sc_hd__clkbuf_4
*CAP
1 *489:DIODE 3.29525e-05
2 *3744:A 2.01797e-05
3 *3822:X 0.000295506
4 *315:50 0.000229748
5 *315:42 0.000931181
6 *315:34 0.00412299
7 *315:32 0.00380227
8 *315:24 0.00126003
9 *315:10 0.0011217
10 *489:DIODE *327:73 0.000228909
11 *3744:A *327:73 9.84794e-05
12 *315:10 *316:18 2.06162e-05
13 *315:10 *329:38 2.29844e-05
14 *315:24 *3600:B 4.24694e-06
15 *315:24 *3638:A 4.36457e-05
16 *315:24 *316:18 0.000247158
17 *315:24 *316:24 0.000513236
18 *315:24 *317:26 3.56514e-06
19 *315:24 *329:46 0.000233705
20 *315:24 *334:20 0.000287273
21 *315:24 *334:32 1.84556e-05
22 *315:24 *335:22 8.78319e-07
23 *315:24 *368:121 4.31723e-05
24 *315:24 *370:127 1.34487e-05
25 *315:32 *327:63 0.00116334
26 *315:32 *370:170 1.01436e-05
27 *315:32 *371:29 2.87833e-05
28 *315:34 *328:18 0.00498272
29 *315:42 *329:66 0.000850574
30 *315:50 *318:14 0
31 *315:50 *329:80 1.42598e-05
32 *64:28 *315:10 1.13786e-05
33 *124:29 *315:32 4.30723e-05
34 *151:6 *489:DIODE 0.000216471
35 *151:6 *3744:A 9.84794e-05
36 *151:6 *315:42 7.84431e-05
37 *170:54 *315:32 0.00115977
38 *181:32 *315:10 0.000178235
39 *192:20 *315:42 8.62876e-05
40 *312:26 *315:24 0.000129652
*RES
1 *3822:X *315:10 42.1325 
2 *315:10 *315:24 39.9107 
3 *315:24 *315:32 45.2664 
4 *315:32 *315:34 54.9343 
5 *315:34 *315:42 42.5425 
6 *315:42 *315:50 32.1854 
7 *315:50 *3744:A 24.0979 
8 *315:50 *489:DIODE 25.5271 
*END

*D_NET *316 0.0152788
*CONN
*I *3724:A I *D sky130_fd_sc_hd__dlygate4sd3_1
*I *490:DIODE I *D sky130_fd_sc_hd__diode_2
*I *3823:X O *D sky130_fd_sc_hd__clkbuf_4
*CAP
1 *3724:A 6.60365e-05
2 *490:DIODE 0
3 *3823:X 0.000360671
4 *316:26 0.00415894
5 *316:24 0.00471981
6 *316:18 0.000987572
7 *3724:A *319:26 6.09235e-05
8 *316:18 *329:38 6.60265e-05
9 *316:18 *363:22 0.000116904
10 *316:24 *329:38 0.00030729
11 *316:26 *319:26 0.000425322
12 *316:26 *367:213 0.000279355
13 *3636:A *316:26 5.03716e-05
14 *3823:A *316:18 5.56279e-05
15 *64:28 *316:18 4.45778e-05
16 *114:17 *316:26 0.000200149
17 *140:23 *316:24 0
18 *140:38 *316:24 5.09512e-05
19 *141:15 *316:18 0.000116969
20 *142:37 *316:24 0
21 *146:14 *316:26 0.000107222
22 *157:14 *316:26 0.000333015
23 *192:28 *316:26 0.000147595
24 *300:24 *316:26 0.00177562
25 *312:14 *316:18 2.18286e-05
26 *312:26 *316:18 2.51653e-05
27 *312:26 *316:24 1.98354e-05
28 *315:10 *316:18 2.06162e-05
29 *315:24 *316:18 0.000247158
30 *315:24 *316:24 0.000513236
*RES
1 *3823:X *316:18 48.7529 
2 *316:18 *316:24 34.5896 
3 *316:24 *316:26 81.1379 
4 *316:26 *490:DIODE 23 
5 *316:26 *3724:A 24.595 
*END

*D_NET *317 0.0661984
*CONN
*I *392:DIODE I *D sky130_fd_sc_hd__diode_2
*I *3762:A I *D sky130_fd_sc_hd__dlygate4sd3_1
*I *391:DIODE I *D sky130_fd_sc_hd__diode_2
*I *3824:X O *D sky130_fd_sc_hd__buf_4
*CAP
1 *392:DIODE 6.88649e-05
2 *3762:A 0
3 *391:DIODE 0.000158935
4 *3824:X 0.000274336
5 *317:83 0.000434432
6 *317:68 0.00180388
7 *317:66 0.00201274
8 *317:56 0.0016351
9 *317:52 0.00183934
10 *317:44 0.00459492
11 *317:42 0.00531392
12 *317:32 0.00334926
13 *317:26 0.00452021
14 *317:18 0.00334173
15 *317:8 0.000788501
16 *317:18 *343:22 0.000123325
17 *317:26 *334:20 0
18 *317:26 *335:22 0.000596605
19 *317:26 *336:28 0.000553634
20 *317:26 *343:22 0
21 *317:26 *350:14 0.000125976
22 *317:26 *368:66 4.36559e-05
23 *317:32 *350:14 0.000101624
24 *317:32 *365:22 2.05503e-05
25 *317:42 *323:30 2.04508e-05
26 *317:42 *324:34 1.79749e-05
27 *317:42 *350:14 0.00104289
28 *317:42 *365:22 0.000269356
29 *317:44 *350:14 0.000234754
30 *317:44 *361:38 0.000229702
31 *317:56 *339:38 0.000233911
32 *317:66 *361:56 0.000147424
33 *317:68 *3757:A 0.000277745
34 *317:68 *361:56 0.00409741
35 *428:DIODE *317:44 5.50106e-05
36 *462:DIODE *317:52 4.15283e-05
37 *466:DIODE *317:52 5.56279e-05
38 *516:DIODE *317:44 5.67058e-05
39 *3772:A *317:18 0.000404502
40 *3781:DI[14] *317:66 5.65426e-05
41 *3781:DI[8] *392:DIODE 4.67488e-05
42 *3781:DI[8] *317:83 0.000193173
43 *3809:A *317:44 8.99655e-05
44 *57:9 *317:44 4.17736e-05
45 *85:8 *317:44 0.000703832
46 *89:8 *317:44 0.000186606
47 *103:11 *317:8 0
48 *110:12 *317:68 0.00459044
49 *110:12 *317:83 0.000269649
50 *111:14 *317:32 0.00247785
51 *113:55 *317:26 4.66681e-05
52 *133:23 *317:68 0.000324552
53 *133:23 *317:83 0.000269967
54 *133:27 *317:52 0.0004743
55 *134:26 *317:56 0.00021356
56 *134:28 *317:56 0.000213551
57 *134:30 *317:56 0.000205016
58 *134:32 *317:52 0
59 *134:32 *317:56 3.47781e-05
60 *134:34 *317:52 0
61 *134:38 *317:52 0
62 *134:40 *317:52 0
63 *134:46 *317:52 0
64 *148:28 *317:44 0.00441814
65 *148:38 *317:44 0.000284972
66 *173:16 *317:52 0.000273612
67 *177:42 *317:66 7.11824e-06
68 *181:14 *317:18 0.000169248
69 *181:32 *317:26 0.000385375
70 *187:14 *317:26 2.05503e-05
71 *192:6 *317:42 0.000120171
72 *203:6 *317:44 0.00373778
73 *235:8 *317:8 0
74 *240:10 *317:18 0.000125441
75 *244:44 *317:66 6.4794e-05
76 *244:46 *317:68 2.15604e-05
77 *245:8 *317:8 3.5664e-05
78 *258:52 *317:56 0.00107411
79 *258:56 *317:56 8.35638e-06
80 *259:56 *317:56 0.000124169
81 *259:58 *317:56 7.31043e-06
82 *281:18 *317:44 0.00048051
83 *284:10 *317:44 0.000733804
84 *292:22 *317:52 0.000143688
85 *296:8 *317:26 2.26497e-05
86 *301:22 *317:56 0.00173567
87 *301:30 *317:66 6.17437e-06
88 *303:6 *317:44 0.00159567
89 *303:38 *317:56 0.000554911
90 *304:22 *317:56 7.35591e-05
91 *305:12 *317:56 0.000274819
92 *306:8 *317:44 9.67842e-05
93 *306:10 *317:44 0.000262941
94 *306:22 *317:44 9.78729e-06
95 *315:24 *317:26 3.56514e-06
*RES
1 *3824:X *317:8 43.075 
2 *317:8 *317:18 49.4032 
3 *317:18 *317:26 29.7312 
4 *317:26 *317:32 42.6225 
5 *317:32 *317:42 35.8508 
6 *317:42 *317:44 105.912 
7 *317:44 *317:52 48.2907 
8 *317:52 *317:56 48.2464 
9 *317:56 *317:66 40.5229 
10 *317:66 *317:68 61.77 
11 *317:68 *391:DIODE 39.5743 
12 *317:68 *317:83 23.0993 
13 *317:83 *3762:A 23 
14 *317:83 *392:DIODE 24.0979 
*END

*D_NET *318 0.0158909
*CONN
*I *3713:A I *D sky130_fd_sc_hd__dlygate4sd3_1
*I *3825:X O *D sky130_fd_sc_hd__clkbuf_4
*CAP
1 *3713:A 8.11453e-05
2 *3825:X 0
3 *318:14 0.00191004
4 *318:8 0.00301472
5 *318:4 0.00118583
6 *3713:A *319:26 0.00045074
7 *318:8 *367:43 0.0001868
8 *318:8 *367:59 0.000210316
9 *318:14 *320:26 0
10 *318:14 *337:40 0
11 *318:14 *338:8 0.000532198
12 *318:14 *340:10 7.88828e-05
13 *318:14 *340:22 3.0647e-05
14 *318:14 *367:74 1.89561e-05
15 *318:14 *367:95 0.000137362
16 *318:14 *371:79 9.24795e-06
17 *3610:D *318:14 0.000284509
18 *113:43 *318:8 0.00300411
19 *145:6 *318:8 0.000130423
20 *145:16 *318:8 0.0016252
21 *170:72 *318:14 0
22 *192:28 *3713:A 0.000251876
23 *312:36 *318:8 1.72202e-05
24 *312:46 *318:8 0.00250908
25 *312:46 *318:14 0.000221615
26 *315:50 *318:14 0
*RES
1 *3825:X *318:4 23 
2 *318:4 *318:8 47.8086 
3 *318:8 *318:14 42.55 
4 *318:14 *3713:A 42.9093 
*END

*D_NET *319 0.0158993
*CONN
*I *3709:A I *D sky130_fd_sc_hd__dlygate4sd3_1
*I *3826:X O *D sky130_fd_sc_hd__clkbuf_4
*CAP
1 *3709:A 0
2 *3826:X 0.000450757
3 *319:26 0.000554042
4 *319:18 0.0024494
5 *319:6 0.00234611
6 *319:6 *322:10 5.25848e-05
7 *319:6 *361:14 0.00227452
8 *319:6 *363:22 0.000296709
9 *319:6 *367:49 0.000794198
10 *319:18 *367:49 2.31311e-05
11 *319:18 *367:59 0.00128955
12 *3713:A *319:26 0.00045074
13 *3724:A *319:26 6.09235e-05
14 *3827:A *319:6 0.00018536
15 *110:22 *319:18 0.000160184
16 *120:56 *319:18 0
17 *135:27 *319:18 0.00273059
18 *141:15 *319:6 0.000347036
19 *157:14 *319:26 0.000276536
20 *164:20 *319:18 1.58785e-05
21 *192:28 *319:26 0.00064167
22 *312:54 *319:18 7.40726e-05
23 *316:26 *319:26 0.000425322
*RES
1 *3826:X *319:6 47.9193 
2 *319:6 *319:18 47.7666 
3 *319:18 *319:26 34.3679 
4 *319:26 *3709:A 23 
*END

*D_NET *320 0.0148595
*CONN
*I *3707:A I *D sky130_fd_sc_hd__dlygate4sd3_1
*I *3827:X O *D sky130_fd_sc_hd__clkbuf_4
*CAP
1 *3707:A 0
2 *3827:X 0.000606448
3 *320:26 0.00067996
4 *320:14 0.00150224
5 *320:12 0.00142873
6 *320:12 *361:14 0.00195916
7 *320:12 *361:16 2.06822e-05
8 *320:12 *365:6 0.00162344
9 *320:14 *361:16 0.00114027
10 *320:26 *327:73 0.000361517
11 *320:26 *340:22 4.83982e-05
12 *320:26 *369:72 0
13 *395:DIODE *320:26 0
14 *113:31 *320:14 0.00316308
15 *120:52 *320:14 0.0014444
16 *122:27 *320:26 0
17 *135:27 *320:12 0.0002003
18 *135:27 *320:14 0.000316987
19 *151:6 *320:26 0.000363838
20 *318:14 *320:26 0
*RES
1 *3827:X *320:12 46.6764 
2 *320:12 *320:14 38.7357 
3 *320:14 *320:26 43.0914 
4 *320:26 *3707:A 23 
*END

*D_NET *321 0.0171055
*CONN
*I *3698:A I *D sky130_fd_sc_hd__dlygate4sd3_1
*I *3828:X O *D sky130_fd_sc_hd__clkbuf_4
*CAP
1 *3698:A 0
2 *3828:X 0
3 *321:26 0.00152777
4 *321:20 0.00311369
5 *321:16 0.0040938
6 *321:4 0.00250788
7 *321:16 *332:30 2.80512e-05
8 *321:16 *333:34 0.000725841
9 *321:16 *336:34 0.000110451
10 *321:20 *336:34 9.74855e-05
11 *321:26 *322:26 0
12 *321:26 *328:26 3.34859e-05
13 *396:DIODE *321:26 4.55634e-05
14 *493:DIODE *321:16 4.34745e-05
15 *41:13 *321:16 0.00122021
16 *43:11 *321:16 0.000222141
17 *117:69 *321:16 0.00113624
18 *122:27 *321:26 0
19 *123:27 *321:26 0.000128519
20 *184:10 *321:26 2.93845e-05
21 *192:28 *321:26 0.000182832
22 *225:6 *321:20 0.00185866
23 *272:8 *321:26 0
*RES
1 *3828:X *321:4 23 
2 *321:4 *321:16 41.5736 
3 *321:16 *321:20 39.9193 
4 *321:20 *321:26 37.62 
5 *321:26 *3698:A 23 
*END

*D_NET *322 0.0161069
*CONN
*I *386:DIODE I *D sky130_fd_sc_hd__diode_2
*I *3687:A I *D sky130_fd_sc_hd__dlygate4sd3_1
*I *3829:X O *D sky130_fd_sc_hd__clkbuf_4
*CAP
1 *386:DIODE 6.11545e-05
2 *3687:A 0
3 *3829:X 0.00096201
4 *322:26 0.00132702
5 *322:20 0.00165867
6 *322:16 0.000545032
7 *322:10 0.00111424
8 *322:10 *361:14 3.47781e-05
9 *322:10 *361:16 0.00200704
10 *322:16 *324:34 0
11 *322:20 *350:14 0.000300439
12 *322:26 *341:10 0.000107218
13 *322:26 *369:97 2.11157e-05
14 *322:26 *371:94 3.32226e-05
15 *396:DIODE *322:26 1.34354e-05
16 *119:33 *322:26 0.000103653
17 *123:27 *322:26 8.94232e-05
18 *148:18 *322:10 0.00111603
19 *148:24 *322:16 0
20 *184:10 *386:DIODE 0.000205081
21 *184:10 *322:26 0.000229795
22 *192:28 *386:DIODE 0.000354836
23 *192:28 *322:26 0.000433866
24 *241:18 *322:26 5.08422e-06
25 *258:18 *322:10 0.000173494
26 *258:20 *322:20 0.00257715
27 *306:10 *322:20 0.00258054
28 *319:6 *322:10 5.25848e-05
29 *321:26 *322:26 0
*RES
1 *3829:X *322:10 48.5614 
2 *322:10 *322:16 31.9057 
3 *322:16 *322:20 43.2543 
4 *322:20 *322:26 33.4357 
5 *322:26 *3687:A 23 
6 *322:26 *386:DIODE 26.9564 
*END

*D_NET *323 0.020052
*CONN
*I *3769:A I *D sky130_fd_sc_hd__buf_12
*I *3830:X O *D sky130_fd_sc_hd__buf_12
*CAP
1 *3769:A 0
2 *3830:X 9.47469e-05
3 *323:30 0.00106844
4 *323:24 0.00149811
5 *323:16 0.00136822
6 *323:14 0.00238699
7 *323:10 0.00144845
8 *323:8 9.47469e-05
9 *323:14 *325:16 6.12661e-05
10 *323:14 *325:24 6.58415e-06
11 *323:14 *343:22 2.93335e-05
12 *323:16 *324:24 0.00221981
13 *323:16 *325:24 0.000149895
14 *323:24 *336:34 0.000737798
15 *323:30 *324:34 0
16 wbs_dat_o[11] *323:24 0.000219859
17 wbs_dat_o[5] *323:16 2.32101e-05
18 wbs_dat_o[7] *323:16 9.6103e-05
19 wbs_dat_o[8] *323:16 0.000114856
20 *498:DIODE *323:14 5.68958e-05
21 *524:DIODE *323:16 3.0538e-05
22 *526:DIODE *323:14 6.70361e-05
23 *3679:A *323:16 0.000840907
24 *3684:A *323:14 6.7063e-05
25 *3701:A *323:30 6.6599e-05
26 *3775:A *323:8 0
27 *7:21 *323:16 6.90217e-05
28 *32:24 *323:14 0.000105492
29 *36:9 *323:16 9.17484e-05
30 *41:13 *323:24 0.000321926
31 *67:17 *323:14 0.000300546
32 *67:17 *323:16 0.000248038
33 *102:6 *323:16 0.000211662
34 *105:13 *323:14 0.000246381
35 *111:12 *323:30 0
36 *115:57 *323:14 7.80462e-05
37 *115:57 *323:16 0.000191266
38 *117:59 *323:16 0.0012419
39 *117:83 *323:14 0.00187323
40 *147:30 *323:8 0.000168754
41 *164:8 *323:30 7.71219e-06
42 *250:14 *323:14 0.00103339
43 *252:8 *323:14 0.000152828
44 *257:14 *323:30 3.92922e-05
45 *264:10 *323:14 9.75779e-05
46 *290:10 *323:16 0.000526998
47 *293:14 *323:16 0.000278334
48 *317:42 *323:30 2.04508e-05
*RES
1 *3830:X *323:8 40.2579 
2 *323:8 *323:10 15 
3 *323:10 *323:14 38.9946 
4 *323:14 *323:16 42.3089 
5 *323:16 *323:24 41.2064 
6 *323:24 *323:30 43.8786 
7 *323:30 *3769:A 23 
*END

*D_NET *324 0.0223526
*CONN
*I *3766:A I *D sky130_fd_sc_hd__buf_12
*I *3831:X O *D sky130_fd_sc_hd__buf_12
*CAP
1 *3766:A 0.000181184
2 *3831:X 0.00196668
3 *324:34 0.00106948
4 *324:28 0.00270227
5 *324:24 0.00251015
6 *324:18 0.00104297
7 *324:10 0.00231347
8 *3766:A *337:32 0.000184029
9 *3766:A *337:40 0.000110875
10 *324:10 *331:26 4.7312e-05
11 *324:10 *355:20 0.000243146
12 *324:10 *359:14 0.000135037
13 *324:18 *336:32 0.000532395
14 *324:18 *362:24 0.000615198
15 *324:24 *332:30 9.2018e-06
16 *324:24 *333:34 0
17 *324:28 *339:16 0.0021742
18 *324:28 *339:18 4.33069e-05
19 wbs_dat_o[4] *324:10 3.65917e-05
20 wbs_dat_o[6] *324:18 0
21 *523:DIODE *324:24 0
22 *529:DIODE *324:10 0.000219836
23 *3798:A *324:28 3.07986e-05
24 *31:9 *324:10 0.000141165
25 *34:5 *324:18 6.18306e-05
26 *115:57 *324:24 0.00221578
27 *115:69 *324:10 4.95073e-05
28 *117:79 *324:10 9.03964e-06
29 *119:41 *3766:A 2.24654e-05
30 *120:56 *324:34 0
31 *164:20 *3766:A 0.000703054
32 *170:34 *324:10 0.000174674
33 *183:8 *324:18 9.28078e-06
34 *192:20 *324:34 0.000170638
35 *213:8 *324:24 3.062e-05
36 *244:14 *3766:A 0.00035868
37 *317:42 *324:34 1.79749e-05
38 *322:16 *324:34 0
39 *323:16 *324:24 0.00221981
40 *323:30 *324:34 0
*RES
1 *3831:X *324:10 48.4371 
2 *324:10 *324:18 39.7771 
3 *324:18 *324:24 43.8136 
4 *324:24 *324:28 41.3486 
5 *324:28 *324:34 42.1179 
6 *324:34 *3766:A 31.2443 
*END

*D_NET *325 0.0613123
*CONN
*I *3773:A I *D sky130_fd_sc_hd__buf_12
*I *3832:X O *D sky130_fd_sc_hd__buf_12
*CAP
1 *3773:A 5.145e-05
2 *3832:X 0.00088201
3 *325:70 0.00269109
4 *325:68 0.00402471
5 *325:60 0.00207436
6 *325:52 0.00299726
7 *325:48 0.00237218
8 *325:42 0.00326442
9 *325:40 0.00326683
10 *325:34 0.00105218
11 *325:26 0.00365778
12 *325:24 0.00377789
13 *325:16 0.00198768
14 *325:26 *334:46 0.0011149
15 *325:26 *364:34 0.00108778
16 *325:34 *334:54 8.4047e-05
17 *325:52 *326:14 0.000101071
18 *325:52 *347:24 0.000347877
19 *325:68 *3860:A 0
20 *325:68 *327:77 2.07944e-05
21 *325:68 *329:90 0.000167113
22 *325:68 *352:14 7.42465e-05
23 *325:70 *326:24 0.00143802
24 wbs_dat_o[12] *325:34 0.000527358
25 wbs_dat_o[14] *325:40 4.08537e-05
26 wbs_dat_o[19] *325:52 0.000142173
27 wbs_dat_o[20] *325:48 1.85903e-05
28 wbs_dat_o[26] *325:68 0
29 wbs_dat_o[5] *325:24 0.000484551
30 *434:DIODE *325:52 2.30292e-05
31 *498:DIODE *325:24 5.68958e-05
32 *501:DIODE *325:52 0.000156821
33 *526:DIODE *325:16 1.24376e-05
34 *526:DIODE *325:24 6.08617e-05
35 *3645:A *325:34 8.99287e-05
36 *3668:A *325:68 0.000251623
37 *3684:A *325:16 0.000240318
38 *3732:A *325:52 0.000253053
39 *3:17 *325:68 7.21753e-05
40 *3:17 *325:70 0.00836231
41 *7:13 *325:26 0.000608057
42 *32:24 *325:16 0.000295601
43 *35:9 *325:24 8.4047e-05
44 *51:9 *325:48 3.76854e-05
45 *51:9 *325:52 0.00014679
46 *56:9 *325:60 0.000108681
47 *58:5 *325:68 0.000112303
48 *67:17 *325:24 0.000134768
49 *75:8 *325:34 0.000749712
50 *86:12 *325:60 0.000999051
51 *110:12 *325:70 0.0080737
52 *115:39 *325:52 3.34129e-05
53 *117:57 *325:52 8.54938e-05
54 *227:10 *325:68 9.61071e-05
55 *229:10 *325:68 0.000120611
56 *244:38 *325:68 0.00027718
57 *244:38 *325:70 6.5534e-05
58 *250:14 *325:16 9.63031e-05
59 *254:8 *325:40 1.01436e-05
60 *267:8 *325:52 0.000575797
61 *276:10 *325:52 4.21158e-05
62 *276:18 *325:60 4.587e-05
63 *279:8 *325:68 0.00035613
64 *295:8 *325:16 0.000345263
65 *297:12 *325:16 0.000265521
66 *308:12 *325:68 0
67 *323:14 *325:16 6.12661e-05
68 *323:14 *325:24 6.58415e-06
69 *323:16 *325:24 0.000149895
*RES
1 *3832:X *325:16 38.7429 
2 *325:16 *325:24 46.5921 
3 *325:24 *325:26 41.1179 
4 *325:26 *325:34 46.1157 
5 *325:34 *325:40 31.2014 
6 *325:40 *325:42 40.6414 
7 *325:42 *325:48 31.2014 
8 *325:48 *325:52 49.4479 
9 *325:52 *325:60 45.9914 
10 *325:60 *325:68 25.5511 
11 *325:68 *325:70 111.95 
12 *325:70 *3773:A 38.6214 
*END

*D_NET *326 0.0687959
*CONN
*I *3776:A I *D sky130_fd_sc_hd__buf_12
*I *3833:X O *D sky130_fd_sc_hd__buf_12
*CAP
1 *3776:A 0
2 *3833:X 5.98317e-06
3 *326:24 0.00909215
4 *326:14 0.0253553
5 *326:10 0.0162691
6 *326:10 *334:44 2.5343e-05
7 *326:24 *339:38 0
8 *326:24 *350:24 0.000180685
9 *326:24 *380:16 0.0107312
10 *326:24 *381:16 5.04237e-05
11 wbs_dat_o[4] *326:10 2.33476e-05
12 *3679:A *326:14 0.000170252
13 *3:17 *326:24 0.00135334
14 *110:12 *326:24 0.00153972
15 *115:57 *326:14 0.0001084
16 *117:59 *326:14 0.000229759
17 *159:22 *326:14 0.00137337
18 *190:14 *326:24 0.000244542
19 *195:22 *326:24 0.000376864
20 *234:10 *326:24 0.00012705
21 *325:52 *326:14 0.000101071
22 *325:70 *326:24 0.00143802
*RES
1 *3833:X *326:10 46.3211 
2 *326:10 *326:14 37.5512 
3 *326:14 *326:24 49.196 
4 *326:24 *3776:A 38 
*END

*D_NET *327 0.0516299
*CONN
*I *3625:C I *D sky130_fd_sc_hd__and4b_1
*I *3624:C I *D sky130_fd_sc_hd__and4b_1
*I *3622:C I *D sky130_fd_sc_hd__and4b_1
*I *3623:C I *D sky130_fd_sc_hd__and4b_1
*I *3640:A I *D sky130_fd_sc_hd__clkbuf_4
*I *3834:X O *D sky130_fd_sc_hd__buf_2
*CAP
1 *3625:C 0.000156077
2 *3624:C 6.2531e-05
3 *3622:C 3.58556e-05
4 *3623:C 0.000450583
5 *3640:A 0
6 *3834:X 9.46663e-05
7 *327:126 0.000562871
8 *327:105 0.0013576
9 *327:83 0.000540834
10 *327:77 0.00101556
11 *327:73 0.00250569
12 *327:71 0.00313529
13 *327:63 0.00175969
14 *327:57 0.00165219
15 *327:38 0.00147945
16 *327:20 0.0025221
17 *327:16 0.00202847
18 *327:8 0.000485501
19 *3622:C *329:103 9.41704e-05
20 *3623:C *329:103 5.90675e-06
21 *3624:C *3625:A_N 5.52998e-05
22 *3624:C *353:14 3.64246e-05
23 *3625:C *3625:A_N 0.000166981
24 *3625:C *356:8 0.000481192
25 *327:38 *329:22 0
26 *327:38 *368:10 4.47036e-05
27 *327:38 *368:14 9.23705e-06
28 *327:57 *3641:A 0.000269781
29 *327:57 *367:18 0.000154942
30 *327:57 *371:29 0.000270343
31 *327:63 *3638:A 0.000223692
32 *327:63 *337:22 0.00182133
33 *327:63 *367:31 2.07312e-05
34 *327:71 *329:66 0.000255699
35 *327:71 *337:22 0.00125875
36 *327:73 *329:66 0.00088416
37 *327:73 *329:80 0.000130115
38 *327:77 *329:90 0.000102638
39 *327:83 *329:90 6.38845e-05
40 *327:83 *329:103 5.3304e-05
41 *327:105 *3625:A_N 9.38112e-06
42 *327:105 *329:103 0.000233496
43 *327:105 *353:8 0.000876841
44 wbs_dat_o[0] *327:20 0.000138103
45 *436:DIODE *327:20 0.000101226
46 *447:DIODE *327:38 0.00051743
47 *489:DIODE *327:73 0.000228909
48 *3604:D *327:57 2.05503e-05
49 *3607:D *327:38 0
50 *3625:B *3625:C 4.08036e-05
51 *3688:A *327:16 5.53064e-05
52 *3702:A *327:73 0.000296057
53 *3715:A *327:73 0.000143874
54 *3744:A *327:73 9.84794e-05
55 *3775:A *327:20 3.74878e-05
56 *3832:A *327:38 0.000159708
57 *3:17 *327:77 0.000164282
58 *3:17 *327:83 5.94125e-05
59 *31:17 *327:20 9.11362e-05
60 *39:9 *327:16 0.000104463
61 *39:9 *327:20 7.58643e-05
62 *39:22 *327:20 1.52719e-05
63 *107:7 *327:8 2.21623e-05
64 *109:14 *327:20 5.82449e-05
65 *111:8 *327:73 9.84851e-05
66 *114:17 *327:57 0
67 *115:73 *327:20 0.000255452
68 *116:23 *327:38 4.9075e-05
69 *116:23 *327:57 6.12496e-06
70 *116:27 *327:38 7.44729e-05
71 *121:22 *327:126 0
72 *144:25 *327:38 0.00031988
73 *144:31 *327:38 0.00039754
74 *151:6 *327:73 0.000778888
75 *151:24 *327:73 0.00152477
76 *170:20 *327:16 0.00038197
77 *170:52 *327:57 0.000312461
78 *170:54 *327:63 0.000846598
79 *170:54 *327:71 0.00228337
80 *170:64 *327:71 0.000369769
81 *170:72 *327:71 0.000191723
82 *170:72 *327:73 0.00109999
83 *170:82 *327:73 0.00513512
84 *170:92 *3622:C 2.86326e-05
85 *170:92 *3623:C 0.000478099
86 *170:99 *3623:C 4.39281e-05
87 *182:8 *327:73 0.00306852
88 *182:26 *327:73 0.000200294
89 *219:12 *327:73 0.000721194
90 *219:28 *327:73 0.000732418
91 *219:46 *327:73 0.000186115
92 *246:12 *327:38 1.52314e-05
93 *285:10 *327:8 7.89973e-05
94 *299:12 *327:16 0.000182963
95 *307:10 *3624:C 6.15719e-05
96 *307:10 *327:126 8.29264e-05
97 *309:10 *327:126 0.000138718
98 *312:54 *327:73 0.000142173
99 *315:32 *327:63 0.00116334
100 *320:26 *327:73 0.000361517
101 *325:68 *327:77 2.07944e-05
*RES
1 *3834:X *327:8 39.5536 
2 *327:8 *327:16 37.8921 
3 *327:16 *327:20 36.1079 
4 *327:20 *327:38 48.415 
5 *327:38 *3640:A 23 
6 *327:38 *327:57 35.9038 
7 *327:57 *327:63 48.7539 
8 *327:63 *327:71 32.4904 
9 *327:71 *327:73 108.771 
10 *327:73 *327:77 17.2579 
11 *327:77 *327:83 16.4707 
12 *327:83 *3623:C 30.0636 
13 *327:83 *3622:C 24.0979 
14 *327:77 *327:105 43.0086 
15 *327:105 *3624:C 39.4707 
16 *327:105 *327:126 35.6343 
17 *327:126 *3625:C 43.3857 
*END

*D_NET *328 0.0621375
*CONN
*I *3764:A I *D sky130_fd_sc_hd__dlygate4sd3_1
*I *487:DIODE I *D sky130_fd_sc_hd__diode_2
*I *3835:X O *D sky130_fd_sc_hd__buf_4
*CAP
1 *3764:A 0
2 *487:DIODE 0
3 *3835:X 0.00102997
4 *328:67 0.000436512
5 *328:52 0.000436512
6 *328:50 0.00196712
7 *328:48 0.0027255
8 *328:44 0.00141567
9 *328:40 0.00236243
10 *328:36 0.00248257
11 *328:26 0.00246134
12 *328:18 0.00305326
13 *328:16 0.00185659
14 *328:12 0.00151721
15 *328:12 *3609:B 8.06804e-06
16 *328:12 *3609:C 5.47875e-05
17 *328:12 *332:10 0.000566592
18 *328:12 *337:6 0.00110921
19 *328:12 *366:6 4.54064e-05
20 *328:12 *368:10 5.3304e-05
21 *328:12 *368:41 0.000332159
22 *328:12 *369:22 9.37559e-06
23 *328:16 *332:10 2.4754e-05
24 *328:16 *369:22 2.02872e-05
25 *328:16 *370:127 0.000562085
26 *328:16 *370:142 0.000171188
27 *328:18 *3630:A_N 8.78112e-05
28 *328:18 *337:32 0.000987988
29 *328:18 *368:166 0.00021677
30 *328:18 *370:142 0.000138607
31 *328:18 *370:170 0.000206946
32 *328:18 *371:41 6.22878e-06
33 *328:26 *337:32 2.86356e-05
34 *328:26 *337:40 0.00110085
35 *328:36 *329:80 0.00159803
36 *328:40 *329:84 0.00251872
37 *328:50 *380:16 0.00123565
38 *431:DIODE *328:44 9.96021e-06
39 *481:DIODE *328:16 9.17998e-05
40 *3630:D *328:18 1.36027e-05
41 *3835:A *328:12 5.52998e-05
42 *3:17 *328:50 0.00672611
43 *119:21 *328:44 0
44 *119:47 *328:18 0.000460358
45 *123:27 *328:26 6.97776e-05
46 *123:27 *328:48 0.000100139
47 *126:27 *328:36 2.05503e-05
48 *130:59 *328:44 6.35135e-05
49 *130:61 *328:44 4.41683e-05
50 *131:19 *328:48 0.000337899
51 *140:23 *328:16 4.79641e-05
52 *145:63 *328:48 0.00250984
53 *153:16 *328:44 6.91886e-05
54 *157:14 *328:36 2.66846e-05
55 *177:8 *328:36 2.26497e-05
56 *181:52 *328:18 0.00136441
57 *182:20 *328:40 0.000130187
58 *199:12 *328:48 0.00184452
59 *219:50 *328:67 0.000260827
60 *226:10 *328:67 0.000258586
61 *234:8 *328:67 2.92911e-06
62 *241:8 *328:26 0.00127029
63 *241:18 *328:36 0.00172742
64 *244:14 *328:26 9.38112e-06
65 *292:22 *328:50 0.00673652
66 *292:30 *328:67 1.85916e-05
67 *315:34 *328:18 0.00498272
68 *321:26 *328:26 3.34859e-05
*RES
1 *3835:X *328:12 46.4279 
2 *328:12 *328:16 10.6471 
3 *328:16 *328:18 59.6986 
4 *328:18 *328:26 43.3475 
5 *328:26 *328:36 34.8117 
6 *328:36 *328:40 42.7779 
7 *328:40 *328:44 24.3007 
8 *328:44 *328:48 43.2543 
9 *328:48 *328:50 89.5893 
10 *328:50 *328:52 15 
11 *328:52 *487:DIODE 23 
12 *328:52 *328:67 37.2914 
13 *328:67 *3764:A 23 
*END

*D_NET *329 0.052516
*CONN
*I *3638:A I *D sky130_fd_sc_hd__buf_4
*I *3625:A_N I *D sky130_fd_sc_hd__and4b_1
*I *3624:A_N I *D sky130_fd_sc_hd__and4b_1
*I *3623:A_N I *D sky130_fd_sc_hd__and4b_1
*I *3622:A_N I *D sky130_fd_sc_hd__and4b_1
*I *3836:X O *D sky130_fd_sc_hd__buf_2
*CAP
1 *3638:A 9.50737e-05
2 *3625:A_N 0.000282137
3 *3624:A_N 0
4 *3623:A_N 0
5 *3622:A_N 0
6 *3836:X 0.000941407
7 *329:114 0.000489494
8 *329:103 0.000428052
9 *329:90 0.00030987
10 *329:84 0.00171163
11 *329:82 0.00162245
12 *329:80 0.0018682
13 *329:66 0.00329974
14 *329:60 0.00339063
15 *329:56 0.00262153
16 *329:46 0.00105235
17 *329:38 0.00105355
18 *329:22 0.00124978
19 *329:10 0.00143247
20 *3625:A_N *353:8 5.22448e-05
21 *3625:A_N *356:8 1.30933e-05
22 *3638:A *337:18 8.34283e-06
23 *329:22 *339:12 9.78729e-06
24 *329:38 *3867:A 0
25 *329:38 *334:32 6.67674e-05
26 *329:38 *335:22 0.000160084
27 *329:38 *355:20 5.62496e-05
28 *329:38 *363:22 0.000297631
29 *329:46 *332:10 6.56284e-05
30 *329:46 *337:18 2.96858e-05
31 *329:46 *369:22 0.000135037
32 *329:46 *370:127 2.23143e-05
33 *329:56 *332:20 0.000941467
34 *329:56 *337:18 0.000912534
35 *329:56 *367:31 1.00084e-05
36 *329:56 *371:29 0.000118869
37 *329:60 *332:24 0.00257139
38 *329:103 *353:8 0.000144501
39 *329:114 *353:8 0.000607274
40 *390:DIODE *329:38 6.77278e-05
41 *531:DIODE *329:10 0.000140094
42 *3622:C *329:103 9.41704e-05
43 *3622:D *329:103 1.16872e-05
44 *3623:C *329:103 5.90675e-06
45 *3623:D *329:114 0.00015227
46 *3624:C *3625:A_N 5.52998e-05
47 *3624:D *3625:A_N 1.29023e-05
48 *3625:B *3625:A_N 0.000506605
49 *3625:C *3625:A_N 0.000166981
50 *3715:A *329:66 0.000131437
51 *3750:A *329:22 2.46906e-05
52 *3837:A *329:22 0.000274942
53 *31:17 *329:22 0.000733281
54 *61:11 *329:22 0.000175666
55 *64:28 *329:38 0.000224013
56 *109:14 *329:22 0.000432322
57 *111:8 *329:66 9.84851e-05
58 *119:57 *329:56 5.01076e-05
59 *124:65 *329:38 1.01027e-05
60 *140:38 *329:38 0.000146605
61 *142:37 *329:46 0
62 *144:31 *329:22 0.000479335
63 *144:46 *329:22 8.60475e-05
64 *151:6 *329:66 5.67058e-05
65 *157:14 *329:80 8.13582e-05
66 *170:20 *329:10 7.57176e-05
67 *170:34 *329:10 0.000579638
68 *170:54 *3638:A 0.000223692
69 *170:54 *329:60 0.000200834
70 *170:54 *329:66 0.000975914
71 *170:80 *329:80 0.00286652
72 *170:82 *329:84 0.00505338
73 *170:92 *329:103 0.000112874
74 *170:92 *329:114 3.88841e-05
75 *170:99 *3625:A_N 0.000128727
76 *170:99 *329:114 0.000276521
77 *181:32 *329:38 0.000160585
78 *182:20 *329:84 0.000112764
79 *198:8 *329:38 1.75427e-05
80 *219:36 *329:84 0.00118734
81 *233:10 *329:38 6.89053e-05
82 *299:12 *329:10 0.000224893
83 *312:26 *329:38 3.7473e-07
84 *312:54 *329:66 0.000142173
85 *315:10 *329:38 2.29844e-05
86 *315:24 *3638:A 4.36457e-05
87 *315:24 *329:46 0.000233705
88 *315:42 *329:66 0.000850574
89 *315:50 *329:80 1.42598e-05
90 *316:18 *329:38 6.60265e-05
91 *316:24 *329:38 0.00030729
92 *325:68 *329:90 0.000167113
93 *327:38 *329:22 0
94 *327:63 *3638:A 0.000223692
95 *327:71 *329:66 0.000255699
96 *327:73 *329:66 0.00088416
97 *327:73 *329:80 0.000130115
98 *327:77 *329:90 0.000102638
99 *327:83 *329:90 6.38845e-05
100 *327:83 *329:103 5.3304e-05
101 *327:105 *3625:A_N 9.38112e-06
102 *327:105 *329:103 0.000233496
103 *328:36 *329:80 0.00159803
104 *328:40 *329:84 0.00251872
*RES
1 *3836:X *329:10 39.0329 
2 *329:10 *329:22 45.3079 
3 *329:22 *329:38 42.7452 
4 *329:38 *329:46 35.0646 
5 *329:46 *329:56 33.79 
6 *329:56 *329:60 32.8011 
7 *329:60 *329:66 36.2811 
8 *329:66 *329:80 38.0491 
9 *329:80 *329:82 15 
10 *329:82 *329:84 56.3636 
11 *329:84 *329:90 32.2579 
12 *329:90 *3622:A_N 23 
13 *329:90 *329:103 6.04857 
14 *329:103 *3623:A_N 23 
15 *329:103 *329:114 7.93357 
16 *329:114 *3624:A_N 23 
17 *329:114 *3625:A_N 31.4307 
18 *329:46 *3638:A 41.2004 
*END

*D_NET *330 0.00842525
*CONN
*I *3841:A I *D sky130_fd_sc_hd__buf_12
*I *3632:Q O *D sky130_fd_sc_hd__dfrtp_1
*CAP
1 *3841:A 0
2 *3632:Q 0.000530147
3 *330:28 0.000113653
4 *330:22 0.0017181
5 *330:16 0.0017377
6 *330:12 0.000663403
7 *330:12 *333:12 1.24376e-05
8 *330:12 *333:22 8.48502e-06
9 *330:12 *335:28 0
10 *330:12 *355:20 0.000363969
11 *330:16 *335:28 7.04503e-05
12 *507:DIODE *330:12 5.3304e-05
13 *3632:RESET_B *330:12 0.000156369
14 *3686:A *330:28 1.62015e-05
15 *3758:A *330:12 0
16 *28:13 *330:22 0
17 *28:17 *330:28 2.54046e-05
18 *32:7 *330:16 0.000161121
19 *33:13 *330:22 0.0001396
20 *106:9 *330:22 0.00142309
21 *106:17 *330:22 0.00113725
22 *147:24 *330:22 9.45591e-05
*RES
1 *3632:Q *330:12 47.3111 
2 *330:12 *330:16 18.1382 
3 *330:16 *330:22 40.2064 
4 *330:22 *330:28 31.9057 
5 *330:28 *3841:A 23 
*END

*D_NET *331 0.00977536
*CONN
*I *3842:A I *D sky130_fd_sc_hd__buf_12
*I *3626:X O *D sky130_fd_sc_hd__and4b_1
*CAP
1 *3842:A 0
2 *3626:X 0.00062852
3 *331:32 0.000199277
4 *331:26 0.00117915
5 *331:22 0.00194998
6 *331:14 0.00159863
7 *331:14 *3628:B 5.39408e-05
8 *331:14 *359:14 0.000190835
9 *331:14 *360:18 0
10 *331:14 *362:20 7.81607e-05
11 *331:14 *363:22 2.26497e-05
12 *331:22 *339:12 0.00102387
13 *331:26 *355:20 0.00010299
14 wbs_dat_o[2] *331:26 0.000136743
15 wbs_dat_o[3] *331:26 0.000140313
16 *529:DIODE *331:26 3.84918e-05
17 *3750:A *331:22 6.63944e-05
18 *3758:A *331:22 0.000176725
19 *3761:A *331:32 0
20 *31:9 *331:26 5.47927e-05
21 *64:28 *331:22 9.28078e-06
22 *111:20 *331:14 2.81325e-05
23 *113:55 *331:14 0
24 *115:69 *331:26 0.000818616
25 *124:29 *331:14 0.000118801
26 *124:44 *331:14 0.000127002
27 *145:24 *331:14 0
28 *147:30 *331:32 0.000100956
29 *170:34 *331:26 0.000883795
30 *224:18 *331:14 0
31 *324:10 *331:26 4.7312e-05
*RES
1 *3626:X *331:14 48.8129 
2 *331:14 *331:22 44.1893 
3 *331:22 *331:26 38.0136 
4 *331:26 *331:32 33.3143 
5 *331:32 *3842:A 23 
*END

*D_NET *332 0.0153678
*CONN
*I *3843:A I *D sky130_fd_sc_hd__buf_12
*I *3604:X O *D sky130_fd_sc_hd__and4b_1
*CAP
1 *3843:A 0
2 *3604:X 0.000521643
3 *332:30 0.00143873
4 *332:24 0.00187765
5 *332:20 0.000886646
6 *332:10 0.00096937
7 *332:10 *337:18 2.7752e-05
8 *332:20 *337:18 2.17681e-05
9 *332:20 *367:31 7.57281e-06
10 *332:20 *368:155 4.30894e-05
11 *332:24 *367:31 9.77405e-05
12 *332:30 *333:34 0.000120026
13 *332:30 *336:34 0.000863463
14 *332:30 *365:22 0
15 *332:30 *367:213 0
16 *332:30 *369:37 6.33258e-05
17 *332:30 *371:52 2.4917e-05
18 wbs_dat_o[10] *332:30 5.3304e-05
19 *70:17 *332:30 0.000135037
20 *117:69 *332:30 0.000193412
21 *119:57 *332:20 0.000986462
22 *145:57 *332:30 0
23 *170:54 *332:24 0.00270113
24 *213:8 *332:30 0.000127656
25 *321:16 *332:30 2.80512e-05
26 *324:24 *332:30 9.2018e-06
27 *328:12 *332:10 0.000566592
28 *328:16 *332:10 2.4754e-05
29 *329:46 *332:10 6.56284e-05
30 *329:56 *332:20 0.000941467
31 *329:60 *332:24 0.00257139
*RES
1 *3604:X *332:10 45.8404 
2 *332:10 *332:20 33.6183 
3 *332:20 *332:24 44.6836 
4 *332:24 *332:30 41.0171 
5 *332:30 *3843:A 23 
*END

*D_NET *333 0.0145805
*CONN
*I *3844:A I *D sky130_fd_sc_hd__buf_12
*I *3605:X O *D sky130_fd_sc_hd__and4b_1
*CAP
1 *3844:A 0
2 *3605:X 0.000521312
3 *333:34 0.000706637
4 *333:22 0.00300712
5 *333:12 0.0028218
6 *333:12 *335:22 0.000435837
7 *333:12 *364:18 0.00019321
8 *333:12 *370:56 0.000137651
9 *333:22 *350:14 0.000130115
10 *333:34 *336:34 0.000464933
11 *333:34 *365:22 0.000160707
12 wbs_dat_o[10] *333:34 0.000264564
13 wbs_dat_o[11] *333:34 0.000100069
14 *507:DIODE *333:12 2.02872e-05
15 *3632:RESET_B *333:22 0.000130128
16 *41:13 *333:34 0.00011925
17 *70:17 *333:34 0.000153404
18 *111:14 *333:22 0.0013279
19 *117:69 *333:34 4.2812e-06
20 *145:24 *333:22 8.80542e-05
21 *145:28 *333:22 0.000171051
22 *148:10 *333:22 0.000697379
23 *161:8 *333:34 0.000134374
24 *181:32 *333:12 0.000154967
25 *181:42 *333:22 0.00155849
26 *218:6 *333:12 2.18506e-05
27 *233:10 *333:12 5.3304e-05
28 *261:8 *333:34 0.000127656
29 *291:8 *333:34 7.35193e-06
30 *321:16 *333:34 0.000725841
31 *324:24 *333:34 0
32 *330:12 *333:12 1.24376e-05
33 *330:12 *333:22 8.48502e-06
34 *332:30 *333:34 0.000120026
*RES
1 *3605:X *333:12 34.5171 
2 *333:12 *333:22 45.1364 
3 *333:22 *333:34 49.6579 
4 *333:34 *3844:A 23 
*END

*D_NET *334 0.0187839
*CONN
*I *3845:A I *D sky130_fd_sc_hd__buf_12
*I *3606:X O *D sky130_fd_sc_hd__and4b_2
*CAP
1 *3845:A 0
2 *3606:X 0.000867421
3 *334:54 0.000214733
4 *334:46 0.00103627
5 *334:44 0.00249337
6 *334:32 0.00194434
7 *334:20 0.00113993
8 *334:20 *343:22 0.000436152
9 *334:20 *366:70 9.41704e-05
10 *334:20 *368:66 0.000100362
11 *334:32 *3867:A 1.34247e-05
12 *334:32 *343:22 0.000316839
13 *334:32 *355:14 0.000223698
14 *334:32 *360:12 9.58709e-05
15 *334:32 *365:6 0.000221997
16 *334:44 *3867:A 0.00025384
17 *334:44 *335:30 0.000755919
18 *334:44 *362:12 8.30566e-06
19 *334:46 *335:30 0.0038106
20 *334:46 *364:34 0.00109474
21 wbs_dat_o[12] *334:54 3.62181e-05
22 wbs_dat_o[4] *334:44 0.000165186
23 *7:13 *334:46 0.000609758
24 *32:24 *334:44 0.000243587
25 *33:13 *334:44 0.000352421
26 *43:11 *334:54 0
27 *65:5 *334:44 4.10548e-05
28 *170:34 *334:20 2.24608e-05
29 *274:10 *334:44 0.000327782
30 *300:22 *334:20 2.05503e-05
31 *312:26 *334:32 0.000246107
32 *315:24 *334:20 0.000287273
33 *315:24 *334:32 1.84556e-05
34 *317:26 *334:20 0
35 *325:26 *334:46 0.0011149
36 *325:34 *334:54 8.4047e-05
37 *326:10 *334:44 2.5343e-05
38 *329:38 *334:32 6.67674e-05
*RES
1 *3606:X *334:20 49.5712 
2 *334:20 *334:32 43.2231 
3 *334:32 *334:44 48.0186 
4 *334:44 *334:46 42.0707 
5 *334:46 *334:54 33.2314 
6 *334:54 *3845:A 23 
*END

*D_NET *335 0.01624
*CONN
*I *3846:A I *D sky130_fd_sc_hd__buf_12
*I *3607:X O *D sky130_fd_sc_hd__and4b_2
*CAP
1 *3846:A 0
2 *3607:X 0.000307301
3 *335:36 0.00013834
4 *335:30 0.00276823
5 *335:28 0.00315813
6 *335:22 0.000952285
7 *335:10 0.000731351
8 *335:10 *3607:C 4.67488e-05
9 *335:10 *336:28 0.000161121
10 wbs_dat_o[14] *335:36 0
11 *3661:A *335:28 1.12695e-05
12 *3:13 *335:30 0
13 *32:7 *335:28 0
14 *33:13 *335:30 6.16164e-05
15 *44:7 *335:36 0.000212711
16 *65:5 *335:28 0.000779629
17 *144:46 *335:10 0.000216656
18 *165:10 *335:36 2.75733e-06
19 *181:14 *335:22 4.82867e-05
20 *181:32 *335:22 0.000574953
21 *198:8 *335:28 0.000141156
22 *218:6 *335:22 5.3304e-05
23 *312:14 *335:10 4.38084e-05
24 *315:24 *335:22 8.78319e-07
25 *317:26 *335:22 0.000596605
26 *329:38 *335:22 0.000160084
27 *330:12 *335:28 0
28 *330:16 *335:28 7.04503e-05
29 *333:12 *335:22 0.000435837
30 *334:44 *335:30 0.000755919
31 *334:46 *335:30 0.0038106
*RES
1 *3607:X *335:10 43.2614 
2 *335:10 *335:22 44.4026 
3 *335:22 *335:28 34.2375 
4 *335:28 *335:30 72.5621 
5 *335:30 *335:36 32.9621 
6 *335:36 *3846:A 23 
*END

*D_NET *336 0.0200675
*CONN
*I *3847:A I *D sky130_fd_sc_hd__buf_12
*I *3608:X O *D sky130_fd_sc_hd__and4b_2
*CAP
1 *3847:A 2.52923e-05
2 *3608:X 0.000438618
3 *336:34 0.00296477
4 *336:32 0.00360274
5 *336:28 0.00311668
6 *336:12 0.00289203
7 *336:12 *366:21 5.3304e-05
8 *336:12 *366:25 4.05745e-05
9 *336:12 *366:42 3.90708e-05
10 *336:12 *366:70 0.000221084
11 *336:12 *366:76 9.04807e-05
12 *336:12 *366:83 2.4431e-05
13 *336:12 *366:90 8.47908e-05
14 *336:12 *368:58 1.88972e-05
15 *336:12 *368:66 1.70308e-05
16 *336:12 *370:23 0.000178517
17 *336:12 *370:30 8.34394e-05
18 *336:12 *370:81 0.000105759
19 *336:28 *368:66 9.28078e-06
20 *336:28 *370:56 0.000208926
21 *336:32 *362:24 0.000180565
22 *336:34 *362:24 0.000145154
23 wbs_dat_o[10] *336:34 0.000113302
24 wbs_dat_o[11] *336:34 1.56446e-05
25 wbs_dat_o[14] *336:34 2.93845e-05
26 wbs_dat_o[6] *336:34 0.000114742
27 *388:DIODE *336:12 9.84851e-05
28 *493:DIODE *336:34 3.22879e-05
29 *3602:D *336:12 4.17736e-05
30 *3606:D *336:12 9.5877e-05
31 *3653:A *336:28 4.51797e-05
32 *3828:A *336:34 9.81686e-05
33 *31:17 *336:28 7.57281e-06
34 *41:13 *336:34 0.00012377
35 *66:5 *336:28 8.10876e-05
36 *69:17 *336:34 0.000359746
37 *115:97 *336:28 1.67942e-05
38 *117:69 *336:34 0.000148155
39 *117:79 *336:34 0.000137499
40 *144:46 *336:28 0.000119381
41 *225:6 *336:34 0.000107901
42 *257:14 *336:34 5.52998e-05
43 *278:10 *336:12 0.000158468
44 *300:22 *336:12 4.24694e-06
45 *317:26 *336:28 0.000553634
46 *321:16 *336:34 0.000110451
47 *321:20 *336:34 9.74855e-05
48 *323:24 *336:34 0.000737798
49 *324:18 *336:32 0.000532395
50 *332:30 *336:34 0.000863463
51 *333:34 *336:34 0.000464933
52 *335:10 *336:28 0.000161121
*RES
1 *3608:X *336:12 48.9268 
2 *336:12 *336:28 42.766 
3 *336:28 *336:32 10.1707 
4 *336:32 *336:34 57.3164 
5 *336:34 *3847:A 23.4971 
*END

*D_NET *337 0.0255016
*CONN
*I *3848:A I *D sky130_fd_sc_hd__buf_12
*I *3609:X O *D sky130_fd_sc_hd__and4b_2
*CAP
1 *3848:A 0
2 *3609:X 0.000400545
3 *337:50 0.000925094
4 *337:40 0.00165587
5 *337:32 0.00138581
6 *337:22 0.00363633
7 *337:20 0.00298129
8 *337:18 0.000544754
9 *337:6 0.000945299
10 *337:6 *3604:A_N 5.3304e-05
11 *337:6 *3609:C 7.25443e-05
12 *337:6 *369:22 0.000338411
13 *337:18 *371:29 0.00105745
14 *337:40 *338:14 8.60167e-05
15 *337:40 *340:22 0
16 *337:40 *367:95 2.71291e-05
17 *337:40 *369:72 4.56255e-05
18 *337:50 *340:22 0.000187692
19 *337:50 *361:16 0.000528927
20 wbs_dat_o[15] *337:50 0.000185371
21 *3604:D *337:6 0.000190075
22 *3630:D *337:18 4.51887e-05
23 *3638:A *337:18 8.34283e-06
24 *3766:A *337:32 0.000184029
25 *3766:A *337:40 0.000110875
26 *45:30 *337:50 4.6907e-05
27 *46:7 *337:50 0
28 *116:23 *337:6 1.21972e-05
29 *119:41 *337:32 9.61658e-05
30 *119:57 *337:18 3.12959e-05
31 *121:54 *337:50 0.000530622
32 *121:60 *337:40 1.34354e-05
33 *139:19 *337:18 1.05441e-05
34 *142:37 *337:18 0.000218541
35 *164:20 *337:32 0.00015866
36 *170:64 *337:22 0.000318946
37 *181:52 *337:32 0.000259632
38 *244:14 *337:40 0.000881226
39 *253:8 *337:50 2.89252e-05
40 *318:14 *337:40 0
41 *327:63 *337:22 0.00182133
42 *327:71 *337:22 0.00125875
43 *328:12 *337:6 0.00110921
44 *328:18 *337:32 0.000987988
45 *328:26 *337:32 2.86356e-05
46 *328:26 *337:40 0.00110085
47 *329:46 *337:18 2.96858e-05
48 *329:56 *337:18 0.000912534
49 *332:10 *337:18 2.7752e-05
50 *332:20 *337:18 2.17681e-05
*RES
1 *3609:X *337:6 35.5321 
2 *337:6 *337:18 36.8424 
3 *337:18 *337:20 15 
4 *337:20 *337:22 48.2643 
5 *337:22 *337:32 45.7429 
6 *337:32 *337:40 48.8914 
7 *337:40 *337:50 48.9743 
8 *337:50 *3848:A 23 
*END

*D_NET *338 0.00574641
*CONN
*I *3849:A I *D sky130_fd_sc_hd__buf_12
*I *3610:X O *D sky130_fd_sc_hd__and4b_1
*CAP
1 *3849:A 0
2 *3610:X 8.60765e-05
3 *338:20 0.000125132
4 *338:14 0.0014852
5 *338:8 0.00144615
6 *338:8 *367:74 0.000449558
7 *338:8 *367:95 8.264e-05
8 *338:14 *340:22 0
9 *121:60 *338:14 0.000226489
10 *200:10 *338:20 4.77164e-06
11 *214:18 *338:14 0
12 *236:22 *338:14 0.00109535
13 *254:8 *338:14 2.75733e-06
14 *272:8 *338:20 0.000124066
15 *318:14 *338:8 0.000532198
16 *337:40 *338:14 8.60167e-05
*RES
1 *3610:X *338:8 43.8621 
2 *338:8 *338:14 36.0043 
3 *338:14 *338:20 31.9057 
4 *338:20 *3849:A 23 
*END

*D_NET *339 0.0554583
*CONN
*I *3760:A I *D sky130_fd_sc_hd__dlygate4sd3_1
*I *3837:X O *D sky130_fd_sc_hd__buf_4
*CAP
1 *3760:A 4.93533e-05
2 *3837:X 0
3 *339:38 0.00318903
4 *339:28 0.00574539
5 *339:18 0.00415753
6 *339:16 0.00231199
7 *339:12 0.00281653
8 *339:4 0.00205635
9 *339:18 *3801:A 5.67058e-05
10 *339:18 *3855:A 0.0002778
11 *339:28 *350:14 0.00119661
12 *339:28 *372:14 1.96616e-05
13 *339:38 *350:24 0.00764593
14 *339:38 *372:24 3.94852e-05
15 *339:38 *381:16 0.000248958
16 wbs_dat_o[22] *339:28 1.9021e-05
17 *497:DIODE *339:12 5.62243e-05
18 *505:DIODE *339:18 0.000361247
19 *511:DIODE *339:12 0.000142097
20 *523:DIODE *339:12 0.000162885
21 *523:DIODE *339:16 0.000139035
22 *525:DIODE *339:12 0.000119303
23 *3643:A *339:18 5.50106e-05
24 *3650:A *339:12 0.000106377
25 *3653:A *339:12 0.000142396
26 *3676:A *339:16 0.000185434
27 *3677:A *339:16 0.000188927
28 *3695:A *339:18 0.000232734
29 *3701:A *339:16 9.58714e-05
30 *3717:A *339:16 5.79559e-05
31 *3719:A *339:18 0.000430638
32 *3721:A *339:18 0.000137651
33 *3730:A *339:16 0.000182826
34 *3747:A *339:12 5.50106e-05
35 *3750:A *339:12 0.000264773
36 *3779:A *339:18 5.73288e-05
37 *3793:A *339:16 5.3304e-05
38 *3798:A *339:18 5.67058e-05
39 *3837:A *339:12 4.78497e-05
40 *31:17 *339:12 9.84794e-05
41 *52:24 *339:18 1.21972e-05
42 *53:9 *339:18 4.96717e-05
43 *64:28 *339:12 0.000388359
44 *69:9 *339:12 0.000316877
45 *84:14 *339:18 5.50106e-05
46 *128:49 *339:28 0
47 *148:58 *339:38 0.00292236
48 *159:10 *339:12 3.22879e-05
49 *159:10 *339:16 0.000551236
50 *159:10 *339:18 1.28345e-05
51 *159:12 *339:18 0.000280122
52 *187:6 *339:12 7.45491e-05
53 *193:10 *339:38 0.000102247
54 *202:8 *339:28 0
55 *214:8 *339:18 0.000977551
56 *220:10 *339:12 4.39278e-05
57 *221:8 *339:38 0.000141879
58 *224:12 *339:12 3.59635e-05
59 *231:10 *339:12 4.39278e-05
60 *236:22 *339:18 0.000999895
61 *236:32 *339:18 0.000653221
62 *247:6 *339:18 0.0037645
63 *258:52 *339:38 0.000197686
64 *258:60 *339:38 0.000175426
65 *266:6 *339:12 0.0011446
66 *270:14 *339:18 0.000430429
67 *270:34 *339:28 0.00165975
68 *281:26 *339:18 0.000895638
69 *281:72 *339:38 0.000290031
70 *292:30 *3760:A 6.17437e-06
71 *301:22 *339:38 0.000212458
72 *301:32 *339:38 0.000571788
73 *303:38 *339:38 0.000665549
74 *304:22 *339:38 0.000218028
75 *304:26 *339:38 0.000786671
76 *317:56 *339:38 0.000233911
77 *324:28 *339:16 0.0021742
78 *324:28 *339:18 4.33069e-05
79 *326:24 *339:38 0
80 *329:22 *339:12 9.78729e-06
81 *331:22 *339:12 0.00102387
*RES
1 *3837:X *339:4 23 
2 *339:4 *339:12 48.4507 
3 *339:12 *339:16 26.9596 
4 *339:16 *339:18 68.0361 
5 *339:18 *339:28 39.423 
6 *339:28 *339:38 39.5041 
7 *339:38 *3760:A 38.6214 
*END

*D_NET *340 0.00627192
*CONN
*I *3850:A I *D sky130_fd_sc_hd__buf_12
*I *3611:X O *D sky130_fd_sc_hd__and4b_1
*CAP
1 *3850:A 0
2 *3611:X 9.13063e-05
3 *340:22 0.00158756
4 *340:10 0.00167887
5 *340:10 *367:95 0.000240024
6 wbs_dat_o[15] *340:22 0.000211527
7 *3690:A *340:22 9.84851e-05
8 *3725:A *340:22 0.000613517
9 *45:17 *340:22 0.000187754
10 *45:30 *340:22 0.000144494
11 *79:14 *340:22 7.88512e-05
12 *117:59 *340:22 0.000379469
13 *200:10 *340:22 0.000484545
14 *253:8 *340:22 0.000129897
15 *318:14 *340:10 7.88828e-05
16 *318:14 *340:22 3.0647e-05
17 *320:26 *340:22 4.83982e-05
18 *337:40 *340:22 0
19 *337:50 *340:22 0.000187692
20 *338:14 *340:22 0
*RES
1 *3611:X *340:10 41.0243 
2 *340:10 *340:22 48.3707 
3 *340:22 *3850:A 23 
*END

*D_NET *341 0.00518153
*CONN
*I *3851:A I *D sky130_fd_sc_hd__buf_12
*I *3612:X O *D sky130_fd_sc_hd__and4b_1
*CAP
1 *3851:A 0
2 *3612:X 0.000456525
3 *341:18 0.000846082
4 *341:10 0.00130261
5 *341:10 *367:99 0.000445374
6 *341:10 *367:112 0.00012612
7 *341:18 *342:20 0
8 *341:18 *361:28 9.44323e-05
9 *396:DIODE *341:10 4.98755e-05
10 *113:31 *341:18 0.000865176
11 *120:52 *341:18 0.000690104
12 *159:22 *341:18 0
13 *203:14 *341:18 0.000123425
14 *265:10 *341:18 7.45924e-05
15 *322:26 *341:10 0.000107218
*RES
1 *3612:X *341:10 45.8921 
2 *341:10 *341:18 48.6221 
3 *341:18 *3851:A 38 
*END

*D_NET *342 0.00540711
*CONN
*I *3852:A I *D sky130_fd_sc_hd__buf_12
*I *3613:X O *D sky130_fd_sc_hd__and4b_1
*CAP
1 *3852:A 0
2 *3613:X 0.000312786
3 *342:20 0.00121154
4 *342:12 0.00152433
5 *342:12 *367:112 0.000236131
6 wbs_dat_o[19] *342:20 0.000128401
7 *499:DIODE *342:20 1.57571e-05
8 *48:9 *342:20 9.0936e-05
9 *79:14 *342:20 0.000225441
10 *117:59 *342:20 0.00117286
11 *159:22 *342:20 0
12 *203:14 *342:20 0
13 *214:24 *342:20 0.000132926
14 *265:10 *342:20 0.000228909
15 *268:8 *342:20 0.000127096
16 *341:18 *342:20 0
*RES
1 *3613:X *342:12 42.5986 
2 *342:12 *342:20 41.68 
3 *342:20 *3852:A 23 
*END

*D_NET *343 0.00891968
*CONN
*I *3853:A I *D sky130_fd_sc_hd__buf_12
*I *3627:X O *D sky130_fd_sc_hd__and4b_1
*CAP
1 *3853:A 0
2 *3627:X 0.00021535
3 *343:22 0.00328625
4 *343:12 0.0035016
5 *343:12 *3867:A 1.47563e-05
6 *343:12 *366:134 0.000181125
7 *343:12 *366:145 1.21972e-05
8 *343:22 *366:12 2.13261e-05
9 *61:11 *343:22 0
10 *61:19 *343:22 0.000255856
11 *104:9 *343:22 5.86716e-05
12 *105:13 *343:22 5.79559e-05
13 *138:56 *343:12 4.51431e-05
14 *240:10 *343:22 0.000198342
15 *298:10 *343:22 5.43285e-05
16 *312:26 *343:22 0.000111127
17 *317:18 *343:22 0.000123325
18 *317:26 *343:22 0
19 *323:14 *343:22 2.93335e-05
20 *334:20 *343:22 0.000436152
21 *334:32 *343:22 0.000316839
*RES
1 *3627:X *343:12 49.5525 
2 *343:12 *343:22 42.6438 
3 *343:22 *3853:A 23 
*END

*D_NET *344 0.0042208
*CONN
*I *3854:A I *D sky130_fd_sc_hd__buf_12
*I *3614:X O *D sky130_fd_sc_hd__and4b_1
*CAP
1 *3854:A 0
2 *3614:X 0.000375951
3 *344:14 0.000751876
4 *344:8 0.00112783
5 *344:8 *345:10 0.000181131
6 *344:8 *367:121 0.000234304
7 *344:8 *367:140 0.000211521
8 *344:14 *345:10 8.38438e-05
9 wbs_dat_o[20] *344:14 5.56356e-05
10 *399:DIODE *344:8 0.000313249
11 *3615:D *344:8 8.66657e-05
12 *121:50 *344:14 0.000225325
13 *225:20 *344:14 0.00031118
14 *259:10 *344:14 0.000108481
15 *269:8 *344:14 0.000130649
16 *292:6 *344:14 2.31591e-05
*RES
1 *3614:X *344:8 48.15 
2 *344:8 *344:14 29.6657 
3 *344:14 *3854:A 23 
*END

*D_NET *345 0.00270945
*CONN
*I *3855:A I *D sky130_fd_sc_hd__buf_12
*I *3615:X O *D sky130_fd_sc_hd__and4b_1
*CAP
1 *3855:A 4.21958e-05
2 *3615:X 0.00070921
3 *345:10 0.000751406
4 *345:10 *367:140 8.48502e-06
5 *121:50 *345:10 0.000176534
6 *236:38 *345:10 0.000194439
7 *269:8 *345:10 4.2812e-06
8 *270:14 *3855:A 0.00028012
9 *339:18 *3855:A 0.0002778
10 *344:8 *345:10 0.000181131
11 *344:14 *345:10 8.38438e-05
*RES
1 *3615:X *345:10 49.3721 
2 *345:10 *3855:A 41.0036 
*END

*D_NET *346 0.00104583
*CONN
*I *3856:A I *D sky130_fd_sc_hd__buf_12
*I *3616:X O *D sky130_fd_sc_hd__and4b_1
*CAP
1 *3856:A 0
2 *3616:X 0.000387167
3 *346:10 0.000387167
4 *346:10 *367:140 3.41998e-06
5 *400:DIODE *346:10 0.000127626
6 *121:50 *346:10 9.64943e-05
7 *236:38 *346:10 4.39527e-05
8 *247:12 *346:10 0
*RES
1 *3616:X *346:10 43.8207 
2 *346:10 *3856:A 38 
*END

*D_NET *347 0.00863869
*CONN
*I *3857:A I *D sky130_fd_sc_hd__buf_12
*I *3617:X O *D sky130_fd_sc_hd__and4b_1
*CAP
1 *3857:A 0
2 *3617:X 0.000164284
3 *347:24 0.00128951
4 *347:14 0.00161412
5 *347:8 0.000488892
6 *347:24 *348:16 5.90276e-05
7 wbs_dat_o[24] *347:24 0.000209451
8 *449:DIODE *347:24 0.000140313
9 *509:DIODE *347:24 0
10 *56:9 *347:24 0.000297222
11 *115:39 *347:24 0.000627418
12 *120:34 *347:8 8.81675e-05
13 *121:30 *347:14 4.21281e-05
14 *128:43 *347:8 0
15 *131:68 *347:24 0.000144515
16 *258:30 *347:14 0.00155796
17 *276:10 *347:24 9.41704e-05
18 *301:6 *347:14 0.00147363
19 *325:52 *347:24 0.000347877
*RES
1 *3617:X *347:8 40.2579 
2 *347:8 *347:14 47.2964 
3 *347:14 *347:24 37.5579 
4 *347:24 *3857:A 23 
*END

*D_NET *348 0.00529012
*CONN
*I *3858:A I *D sky130_fd_sc_hd__buf_12
*I *3618:X O *D sky130_fd_sc_hd__and4b_1
*CAP
1 *3858:A 0
2 *3618:X 0.000600283
3 *348:16 0.000855379
4 *348:8 0.00145566
5 *348:8 *3619:A_N 1.03836e-05
6 *348:8 *349:8 0.000139352
7 *348:8 *367:163 0.000146619
8 *348:8 *369:153 1.33173e-05
9 *509:DIODE *348:16 6.32291e-05
10 *3619:D *348:8 0.000238313
11 *3736:A *348:16 0.000183777
12 *3741:A *348:16 2.93335e-05
13 *120:34 *348:16 2.48259e-05
14 *131:68 *348:16 6.04227e-05
15 *159:26 *348:16 0
16 *259:44 *348:16 0.000249093
17 *292:20 *348:16 0.00103175
18 *301:10 *348:16 0.000129353
19 *347:24 *348:16 5.90276e-05
*RES
1 *3618:X *348:8 47.1971 
2 *348:8 *348:16 34.6164 
3 *348:16 *3858:A 23 
*END

*D_NET *349 0.00435034
*CONN
*I *3859:A I *D sky130_fd_sc_hd__buf_12
*I *3619:X O *D sky130_fd_sc_hd__and4b_1
*CAP
1 *3859:A 0
2 *3619:X 0.00052447
3 *349:14 0.000614727
4 *349:8 0.0011392
5 *349:8 *369:153 1.57571e-05
6 wbs_dat_o[25] *349:14 0.000141052
7 *438:DIODE *349:8 0.00022034
8 *459:DIODE *349:14 2.56066e-05
9 *120:22 *349:8 0.000981345
10 *132:45 *349:14 4.12973e-05
11 *132:47 *349:14 8.50209e-05
12 *132:49 *349:14 9.17788e-05
13 *132:51 *349:14 8.54228e-05
14 *259:48 *349:14 2.4387e-05
15 *281:50 *349:14 0.000220586
16 *348:8 *349:8 0.000139352
*RES
1 *3619:X *349:8 49.5793 
2 *349:8 *349:14 27.2836 
3 *349:14 *3859:A 23 
*END

*D_NET *350 0.0604881
*CONN
*I *3751:A I *D sky130_fd_sc_hd__dlygate4sd3_1
*I *3838:X O *D sky130_fd_sc_hd__buf_4
*CAP
1 *3751:A 0
2 *3838:X 1.16487e-05
3 *350:24 0.00262472
4 *350:14 0.0126139
5 *350:10 0.0100008
6 *350:10 *360:18 2.46922e-05
7 *350:10 *364:18 4.77164e-06
8 *350:14 *364:26 0.000100139
9 *350:14 *372:14 0.0141309
10 *350:24 *381:16 0.00598029
11 *111:14 *350:14 0.000114879
12 *113:55 *350:14 0.000165186
13 *117:15 *350:24 0.000150324
14 *117:21 *350:24 0.000206463
15 *141:15 *350:14 0.000164169
16 *145:16 *350:14 0.000142922
17 *148:10 *350:14 0.000334267
18 *148:28 *350:14 0.000260231
19 *148:38 *350:14 0.000110155
20 *181:42 *350:14 0.000100139
21 *203:6 *350:14 0.000277784
22 *258:20 *350:14 0.000260231
23 *258:56 *350:24 0.000490123
24 *258:60 *350:24 7.76035e-05
25 *259:22 *350:14 0.00017732
26 *281:70 *350:24 0.000190123
27 *281:72 *350:24 0.000111045
28 *304:26 *350:24 0.000293655
29 *306:10 *350:14 0.000300439
30 *306:22 *350:14 0.000110155
31 *317:26 *350:14 0.000125976
32 *317:32 *350:14 0.000101624
33 *317:42 *350:14 0.00104289
34 *317:44 *350:14 0.000234754
35 *322:20 *350:14 0.000300439
36 *326:24 *350:24 0.000180685
37 *333:22 *350:14 0.000130115
38 *339:28 *350:14 0.00119661
39 *339:38 *350:24 0.00764593
*RES
1 *3838:X *350:10 46.3211 
2 *350:10 *350:14 36.6925 
3 *350:14 *350:24 38.1078 
4 *350:24 *3751:A 38 
*END

*D_NET *351 0.00368737
*CONN
*I *3860:A I *D sky130_fd_sc_hd__buf_12
*I *3620:X O *D sky130_fd_sc_hd__and4b_1
*CAP
1 *3860:A 0.000746781
2 *3620:X 0.000470155
3 *351:8 0.00121694
4 *177:24 *351:8 0.000343689
5 *219:46 *3860:A 1.89873e-05
6 *227:10 *3860:A 0
7 *244:32 *351:8 0.000890818
8 *308:12 *3860:A 0
9 *325:68 *3860:A 0
*RES
1 *3620:X *351:8 48.15 
2 *351:8 *3860:A 46.9486 
*END

*D_NET *352 0.004064
*CONN
*I *3861:A I *D sky130_fd_sc_hd__buf_12
*I *3621:X O *D sky130_fd_sc_hd__and4b_1
*CAP
1 *3861:A 0
2 *3621:X 0.00041993
3 *352:14 0.000490762
4 *352:8 0.000910692
5 *3:17 *352:14 0.000588389
6 *90:10 *352:14 0.000400204
7 *120:22 *352:8 0.000694843
8 *279:8 *352:14 0.000410504
9 *292:20 *352:14 7.44257e-05
10 *325:68 *352:14 7.42465e-05
*RES
1 *3621:X *352:8 45.7679 
2 *352:8 *352:14 28.63 
3 *352:14 *3861:A 23 
*END

*D_NET *353 0.00481766
*CONN
*I *3862:A I *D sky130_fd_sc_hd__buf_12
*I *3622:X O *D sky130_fd_sc_hd__and4b_1
*CAP
1 *3862:A 0
2 *3622:X 0.000209294
3 *353:14 0.000835503
4 *353:8 0.0010448
5 *353:14 *354:16 0.000419482
6 wbs_dat_o[28] *353:14 5.56356e-05
7 *3624:C *353:14 3.64246e-05
8 *3625:A_N *353:8 5.22448e-05
9 *60:11 *353:14 1.3523e-05
10 *117:29 *353:14 0
11 *158:10 *353:14 0.000167266
12 *270:36 *353:14 0
13 *307:10 *353:14 0.000354875
14 *309:10 *353:14 0
15 *327:105 *353:8 0.000876841
16 *329:103 *353:8 0.000144501
17 *329:114 *353:8 0.000607274
*RES
1 *3622:X *353:8 47.6736 
2 *353:8 *353:14 33.3736 
3 *353:14 *3862:A 23 
*END

*D_NET *354 0.00348519
*CONN
*I *3863:A I *D sky130_fd_sc_hd__buf_12
*I *3623:X O *D sky130_fd_sc_hd__and4b_1
*CAP
1 *3863:A 0
2 *3623:X 0.000275792
3 *354:16 0.000803974
4 *354:8 0.00107977
5 wbs_dat_o[29] *354:16 2.93845e-05
6 *170:99 *354:8 0.000353621
7 *227:18 *354:16 0.000186025
8 *270:36 *354:16 0.000208646
9 *307:8 *354:16 5.72975e-05
10 *309:8 *354:16 7.12002e-05
11 *353:14 *354:16 0.000419482
*RES
1 *3623:X *354:8 41.9564 
2 *354:8 *354:16 32.7521 
3 *354:16 *3863:A 23 
*END

*D_NET *355 0.00461892
*CONN
*I *3864:A I *D sky130_fd_sc_hd__buf_12
*I *3628:X O *D sky130_fd_sc_hd__and4b_1
*CAP
1 *3864:A 0
2 *3628:X 0.0003874
3 *355:20 0.000767889
4 *355:14 0.00115529
5 *355:14 *362:12 3.88766e-05
6 *355:14 *365:6 0.00020243
7 *355:20 *364:10 0
8 *355:20 *368:121 9.03851e-06
9 wbs_dat_o[3] *355:20 0.000140313
10 *387:DIODE *355:14 9.41704e-05
11 *390:DIODE *355:20 7.28722e-06
12 *482:DIODE *355:20 0.000111549
13 *529:DIODE *355:20 9.41704e-05
14 *3628:D *355:14 2.07988e-05
15 *3632:RESET_B *355:20 1.98354e-05
16 *3661:A *355:14 0.000265472
17 *3758:A *355:20 0
18 *3823:A *355:14 0.000181131
19 *115:69 *355:20 8.2832e-05
20 *141:19 *355:20 2.05503e-05
21 *181:32 *355:20 2.05503e-05
22 *312:26 *355:20 9.28078e-06
23 *324:10 *355:20 0.000243146
24 *329:38 *355:20 5.62496e-05
25 *330:12 *355:20 0.000363969
26 *331:26 *355:20 0.00010299
27 *334:32 *355:14 0.000223698
*RES
1 *3628:X *355:14 47.7357 
2 *355:14 *355:20 29.935 
3 *355:20 *3864:A 23 
*END

*D_NET *356 0.00472179
*CONN
*I *3865:A I *D sky130_fd_sc_hd__buf_12
*I *3624:X O *D sky130_fd_sc_hd__and4b_1
*CAP
1 *3865:A 0
2 *3624:X 0.000545192
3 *356:14 0.000886692
4 *356:8 0.00143188
5 *356:8 *357:8 3.64856e-05
6 wbs_dat_o[30] *356:14 0.000241503
7 *518:DIODE *356:14 5.67058e-05
8 *519:DIODE *356:14 0
9 *3625:A_N *356:8 1.30933e-05
10 *3625:C *356:8 0.000481192
11 *3625:D *356:8 1.16872e-05
12 *62:5 *356:14 0
13 *287:8 *356:14 0.000130649
14 *311:10 *356:14 3.16618e-05
15 *313:12 *356:14 0.00085504
*RES
1 *3624:X *356:8 47.1971 
2 *356:8 *356:14 35.2793 
3 *356:14 *3865:A 23 
*END

*D_NET *357 0.00289131
*CONN
*I *3866:A I *D sky130_fd_sc_hd__buf_12
*I *3625:X O *D sky130_fd_sc_hd__and4b_1
*CAP
1 *3866:A 0
2 *3625:X 0.000681439
3 *357:12 0.000745971
4 *357:8 0.00142741
5 *356:8 *357:8 3.64856e-05
*RES
1 *3625:X *357:8 46.2443 
2 *357:8 *357:12 28.1743 
3 *357:12 *3866:A 23 
*END

*D_NET *358 0.00235906
*CONN
*I *3867:A I *D sky130_fd_sc_hd__buf_12
*I *3629:X O *D sky130_fd_sc_hd__and4b_1
*CAP
1 *3867:A 0.000600864
2 *3629:X 9.76694e-05
3 *358:10 0.000698534
4 *3867:A *360:12 4.03107e-05
5 *358:10 *366:134 2.16281e-05
6 *3661:A *3867:A 0.000226059
7 *65:5 *3867:A 0.000343057
8 *124:65 *3867:A 1.33899e-05
9 *138:56 *3867:A 3.55303e-05
10 *329:38 *3867:A 0
11 *334:32 *3867:A 1.34247e-05
12 *334:44 *3867:A 0.00025384
13 *343:12 *3867:A 1.47563e-05
*RES
1 *3629:X *358:10 39.4707 
2 *358:10 *3867:A 49.4136 
*END

*D_NET *359 0.00293434
*CONN
*I *3868:A I *D sky130_fd_sc_hd__buf_12
*I *3630:X O *D sky130_fd_sc_hd__and4b_1
*CAP
1 *3868:A 0
2 *3630:X 0
3 *359:14 0.00115842
4 *359:6 0.00115842
5 *359:14 *362:20 1.69877e-05
6 *359:14 *371:41 5.3025e-05
7 wbs_dat_o[4] *359:14 6.99175e-05
8 *124:44 *359:14 0.000151697
9 *324:10 *359:14 0.000135037
10 *331:14 *359:14 0.000190835
*RES
1 *3630:X *359:6 38 
2 *359:6 *359:14 29.8936 
3 *359:14 *3868:A 23 
*END

*D_NET *360 0.00509853
*CONN
*I *3869:A I *D sky130_fd_sc_hd__buf_12
*I *3631:X O *D sky130_fd_sc_hd__and4b_1
*CAP
1 *3869:A 0
2 *3631:X 0.000518565
3 *360:18 0.000824167
4 *360:12 0.00134273
5 *360:18 *3628:A_N 3.89965e-05
6 *360:18 *3628:C 1.79662e-05
7 *360:18 *364:18 2.29936e-05
8 *3653:A *360:18 0
9 *3683:A *360:18 0
10 *3867:A *360:12 4.03107e-05
11 *34:5 *360:18 0
12 *66:5 *360:18 0
13 *124:65 *360:12 0.000598423
14 *135:27 *360:12 7.12426e-05
15 *135:27 *360:18 2.11157e-05
16 *141:15 *360:12 0.000153579
17 *145:24 *360:18 0.000142095
18 *187:14 *360:18 0
19 *224:18 *360:18 6.16352e-05
20 *264:10 *360:18 0.000135557
21 *312:26 *360:12 0.000988592
22 *331:14 *360:18 0
23 *334:32 *360:12 9.58709e-05
24 *350:10 *360:18 2.46922e-05
*RES
1 *3631:X *360:12 49.3226 
2 *360:12 *360:18 35.6461 
3 *360:18 *3869:A 23 
*END

*D_NET *361 0.0534523
*CONN
*I *3757:A I *D sky130_fd_sc_hd__dlygate4sd3_1
*I *393:DIODE I *D sky130_fd_sc_hd__diode_2
*I *3839:X O *D sky130_fd_sc_hd__buf_4
*CAP
1 *3757:A 0.000299005
2 *393:DIODE 0.000197101
3 *3839:X 9.51848e-05
4 *361:56 0.00148166
5 *361:54 0.00175369
6 *361:48 0.00206573
7 *361:38 0.00187225
8 *361:34 0.000854055
9 *361:28 0.00120523
10 *361:16 0.00220807
11 *361:14 0.00180447
12 *361:10 0.000617415
13 *361:10 *363:22 8.06804e-06
14 *361:10 *365:6 0.000140259
15 *361:14 *363:22 6.52495e-05
16 *361:14 *365:6 0.000362021
17 *3826:A *361:10 2.43944e-05
18 *3826:A *361:14 2.93845e-05
19 *110:12 *361:54 0.00219921
20 *110:12 *361:56 8.29227e-05
21 *113:27 *361:48 4.46303e-05
22 *113:31 *361:28 0.00204712
23 *116:15 *361:48 0.000554145
24 *118:11 *361:56 0
25 *118:13 *361:48 2.1819e-05
26 *120:42 *361:28 0.00145574
27 *120:52 *361:16 0.00286882
28 *120:52 *361:28 0.000181967
29 *121:38 *361:28 0.000226923
30 *121:54 *361:16 0.000813772
31 *121:54 *361:28 0.000165383
32 *131:68 *361:38 0.000219094
33 *131:79 *361:38 8.53029e-05
34 *132:39 *361:48 0.000299647
35 *132:41 *361:48 8.85189e-05
36 *132:43 *361:48 0.000248516
37 *132:45 *361:48 0.000156325
38 *132:47 *361:48 0.00020754
39 *132:49 *361:48 5.95262e-05
40 *133:23 *3757:A 0.000168472
41 *135:27 *361:28 0.000120171
42 *141:15 *361:14 0.00029797
43 *141:15 *361:16 0.000577384
44 *144:15 *3757:A 0.000421102
45 *144:21 *361:48 0.000193916
46 *145:63 *361:48 1.71761e-05
47 *148:18 *361:16 0.000168568
48 *164:40 *361:48 0.000513676
49 *177:24 *361:48 9.25621e-05
50 *199:22 *361:48 0.000392492
51 *206:8 *393:DIODE 7.95471e-06
52 *209:10 *361:34 1.05441e-05
53 *244:38 *361:54 0.00226472
54 *244:38 *361:56 3.61511e-05
55 *244:46 *3757:A 0.000270841
56 *244:46 *361:56 0.00421143
57 *301:6 *361:28 0.00126146
58 *302:6 *361:38 0.000418635
59 *303:6 *361:38 0.00142205
60 *303:28 *361:48 0.000262576
61 *306:22 *361:38 0.000400204
62 *317:44 *361:38 0.000229702
63 *317:66 *361:56 0.000147424
64 *317:68 *3757:A 0.000277745
65 *317:68 *361:56 0.00409741
66 *319:6 *361:14 0.00227452
67 *320:12 *361:14 0.00195916
68 *320:12 *361:16 2.06822e-05
69 *320:14 *361:16 0.00114027
70 *322:10 *361:14 3.47781e-05
71 *322:10 *361:16 0.00200704
72 *337:50 *361:16 0.000528927
73 *341:18 *361:28 9.44323e-05
*RES
1 *3839:X *361:10 25.5686 
2 *361:10 *361:14 29.2279 
3 *361:14 *361:16 55.4107 
4 *361:16 *361:28 38.9636 
5 *361:28 *361:34 33.3143 
6 *361:34 *361:38 35.6314 
7 *361:38 *361:48 43.6479 
8 *361:48 *361:54 45.6986 
9 *361:54 *361:56 55.7836 
10 *361:56 *393:DIODE 40.0507 
11 *361:56 *3757:A 46.5757 
*END

*D_NET *362 0.00598471
*CONN
*I *3870:A I *D sky130_fd_sc_hd__buf_12
*I *3600:X O *D sky130_fd_sc_hd__and4b_1
*CAP
1 *3870:A 0
2 *3600:X 0.00058944
3 *362:24 0.000282727
4 *362:20 0.000625649
5 *362:12 0.000932361
6 wbs_dat_o[6] *362:24 0.000185434
7 *3653:A *362:20 6.97069e-05
8 *3661:A *362:12 0.000221997
9 *3681:A *362:24 9.74625e-05
10 *3823:A *362:12 0.000142283
11 *66:5 *362:20 0.000124075
12 *117:79 *362:24 0.000352485
13 *224:12 *362:20 0.000383805
14 *266:6 *362:20 0.000385506
15 *274:10 *362:12 0.000508531
16 *324:18 *362:24 0.000615198
17 *331:14 *362:20 7.81607e-05
18 *334:44 *362:12 8.30566e-06
19 *336:32 *362:24 0.000180565
20 *336:34 *362:24 0.000145154
21 *355:14 *362:12 3.88766e-05
22 *359:14 *362:20 1.69877e-05
*RES
1 *3600:X *362:12 48.4814 
2 *362:12 *362:20 37.395 
3 *362:20 *362:24 27.0557 
4 *362:24 *3870:A 23 
*END

*D_NET *363 0.00840547
*CONN
*I *3871:A I *D sky130_fd_sc_hd__buf_12
*I *3601:X O *D sky130_fd_sc_hd__and4b_1
*CAP
1 *3871:A 0
2 *3601:X 0.000175543
3 *363:28 0.000736787
4 *363:22 0.00242035
5 *363:12 0.00185911
6 *363:12 *3600:B 0.000202212
7 *363:12 *364:10 0.000217088
8 *363:12 *366:113 5.3304e-05
9 *363:22 *3628:A_N 0.000122339
10 *363:22 *365:6 2.11856e-05
11 *363:28 *364:26 0
12 *363:28 *367:43 1.00084e-05
13 *482:DIODE *363:12 2.8314e-06
14 *3628:D *363:22 8.97901e-05
15 *3826:A *363:22 0.000136743
16 *3827:A *363:22 0.000100061
17 *68:9 *363:28 0
18 *141:15 *363:22 0.00103331
19 *180:8 *363:28 2.99257e-05
20 *181:32 *363:22 0.000387672
21 *220:10 *363:28 0
22 *222:10 *363:28 0
23 *293:14 *363:28 0
24 *316:18 *363:22 0.000116904
25 *319:6 *363:22 0.000296709
26 *329:38 *363:22 0.000297631
27 *331:14 *363:22 2.26497e-05
28 *361:10 *363:22 8.06804e-06
29 *361:14 *363:22 6.52495e-05
*RES
1 *3601:X *363:12 49.7596 
2 *363:12 *363:22 42.7343 
3 *363:22 *363:28 40.7093 
4 *363:28 *3871:A 23 
*END

*D_NET *364 0.0126684
*CONN
*I *3872:A I *D sky130_fd_sc_hd__buf_12
*I *3602:X O *D sky130_fd_sc_hd__and4b_1
*CAP
1 *3872:A 0
2 *3602:X 0.000557765
3 *364:34 0.000329368
4 *364:26 0.0010536
5 *364:18 0.00202919
6 *364:10 0.00186272
7 *364:10 *366:90 6.08617e-05
8 *364:10 *366:94 9.77405e-05
9 *364:10 *366:113 0.000122599
10 *364:26 *372:10 3.55303e-05
11 wbs_dat_o[8] *364:34 6.23156e-05
12 *482:DIODE *364:10 2.2542e-05
13 *507:DIODE *364:18 0.000257636
14 *525:DIODE *364:26 0.000256023
15 *3683:A *364:18 6.01895e-05
16 *3683:A *364:26 0.000308039
17 *3758:A *364:10 5.64582e-05
18 *35:9 *364:26 0.000334584
19 *37:5 *364:34 4.41053e-05
20 *64:28 *364:10 0.000400111
21 *68:9 *364:26 0.00015928
22 *111:14 *364:18 0.000401094
23 *111:14 *364:26 0.000264915
24 *145:24 *364:18 6.21638e-05
25 *145:28 *364:18 0.000250805
26 *181:42 *364:26 0.000781949
27 *187:14 *364:18 0
28 *222:10 *364:26 7.60402e-05
29 *325:26 *364:34 0.00108778
30 *333:12 *364:18 0.00019321
31 *334:46 *364:34 0.00109474
32 *350:10 *364:18 4.77164e-06
33 *350:14 *364:26 0.000100139
34 *355:20 *364:10 0
35 *360:18 *364:18 2.29936e-05
36 *363:12 *364:10 0.000217088
37 *363:28 *364:26 0
*RES
1 *3602:X *364:10 47.7357 
2 *364:10 *364:18 48.0214 
3 *364:18 *364:26 49.7821 
4 *364:26 *364:34 44.3136 
5 *364:34 *3872:A 38 
*END

*D_NET *365 0.0135877
*CONN
*I *3873:A I *D sky130_fd_sc_hd__buf_12
*I *3603:X O *D sky130_fd_sc_hd__and4b_1
*CAP
1 *3873:A 0
2 *3603:X 0
3 *365:22 0.00116245
4 *365:6 0.00449402
5 *365:4 0.00333157
6 *365:6 *3628:A_N 4.39607e-05
7 *365:6 *3628:C 0.000229797
8 *365:6 *366:104 9.41704e-05
9 *365:22 *367:49 5.11813e-05
10 wbs_dat_o[10] *365:22 0.000207912
11 *387:DIODE *365:6 6.70361e-05
12 *521:DIODE *365:22 0
13 *3628:D *365:6 3.86548e-05
14 *3823:A *365:6 8.48502e-06
15 *40:13 *365:22 9.66965e-05
16 *135:27 *365:6 0.000338312
17 *142:51 *365:6 0.000106162
18 *161:8 *365:22 0
19 *258:10 *365:22 0.000117869
20 *290:10 *365:22 9.78653e-05
21 *312:14 *365:6 7.96283e-05
22 *317:32 *365:22 2.05503e-05
23 *317:42 *365:22 0.000269356
24 *320:12 *365:6 0.00162344
25 *332:30 *365:22 0
26 *333:34 *365:22 0.000160707
27 *334:32 *365:6 0.000221997
28 *355:14 *365:6 0.00020243
29 *361:10 *365:6 0.000140259
30 *361:14 *365:6 0.000362021
31 *363:22 *365:6 2.11856e-05
*RES
1 *3603:X *365:4 23 
2 *365:4 *365:6 48.7407 
3 *365:6 *365:22 45.8584 
4 *365:22 *3873:A 38 
*END

*D_NET *366 0.0136903
*CONN
*I *3609:A_N I *D sky130_fd_sc_hd__and4b_2
*I *3606:A_N I *D sky130_fd_sc_hd__and4b_2
*I *3601:A_N I *D sky130_fd_sc_hd__and4b_1
*I *3626:A_N I *D sky130_fd_sc_hd__and4b_1
*I *3630:A_N I *D sky130_fd_sc_hd__and4b_1
*I *3628:A_N I *D sky130_fd_sc_hd__and4b_1
*I *3629:A_N I *D sky130_fd_sc_hd__and4b_1
*I *3631:A_N I *D sky130_fd_sc_hd__and4b_1
*I *3600:A_N I *D sky130_fd_sc_hd__and4b_1
*I *3602:A_N I *D sky130_fd_sc_hd__and4b_1
*I *3603:A_N I *D sky130_fd_sc_hd__and4b_1
*I *3604:A_N I *D sky130_fd_sc_hd__and4b_1
*I *3605:A_N I *D sky130_fd_sc_hd__and4b_1
*I *3607:A_N I *D sky130_fd_sc_hd__and4b_2
*I *3608:A_N I *D sky130_fd_sc_hd__and4b_2
*I *3637:X O *D sky130_fd_sc_hd__clkbuf_2
*CAP
1 *3609:A_N 0
2 *3606:A_N 0
3 *3601:A_N 0
4 *3626:A_N 0
5 *3630:A_N 0.000256206
6 *3628:A_N 0.00025347
7 *3629:A_N 0
8 *3631:A_N 0
9 *3600:A_N 0
10 *3602:A_N 0
11 *3603:A_N 0
12 *3604:A_N 0.000199594
13 *3605:A_N 0.000250494
14 *3607:A_N 0
15 *3608:A_N 7.27151e-05
16 *3637:X 9.62009e-05
17 *366:147 0.000509676
18 *366:145 0.000307912
19 *366:134 0.00071694
20 *366:113 0.000584131
21 *366:104 0.000181059
22 *366:94 0.00043103
23 *366:90 0.000309911
24 *366:83 0.00024631
25 *366:76 0.000139022
26 *366:70 0.000253187
27 *366:46 0.000498314
28 *366:42 0.000263515
29 *366:33 0.000149495
30 *366:25 0.000363186
31 *366:21 0.000252886
32 *366:12 0.000370059
33 *366:6 0.000241959
34 *3604:A_N *368:14 1.27408e-05
35 *3604:A_N *369:10 1.05441e-05
36 *3604:A_N *369:22 5.3304e-05
37 *3604:A_N *370:38 1.29315e-05
38 *3605:A_N *370:38 6.50262e-05
39 *3605:A_N *370:44 9.75779e-05
40 *3628:A_N *370:170 6.72184e-06
41 *3630:A_N *368:166 5.3304e-05
42 *3630:A_N *370:170 3.29364e-05
43 *366:21 *3608:B 0.00010655
44 *366:21 *370:23 1.56665e-05
45 *366:33 *370:38 4.95442e-05
46 *366:76 *3607:C 3.41998e-06
47 *366:90 *368:106 0.000203035
48 *366:94 *368:106 2.812e-05
49 *366:113 *368:106 1.21972e-05
50 *366:113 *368:113 3.54388e-05
51 *366:134 *368:113 5.50106e-05
52 *366:134 *368:130 0.000134497
53 *366:134 *368:137 0.000240121
54 *366:134 *369:24 2.79543e-05
55 *366:145 *3627:A_N 5.3304e-05
56 *366:145 *369:24 0.000175903
57 *366:145 *369:31 0.000509895
58 *366:145 *371:41 5.56279e-05
59 *447:DIODE *366:33 0.000188926
60 *3601:D *366:113 1.18137e-05
61 *3602:D *366:90 3.44001e-05
62 *3606:D *366:42 9.75779e-05
63 *3607:D *3605:A_N 0.000188926
64 *3626:D *366:145 0.000167432
65 *3627:D *366:134 2.69898e-06
66 *3627:D *366:145 1.55117e-05
67 *3628:D *3628:A_N 0.000100803
68 *3629:D *366:134 2.35426e-05
69 *61:19 *366:12 3.13247e-05
70 *113:55 *3628:A_N 6.60786e-05
71 *116:23 *3604:A_N 2.0835e-05
72 *118:19 *366:12 3.62558e-05
73 *119:47 *3630:A_N 0.000222898
74 *124:29 *3628:A_N 8.21123e-05
75 *124:29 *3630:A_N 0.000172869
76 *124:29 *366:145 8.99229e-05
77 *140:38 *366:134 1.79504e-05
78 *142:51 *366:104 0.000180035
79 *142:51 *366:113 9.5877e-05
80 *144:25 *366:12 0
81 *170:34 *3604:A_N 0.000196934
82 *170:34 *3605:A_N 0.000413806
83 *170:34 *366:76 1.06693e-05
84 *218:6 *3605:A_N 9.58714e-05
85 *278:18 *366:33 8.62876e-05
86 *300:22 *366:76 0.000113689
87 *312:14 *366:33 9.41704e-05
88 *312:14 *366:104 2.42898e-05
89 *312:26 *3628:A_N 6.56284e-05
90 *312:36 *366:145 3.7877e-05
91 *328:12 *366:6 4.54064e-05
92 *328:18 *3630:A_N 8.78112e-05
93 *334:20 *366:70 9.41704e-05
94 *336:12 *366:21 5.3304e-05
95 *336:12 *366:25 4.05745e-05
96 *336:12 *366:42 3.90708e-05
97 *336:12 *366:70 0.000221084
98 *336:12 *366:76 9.04807e-05
99 *336:12 *366:83 2.4431e-05
100 *336:12 *366:90 8.47908e-05
101 *337:6 *3604:A_N 5.3304e-05
102 *343:12 *366:134 0.000181125
103 *343:12 *366:145 1.21972e-05
104 *343:22 *366:12 2.13261e-05
105 *358:10 *366:134 2.16281e-05
106 *360:18 *3628:A_N 3.89965e-05
107 *363:12 *366:113 5.3304e-05
108 *363:22 *3628:A_N 0.000122339
109 *364:10 *366:90 6.08617e-05
110 *364:10 *366:94 9.77405e-05
111 *364:10 *366:113 0.000122599
112 *365:6 *3628:A_N 4.39607e-05
113 *365:6 *366:104 9.41704e-05
*RES
1 *3637:X *366:6 24.5743 
2 *366:6 *366:12 32.61 
3 *366:12 *3608:A_N 24.0979 
4 *366:12 *366:21 3.48 
5 *366:21 *366:25 1.595 
6 *366:25 *366:33 33.7079 
7 *366:33 *3607:A_N 23 
8 *366:25 *366:42 2.54786 
9 *366:42 *366:46 15.6214 
10 *366:46 *3605:A_N 44.8771 
11 *366:46 *3604:A_N 41.5836 
12 *366:42 *366:70 2.52714 
13 *366:70 *366:76 32.9621 
14 *366:76 *3603:A_N 23 
15 *366:70 *366:83 0.284821 
16 *366:83 *3602:A_N 23 
17 *366:83 *366:90 4.76946 
18 *366:90 *366:94 1.595 
19 *366:94 *366:104 33.5007 
20 *366:104 *3600:A_N 23 
21 *366:94 *366:113 3.85286 
22 *366:113 *3631:A_N 23 
23 *366:113 *366:134 9.715 
24 *366:134 *3629:A_N 23 
25 *366:134 *366:145 8.76214 
26 *366:145 *366:147 15 
27 *366:147 *3628:A_N 43.8414 
28 *366:147 *3630:A_N 43.1371 
29 *366:145 *3626:A_N 23 
30 *366:90 *3601:A_N 23 
31 *366:21 *3606:A_N 23 
32 *366:6 *3609:A_N 23 
*END

*D_NET *367 0.0431818
*CONN
*I *3627:A_N I *D sky130_fd_sc_hd__and4b_1
*I *3597:A I *D sky130_fd_sc_hd__clkinv_4
*I *3612:A_N I *D sky130_fd_sc_hd__and4b_1
*I *3619:A_N I *D sky130_fd_sc_hd__and4b_1
*I *3620:A_N I *D sky130_fd_sc_hd__and4b_1
*I *3621:A_N I *D sky130_fd_sc_hd__and4b_1
*I *3618:A_N I *D sky130_fd_sc_hd__and4b_1
*I *3617:A_N I *D sky130_fd_sc_hd__and4b_1
*I *3616:A_N I *D sky130_fd_sc_hd__and4b_1
*I *3615:A_N I *D sky130_fd_sc_hd__and4b_1
*I *3614:A_N I *D sky130_fd_sc_hd__and4b_1
*I *3613:A_N I *D sky130_fd_sc_hd__and4b_1
*I *3611:A_N I *D sky130_fd_sc_hd__and4b_1
*I *3610:A_N I *D sky130_fd_sc_hd__and4b_1
*I *3637:A I *D sky130_fd_sc_hd__clkbuf_2
*I *3638:X O *D sky130_fd_sc_hd__buf_4
*CAP
1 *3627:A_N 2.32701e-05
2 *3597:A 0
3 *3612:A_N 0
4 *3619:A_N 2.19437e-05
5 *3620:A_N 0.000164522
6 *3621:A_N 0.000400526
7 *3618:A_N 0
8 *3617:A_N 0
9 *3616:A_N 0
10 *3615:A_N 0
11 *3614:A_N 0
12 *3613:A_N 2.34823e-05
13 *3611:A_N 0
14 *3610:A_N 0
15 *3637:A 0
16 *3638:X 4.32077e-05
17 *367:213 0.000812088
18 *367:173 0.000565047
19 *367:171 0.000662013
20 *367:163 0.000826086
21 *367:156 0.000270209
22 *367:147 0.000213666
23 *367:140 0.0005192
24 *367:121 0.000665361
25 *367:112 0.000589619
26 *367:99 0.000591224
27 *367:95 0.000526578
28 *367:74 0.000488664
29 *367:59 0.00203142
30 *367:49 0.00395228
31 *367:43 0.00268433
32 *367:31 0.0027629
33 *367:18 0.00113565
34 *367:6 0.00251489
35 *3619:A_N *369:146 5.3304e-05
36 *3621:A_N *3621:C 0.000506682
37 *3621:A_N *369:153 0.00030734
38 *367:31 *3628:B 0.000165238
39 *367:31 *368:145 0.000429894
40 *367:31 *368:155 1.0898e-05
41 *367:31 *368:166 2.32992e-05
42 *367:31 *370:146 8.26142e-05
43 *367:31 *371:29 2.93165e-05
44 *367:43 *3628:B 4.64674e-05
45 *367:43 *3628:C 3.87221e-06
46 *367:43 *368:166 5.113e-06
47 *367:74 *371:63 3.06991e-05
48 *367:74 *371:70 0.000389336
49 *367:95 *371:79 0.000453653
50 *367:99 *369:83 0.000346612
51 *367:99 *371:79 4.77213e-05
52 *367:99 *371:86 7.53303e-06
53 *367:112 *369:83 2.32004e-05
54 *367:112 *371:102 0.000168609
55 *367:121 *371:102 0.000146822
56 *367:121 *371:109 0.000597805
57 *367:140 *369:117 3.30826e-05
58 *367:140 *369:132 0.000122129
59 *367:140 *371:109 0.00014196
60 *367:140 *371:118 0.000777129
61 *367:147 *369:132 0.000294145
62 *367:156 *369:132 0.000184527
63 *367:156 *369:139 0.000439203
64 *367:163 *369:139 0.000183504
65 *367:163 *369:146 0.000476518
66 *367:213 *371:52 0
67 *385:DIODE *367:74 5.67058e-05
68 *385:DIODE *367:95 5.50049e-05
69 *395:DIODE *367:95 1.59071e-05
70 *395:DIODE *367:99 0.000233359
71 *398:DIODE *367:112 3.22051e-05
72 *398:DIODE *367:121 7.34077e-05
73 *400:DIODE *367:140 5.59378e-06
74 *3610:D *367:74 0.000225245
75 *3611:D *367:95 0.000157758
76 *3613:D *3613:A_N 0
77 *3613:D *367:112 0.000204822
78 *3614:D *367:121 2.35426e-05
79 *3615:D *367:140 8.66657e-05
80 *3616:D *367:140 2.76954e-05
81 *3617:D *367:156 0.000197248
82 *3618:D *367:163 0.000195602
83 *3619:D *3619:A_N 6.17437e-06
84 *3827:A *367:49 5.3304e-05
85 *61:19 *367:18 6.99517e-05
86 *113:43 *367:43 0.0001618
87 *119:47 *367:31 0.000119491
88 *119:57 *367:18 0.00107597
89 *120:22 *3621:A_N 0.000816346
90 *121:50 *367:140 0.000224956
91 *121:50 *367:147 0.000520792
92 *121:50 *367:156 0.000231431
93 *121:50 *367:163 1.56446e-05
94 *124:29 *3627:A_N 5.3304e-05
95 *127:25 *367:147 0.000113661
96 *130:63 *367:171 0.000121976
97 *131:60 *3620:A_N 5.02454e-05
98 *131:60 *3621:A_N 0.000124066
99 *135:27 *367:43 0.000444827
100 *135:27 *367:59 4.89323e-05
101 *141:15 *367:49 0.000173494
102 *145:16 *367:43 0.00019858
103 *151:14 *367:171 4.8927e-05
104 *161:8 *367:49 1.40183e-05
105 *170:52 *367:18 0.000309111
106 *170:54 *367:31 0.000377385
107 *180:8 *367:43 3.30774e-05
108 *181:46 *367:43 0
109 *238:8 *367:18 9.28078e-06
110 *244:24 *367:171 0.000152873
111 *244:32 *3620:A_N 6.70361e-05
112 *244:32 *367:171 5.61255e-06
113 *247:12 *367:140 5.64492e-05
114 *300:24 *367:213 0.000520195
115 *312:26 *367:43 0.000286136
116 *312:36 *367:43 0.000192373
117 *312:46 *367:59 0.000210316
118 *312:46 *367:74 0.000100069
119 *316:26 *367:213 0.000279355
120 *318:8 *367:43 0.0001868
121 *318:8 *367:59 0.000210316
122 *318:14 *367:74 1.89561e-05
123 *318:14 *367:95 0.000137362
124 *319:6 *367:49 0.000794198
125 *319:18 *367:49 2.31311e-05
126 *319:18 *367:59 0.00128955
127 *327:57 *367:18 0.000154942
128 *327:63 *367:31 2.07312e-05
129 *329:56 *367:31 1.00084e-05
130 *332:20 *367:31 7.57281e-06
131 *332:24 *367:31 9.77405e-05
132 *332:30 *367:213 0
133 *337:40 *367:95 2.71291e-05
134 *338:8 *367:74 0.000449558
135 *338:8 *367:95 8.264e-05
136 *340:10 *367:95 0.000240024
137 *341:10 *367:99 0.000445374
138 *341:10 *367:112 0.00012612
139 *342:12 *367:112 0.000236131
140 *344:8 *367:121 0.000234304
141 *344:8 *367:140 0.000211521
142 *345:10 *367:140 8.48502e-06
143 *346:10 *367:140 3.41998e-06
144 *348:8 *3619:A_N 1.03836e-05
145 *348:8 *367:163 0.000146619
146 *363:28 *367:43 1.00084e-05
147 *365:22 *367:49 5.11813e-05
148 *366:145 *3627:A_N 5.3304e-05
*RES
1 *3638:X *367:6 23.8493 
2 *367:6 *367:18 36.3783 
3 *367:18 *3637:A 38 
4 *367:6 *367:31 34.6371 
5 *367:31 *367:43 38.2249 
6 *367:43 *367:49 34.8339 
7 *367:49 *367:59 36.2715 
8 *367:59 *3610:A_N 23 
9 *367:59 *367:74 9.52857 
10 *367:74 *3611:A_N 23 
11 *367:74 *367:95 40.0257 
12 *367:95 *367:99 9.09357 
13 *367:99 *3613:A_N 23.4971 
14 *367:99 *367:112 8.88643 
15 *367:112 *3614:A_N 23 
16 *367:112 *367:121 8.74143 
17 *367:121 *3615:A_N 23 
18 *367:121 *367:140 43.92 
19 *367:140 *3616:A_N 23 
20 *367:140 *367:147 5.86214 
21 *367:147 *3617:A_N 23 
22 *367:147 *367:156 7.31214 
23 *367:156 *3618:A_N 23 
24 *367:156 *367:163 7.29143 
25 *367:163 *367:171 38.7207 
26 *367:171 *367:173 15 
27 *367:173 *3621:A_N 49.1029 
28 *367:173 *3620:A_N 40.4236 
29 *367:163 *3619:A_N 23.6214 
30 *367:95 *3612:A_N 23 
31 *367:49 *367:213 29.6346 
32 *367:213 *3597:A 23 
33 *367:31 *3627:A_N 38.6214 
*END

*D_NET *368 0.0154853
*CONN
*I *3629:C I *D sky130_fd_sc_hd__and4b_1
*I *3626:C I *D sky130_fd_sc_hd__and4b_1
*I *3628:C I *D sky130_fd_sc_hd__and4b_1
*I *3630:C I *D sky130_fd_sc_hd__and4b_1
*I *3631:C I *D sky130_fd_sc_hd__and4b_1
*I *3600:C I *D sky130_fd_sc_hd__and4b_1
*I *3601:C I *D sky130_fd_sc_hd__and4b_1
*I *3602:C I *D sky130_fd_sc_hd__and4b_1
*I *3603:C I *D sky130_fd_sc_hd__and4b_1
*I *3607:C I *D sky130_fd_sc_hd__and4b_2
*I *3605:C I *D sky130_fd_sc_hd__and4b_1
*I *3604:C I *D sky130_fd_sc_hd__and4b_1
*I *3609:C I *D sky130_fd_sc_hd__and4b_2
*I *3606:C I *D sky130_fd_sc_hd__and4b_2
*I *3608:C I *D sky130_fd_sc_hd__and4b_2
*I *3639:X O *D sky130_fd_sc_hd__clkbuf_2
*CAP
1 *3629:C 0
2 *3626:C 0
3 *3628:C 0.000240868
4 *3630:C 0
5 *3631:C 0
6 *3600:C 0
7 *3601:C 0
8 *3602:C 0
9 *3603:C 0
10 *3607:C 0.000115135
11 *3605:C 0.000105621
12 *3604:C 7.82984e-05
13 *3609:C 0.000192675
14 *3606:C 0
15 *3608:C 0.000331
16 *3639:X 0
17 *368:166 0.000528465
18 *368:155 0.000468099
19 *368:145 0.000540977
20 *368:137 0.000609733
21 *368:130 0.000330175
22 *368:121 0.000351793
23 *368:113 0.000520578
24 *368:106 0.000299172
25 *368:95 0.000211303
26 *368:66 0.000473658
27 *368:58 0.000403436
28 *368:56 0.000397076
29 *368:41 0.000695579
30 *368:14 0.000431902
31 *368:10 0.000406853
32 *368:4 0.000484014
33 *3604:C *369:22 5.3304e-05
34 *3607:C *3607:B 6.17437e-06
35 *3608:C *3608:B 0.000139352
36 *3608:C *370:23 0.000219383
37 *3608:C *370:30 5.3304e-05
38 *3609:C *3609:B 5.3304e-05
39 *3628:C *3628:B 0
40 *3628:C *370:170 1.05441e-05
41 *368:106 *370:101 0.000300099
42 *368:106 *370:108 4.17736e-05
43 *368:113 *3631:B 8.34394e-05
44 *368:113 *370:108 0.000137651
45 *368:121 *3600:B 0.00029076
46 *368:130 *3631:B 9.58714e-05
47 *368:145 *3629:B 0.000124902
48 *368:145 *370:142 7.71594e-05
49 *368:155 *370:146 5.73834e-05
50 *368:166 *370:170 0.000219999
51 *368:166 *371:29 7.81607e-05
52 *368:166 *371:41 3.9152e-05
53 *482:DIODE *368:121 3.39102e-05
54 *3601:D *368:113 1.16872e-05
55 *3602:D *368:106 6.77098e-05
56 *3604:A_N *368:14 1.27408e-05
57 *3607:D *3607:C 5.50049e-05
58 *3628:D *3628:C 0.000179072
59 *3630:A_N *368:166 5.3304e-05
60 *3630:D *368:155 0.000115895
61 *115:97 *3605:C 1.14452e-05
62 *116:23 *3609:C 5.3304e-05
63 *116:23 *368:10 0.000106645
64 *116:23 *368:14 3.18198e-05
65 *116:27 *368:14 7.68979e-05
66 *119:47 *368:166 2.02872e-05
67 *138:56 *368:145 0.000295144
68 *141:19 *368:121 1.12695e-05
69 *142:51 *368:106 2.64616e-05
70 *142:51 *368:113 2.02872e-05
71 *143:63 *3604:C 4.30894e-05
72 *143:63 *368:41 8.31022e-05
73 *144:46 *3605:C 5.15861e-05
74 *170:34 *3605:C 0.000203474
75 *170:34 *3607:C 1.23172e-05
76 *170:54 *368:145 0.000429894
77 *278:10 *3604:C 9.28078e-06
78 *278:10 *368:56 0.000113522
79 *278:10 *368:58 0.000160634
80 *312:14 *3607:C 0.000221992
81 *312:26 *3628:C 1.37747e-05
82 *312:26 *368:121 0.000114198
83 *315:24 *368:121 4.31723e-05
84 *317:26 *368:66 4.36559e-05
85 *327:38 *368:10 4.47036e-05
86 *327:38 *368:14 9.23705e-06
87 *328:12 *3609:C 5.47875e-05
88 *328:12 *368:10 5.3304e-05
89 *328:12 *368:41 0.000332159
90 *328:18 *368:166 0.00021677
91 *332:20 *368:155 4.30894e-05
92 *334:20 *368:66 0.000100362
93 *335:10 *3607:C 4.67488e-05
94 *336:12 *368:58 1.88972e-05
95 *336:12 *368:66 1.70308e-05
96 *336:28 *368:66 9.28078e-06
97 *337:6 *3609:C 7.25443e-05
98 *355:20 *368:121 9.03851e-06
99 *360:18 *3628:C 1.79662e-05
100 *365:6 *3628:C 0.000229797
101 *366:76 *3607:C 3.41998e-06
102 *366:90 *368:106 0.000203035
103 *366:94 *368:106 2.812e-05
104 *366:113 *368:106 1.21972e-05
105 *366:113 *368:113 3.54388e-05
106 *366:134 *368:113 5.50106e-05
107 *366:134 *368:130 0.000134497
108 *366:134 *368:137 0.000240121
109 *367:31 *368:145 0.000429894
110 *367:31 *368:155 1.0898e-05
111 *367:31 *368:166 2.32992e-05
112 *367:43 *3628:C 3.87221e-06
113 *367:43 *368:166 5.113e-06
*RES
1 *3639:X *368:4 23 
2 *368:4 *368:10 17.175 
3 *368:10 *368:14 16.5536 
4 *368:14 *3608:C 27.4329 
5 *368:14 *3606:C 23 
6 *368:10 *3609:C 41.48 
7 *368:4 *368:41 20.3339 
8 *368:41 *3604:C 39.2946 
9 *368:41 *368:56 3.53179 
10 *368:56 *368:58 2.96214 
11 *368:58 *368:66 17.2444 
12 *368:66 *3605:C 40.7861 
13 *368:66 *3607:C 40.8482 
14 *368:58 *3603:C 38 
15 *368:56 *368:95 15 
16 *368:95 *3602:C 23 
17 *368:95 *368:106 5.55143 
18 *368:106 *3601:C 23 
19 *368:106 *368:113 2.52714 
20 *368:113 *368:121 34.9921 
21 *368:121 *3600:C 23 
22 *368:113 *368:130 2.07143 
23 *368:130 *3631:C 23 
24 *368:130 *368:137 3.48 
25 *368:137 *368:145 39.28 
26 *368:145 *368:155 33.0243 
27 *368:155 *3630:C 23 
28 *368:155 *368:166 20.8414 
29 *368:166 *3628:C 43.2821 
30 *368:166 *3626:C 38 
31 *368:137 *3629:C 23 
*END

*D_NET *369 0.0385599
*CONN
*I *3639:A I *D sky130_fd_sc_hd__clkbuf_2
*I *3613:C I *D sky130_fd_sc_hd__and4b_1
*I *3621:C I *D sky130_fd_sc_hd__and4b_1
*I *3620:C I *D sky130_fd_sc_hd__and4b_1
*I *3619:C I *D sky130_fd_sc_hd__and4b_1
*I *3618:C I *D sky130_fd_sc_hd__and4b_1
*I *3617:C I *D sky130_fd_sc_hd__and4b_1
*I *3616:C I *D sky130_fd_sc_hd__and4b_1
*I *3615:C I *D sky130_fd_sc_hd__and4b_1
*I *3614:C I *D sky130_fd_sc_hd__and4b_1
*I *3612:C I *D sky130_fd_sc_hd__and4b_1
*I *3611:C I *D sky130_fd_sc_hd__and4b_1
*I *3610:C I *D sky130_fd_sc_hd__and4b_1
*I *3599:B I *D sky130_fd_sc_hd__and2_4
*I *3627:C I *D sky130_fd_sc_hd__and4b_1
*I *3640:X O *D sky130_fd_sc_hd__clkbuf_4
*CAP
1 *3639:A 0
2 *3613:C 3.0693e-05
3 *3621:C 0.000206143
4 *3620:C 0
5 *3619:C 0
6 *3618:C 0
7 *3617:C 0
8 *3616:C 0
9 *3615:C 0
10 *3614:C 0
11 *3612:C 0
12 *3611:C 0
13 *3610:C 0
14 *3599:B 0
15 *3627:C 0
16 *3640:X 0.000183413
17 *369:159 0.000117805
18 *369:153 0.000560218
19 *369:146 0.000357434
20 *369:139 0.000226054
21 *369:132 0.000331034
22 *369:117 0.000798743
23 *369:104 0.00111814
24 *369:97 0.00156005
25 *369:83 0.00125395
26 *369:72 0.00115699
27 *369:51 0.00145425
28 *369:44 0.00264883
29 *369:37 2.06403e-05
30 *369:31 0.00424077
31 *369:24 0.00232288
32 *369:22 0.00128452
33 *369:12 0.00103895
34 *369:10 0.000183413
35 *3613:C *3613:B 6.17437e-06
36 *3621:C *3621:B 0.000644387
37 *369:10 *3641:A 1.59094e-05
38 *369:22 *3629:B 0.000104454
39 *369:22 *370:127 0.000562085
40 *369:37 *371:52 6.26687e-05
41 *369:44 *371:63 0.0028953
42 *369:44 *371:70 5.56356e-05
43 *369:51 *371:70 0.000696194
44 *369:51 *371:79 5.50049e-05
45 *369:72 *371:79 4.08664e-05
46 *369:83 *3613:B 2.18409e-05
47 *369:83 *371:86 0.00034272
48 *369:104 *371:109 0.000694099
49 *369:104 *371:118 5.67058e-05
50 *369:117 *371:118 0.000692788
51 *369:132 *371:125 0.000753883
52 *369:132 *371:132 4.34745e-05
53 *369:139 *371:132 0.000579843
54 *369:139 *371:139 4.2573e-05
55 *369:146 *371:139 0.000660138
56 *369:146 *371:146 4.34745e-05
57 *369:153 *3621:B 4.21048e-05
58 *369:153 *371:146 0.000643471
59 *369:159 *371:152 7.89973e-05
60 *395:DIODE *369:72 4.80465e-05
61 *3604:A_N *369:10 1.05441e-05
62 *3604:A_N *369:22 5.3304e-05
63 *3604:C *369:22 5.3304e-05
64 *3604:D *369:22 0.00019207
65 *3612:D *369:83 2.35426e-05
66 *3613:D *3613:C 4.17736e-05
67 *3613:D *369:83 9.84851e-05
68 *3616:D *369:117 9.28078e-06
69 *3619:A_N *369:146 5.3304e-05
70 *3619:D *369:146 6.87362e-05
71 *3619:D *369:153 1.74103e-05
72 *3621:A_N *3621:C 0.000506682
73 *3621:A_N *369:153 0.00030734
74 *3621:D *3621:C 0.000140308
75 *116:23 *369:10 0.000150887
76 *120:22 *3621:C 1.56446e-05
77 *120:22 *369:153 0.000111921
78 *121:50 *369:132 0.000108585
79 *123:27 *369:97 1.09886e-05
80 *135:27 *369:72 0.000195231
81 *135:27 *369:97 0.000182497
82 *148:48 *369:146 0.000106671
83 *170:34 *369:10 5.67051e-05
84 *187:14 *369:31 5.50106e-05
85 *236:38 *369:117 0
86 *247:12 *369:117 0
87 *247:12 *369:132 2.51583e-05
88 *278:10 *369:22 0.000222898
89 *306:32 *369:159 2.71494e-05
90 *312:36 *369:31 0.00118267
91 *312:46 *369:31 6.40359e-05
92 *312:46 *369:44 1.10658e-05
93 *320:26 *369:72 0
94 *322:26 *369:97 2.11157e-05
95 *328:12 *369:22 9.37559e-06
96 *328:16 *369:22 2.02872e-05
97 *329:46 *369:22 0.000135037
98 *332:30 *369:37 6.33258e-05
99 *337:6 *369:22 0.000338411
100 *337:40 *369:72 4.56255e-05
101 *348:8 *369:153 1.33173e-05
102 *349:8 *369:153 1.57571e-05
103 *366:134 *369:24 2.79543e-05
104 *366:145 *369:24 0.000175903
105 *366:145 *369:31 0.000509895
106 *367:99 *369:83 0.000346612
107 *367:112 *369:83 2.32004e-05
108 *367:140 *369:117 3.30826e-05
109 *367:140 *369:132 0.000122129
110 *367:147 *369:132 0.000294145
111 *367:156 *369:132 0.000184527
112 *367:156 *369:139 0.000439203
113 *367:163 *369:139 0.000183504
114 *367:163 *369:146 0.000476518
*RES
1 *3640:X *369:10 40.8793 
2 *369:10 *369:12 15 
3 *369:12 *369:22 49.3471 
4 *369:22 *369:24 3.00357 
5 *369:24 *3627:C 23 
6 *369:24 *369:31 31.5893 
7 *369:31 *369:37 30.8493 
8 *369:37 *3599:B 23 
9 *369:31 *369:44 33.0186 
10 *369:44 *3610:C 23 
11 *369:44 *369:51 8.24429 
12 *369:51 *3611:C 23 
13 *369:51 *369:72 49.3977 
14 *369:72 *3612:C 23 
15 *369:72 *369:83 8.41 
16 *369:83 *369:97 48.5959 
17 *369:97 *3614:C 23 
18 *369:97 *369:104 8.24429 
19 *369:104 *3615:C 23 
20 *369:104 *369:117 38.9693 
21 *369:117 *3616:C 23 
22 *369:117 *369:132 40.6679 
23 *369:132 *3617:C 23 
24 *369:132 *369:139 6.815 
25 *369:139 *3618:C 23 
26 *369:139 *369:146 7.76786 
27 *369:146 *3619:C 23 
28 *369:146 *369:153 7.76786 
29 *369:153 *369:159 31.9057 
30 *369:159 *3620:C 23 
31 *369:153 *3621:C 30.7679 
32 *369:83 *3613:C 23.6214 
33 *369:12 *3639:A 23 
*END

*D_NET *370 0.0162716
*CONN
*I *3609:B I *D sky130_fd_sc_hd__and4b_2
*I *3631:B I *D sky130_fd_sc_hd__and4b_1
*I *3626:B I *D sky130_fd_sc_hd__and4b_1
*I *3630:B I *D sky130_fd_sc_hd__and4b_1
*I *3628:B I *D sky130_fd_sc_hd__and4b_1
*I *3629:B I *D sky130_fd_sc_hd__and4b_1
*I *3600:B I *D sky130_fd_sc_hd__and4b_1
*I *3601:B I *D sky130_fd_sc_hd__and4b_1
*I *3602:B I *D sky130_fd_sc_hd__and4b_1
*I *3604:B I *D sky130_fd_sc_hd__and4b_1
*I *3607:B I *D sky130_fd_sc_hd__and4b_2
*I *3605:B I *D sky130_fd_sc_hd__and4b_1
*I *3603:B I *D sky130_fd_sc_hd__and4b_1
*I *3606:B I *D sky130_fd_sc_hd__and4b_2
*I *3608:B I *D sky130_fd_sc_hd__and4b_2
*I *3641:X O *D sky130_fd_sc_hd__clkbuf_2
*CAP
1 *3609:B 9.07038e-05
2 *3631:B 0.00014896
3 *3626:B 0
4 *3630:B 0
5 *3628:B 0.000362179
6 *3629:B 9.49508e-05
7 *3600:B 0.000248449
8 *3601:B 0
9 *3602:B 0
10 *3604:B 0
11 *3607:B 5.61645e-05
12 *3605:B 2.00578e-05
13 *3603:B 0
14 *3606:B 0
15 *3608:B 5.17319e-05
16 *3641:X 0.00016032
17 *370:170 0.000427689
18 *370:146 0.000410388
19 *370:142 0.000960968
20 *370:127 0.000868925
21 *370:110 0.000537354
22 *370:108 0.000298945
23 *370:101 0.000499311
24 *370:94 0.000463484
25 *370:87 5.7038e-05
26 *370:81 0.000418929
27 *370:56 0.000486377
28 *370:44 0.000717992
29 *370:38 0.000519177
30 *370:30 0.000541513
31 *370:23 0.000120964
32 *370:14 0.000222223
33 *370:10 0.000342875
34 *3628:B *371:41 4.8529e-05
35 *370:170 *371:29 1.93308e-05
36 *388:DIODE *370:81 5.50106e-05
37 *388:DIODE *370:94 4.17736e-05
38 *447:DIODE *370:38 4.99753e-06
39 *447:DIODE *370:44 6.7177e-06
40 *447:DIODE *370:56 0
41 *3602:D *370:94 9.67842e-05
42 *3602:D *370:101 9.61386e-05
43 *3604:A_N *370:38 1.29315e-05
44 *3605:A_N *370:38 6.50262e-05
45 *3605:A_N *370:44 9.75779e-05
46 *3606:D *370:38 4.45778e-05
47 *3607:C *3607:B 6.17437e-06
48 *3607:D *370:38 1.83667e-05
49 *3607:D *370:44 9.04083e-05
50 *3608:C *3608:B 0.000139352
51 *3608:C *370:23 0.000219383
52 *3608:C *370:30 5.3304e-05
53 *3609:C *3609:B 5.3304e-05
54 *3628:A_N *370:170 6.72184e-06
55 *3628:C *3628:B 0
56 *3628:C *370:170 1.05441e-05
57 *3630:A_N *370:170 3.29364e-05
58 *3630:D *3628:B 2.75733e-06
59 *3630:D *370:146 3.58255e-06
60 *64:28 *3600:B 9.96021e-06
61 *115:97 *370:56 1.16872e-05
62 *116:27 *370:38 1.34336e-05
63 *118:19 *370:10 0.000239649
64 *118:19 *370:14 3.32226e-05
65 *119:57 *370:10 7.71315e-05
66 *124:29 *370:170 0
67 *124:44 *3628:B 5.82622e-06
68 *142:37 *3600:B 3.36732e-05
69 *142:37 *370:127 4.70451e-05
70 *143:63 *370:87 7.89973e-05
71 *144:25 *370:10 6.58998e-05
72 *144:25 *370:14 9.9437e-05
73 *144:46 *370:56 5.3304e-05
74 *218:6 *370:44 4.36915e-05
75 *218:6 *370:56 4.89908e-05
76 *278:18 *370:38 0.000129504
77 *278:18 *370:44 0.000161121
78 *300:22 *370:87 7.89973e-05
79 *312:14 *3607:B 1.21972e-05
80 *312:26 *370:170 4.77164e-06
81 *315:24 *3600:B 4.24694e-06
82 *315:24 *370:127 1.34487e-05
83 *315:32 *370:170 1.01436e-05
84 *328:12 *3609:B 8.06804e-06
85 *328:16 *370:127 0.000562085
86 *328:16 *370:142 0.000171188
87 *328:18 *370:142 0.000138607
88 *328:18 *370:170 0.000206946
89 *329:46 *370:127 2.23143e-05
90 *331:14 *3628:B 5.39408e-05
91 *333:12 *370:56 0.000137651
92 *336:12 *370:23 0.000178517
93 *336:12 *370:30 8.34394e-05
94 *336:12 *370:81 0.000105759
95 *336:28 *370:56 0.000208926
96 *363:12 *3600:B 0.000202212
97 *366:21 *3608:B 0.00010655
98 *366:21 *370:23 1.56665e-05
99 *366:33 *370:38 4.95442e-05
100 *367:31 *3628:B 0.000165238
101 *367:31 *370:146 8.26142e-05
102 *367:43 *3628:B 4.64674e-05
103 *368:106 *370:101 0.000300099
104 *368:106 *370:108 4.17736e-05
105 *368:113 *3631:B 8.34394e-05
106 *368:113 *370:108 0.000137651
107 *368:121 *3600:B 0.00029076
108 *368:130 *3631:B 9.58714e-05
109 *368:145 *3629:B 0.000124902
110 *368:145 *370:142 7.71594e-05
111 *368:155 *370:146 5.73834e-05
112 *368:166 *370:170 0.000219999
113 *369:22 *3629:B 0.000104454
114 *369:22 *370:127 0.000562085
*RES
1 *3641:X *370:10 41.9357 
2 *370:10 *370:14 16.5536 
3 *370:14 *3608:B 25.0507 
4 *370:14 *370:23 2.52714 
5 *370:23 *3606:B 23 
6 *370:23 *370:30 1.09786 
7 *370:30 *370:38 20.1371 
8 *370:38 *370:44 19.6607 
9 *370:44 *370:56 37.5607 
10 *370:56 *3603:B 23 
11 *370:44 *3605:B 23.4971 
12 *370:38 *3607:B 38.6214 
13 *370:30 *370:81 3.50071 
14 *370:81 *370:87 31.2014 
15 *370:87 *3604:B 23 
16 *370:81 *370:94 1.57429 
17 *370:94 *3602:B 23 
18 *370:94 *370:101 4.90929 
19 *370:101 *3601:B 23 
20 *370:101 *370:108 2.05071 
21 *370:108 *370:110 15 
22 *370:110 *3600:B 42.7229 
23 *370:110 *370:127 38.2443 
24 *370:127 *3629:B 39.9057 
25 *370:127 *370:142 21.5871 
26 *370:142 *370:146 16.2014 
27 *370:146 *3628:B 43.4271 
28 *370:146 *3630:B 38 
29 *370:142 *370:170 36.5457 
30 *370:170 *3626:B 23 
31 *370:108 *3631:B 25.0507 
32 *370:10 *3609:B 39.0979 
*END

*D_NET *371 0.0396339
*CONN
*I *3613:B I *D sky130_fd_sc_hd__and4b_1
*I *3621:B I *D sky130_fd_sc_hd__and4b_1
*I *3620:B I *D sky130_fd_sc_hd__and4b_1
*I *3619:B I *D sky130_fd_sc_hd__and4b_1
*I *3618:B I *D sky130_fd_sc_hd__and4b_1
*I *3617:B I *D sky130_fd_sc_hd__and4b_1
*I *3616:B I *D sky130_fd_sc_hd__and4b_1
*I *3615:B I *D sky130_fd_sc_hd__and4b_1
*I *3614:B I *D sky130_fd_sc_hd__and4b_1
*I *3612:B I *D sky130_fd_sc_hd__and4b_1
*I *3611:B I *D sky130_fd_sc_hd__and4b_1
*I *3610:B I *D sky130_fd_sc_hd__and4b_1
*I *3599:A I *D sky130_fd_sc_hd__and2_4
*I *3627:B I *D sky130_fd_sc_hd__and4b_1
*I *3641:A I *D sky130_fd_sc_hd__clkbuf_2
*I *3642:X O *D sky130_fd_sc_hd__clkbuf_4
*CAP
1 *3613:B 4.89647e-05
2 *3621:B 0.00055557
3 *3620:B 0
4 *3619:B 0
5 *3618:B 0
6 *3617:B 0
7 *3616:B 0
8 *3615:B 0
9 *3614:B 0
10 *3612:B 0
11 *3611:B 0
12 *3610:B 0
13 *3599:A 0
14 *3627:B 0
15 *3641:A 0.000476501
16 *3642:X 0
17 *371:152 8.34056e-05
18 *371:146 0.00119251
19 *371:139 0.00103552
20 *371:132 0.000902195
21 *371:125 0.000968184
22 *371:118 0.000736503
23 *371:109 0.000364201
24 *371:102 0.000577424
25 *371:94 0.000704435
26 *371:86 0.000878019
27 *371:79 0.000906809
28 *371:70 0.000509951
29 *371:63 0.000814772
30 *371:54 0.00068526
31 *371:52 0.00198631
32 *371:41 0.000326893
33 *371:31 0.0023132
34 *371:29 0.00153985
35 *371:4 0.00201635
36 *385:DIODE *371:70 9.84794e-05
37 *3611:D *371:70 9.84851e-05
38 *3611:D *371:79 9.61603e-05
39 *3612:D *371:86 2.35426e-05
40 *3613:C *3613:B 6.17437e-06
41 *3621:C *3621:B 0.000644387
42 *3628:B *371:41 4.8529e-05
43 *3630:D *371:41 6.17437e-06
44 *3642:A *3641:A 5.56356e-05
45 *114:17 *371:29 0
46 *119:33 *371:94 8.51239e-05
47 *119:47 *371:29 0.000117259
48 *119:47 *371:41 5.52998e-05
49 *119:47 *371:52 0.0026206
50 *119:57 *371:29 2.77796e-05
51 *123:27 *371:94 0.000124075
52 *124:29 *371:29 0
53 *124:29 *371:41 5.79559e-05
54 *143:59 *371:29 0
55 *164:26 *371:94 0.00014317
56 *170:42 *3641:A 8.59731e-05
57 *170:52 *371:29 4.19559e-05
58 *192:14 *371:63 0.000610665
59 *214:24 *371:102 5.97021e-05
60 *244:14 *371:94 5.3304e-05
61 *244:20 *371:94 0.000142011
62 *312:36 *371:63 0
63 *312:46 *371:63 0.00133622
64 *315:32 *371:29 2.87833e-05
65 *318:14 *371:79 9.24795e-06
66 *322:26 *371:94 3.32226e-05
67 *327:57 *3641:A 0.000269781
68 *327:57 *371:29 0.000270343
69 *328:18 *371:41 6.22878e-06
70 *329:56 *371:29 0.000118869
71 *332:30 *371:52 2.4917e-05
72 *337:18 *371:29 0.00105745
73 *359:14 *371:41 5.3025e-05
74 *366:145 *371:41 5.56279e-05
75 *367:31 *371:29 2.93165e-05
76 *367:74 *371:63 3.06991e-05
77 *367:74 *371:70 0.000389336
78 *367:95 *371:79 0.000453653
79 *367:99 *371:79 4.77213e-05
80 *367:99 *371:86 7.53303e-06
81 *367:112 *371:102 0.000168609
82 *367:121 *371:102 0.000146822
83 *367:121 *371:109 0.000597805
84 *367:140 *371:109 0.00014196
85 *367:140 *371:118 0.000777129
86 *367:213 *371:52 0
87 *368:166 *371:29 7.81607e-05
88 *368:166 *371:41 3.9152e-05
89 *369:10 *3641:A 1.59094e-05
90 *369:37 *371:52 6.26687e-05
91 *369:44 *371:63 0.0028953
92 *369:44 *371:70 5.56356e-05
93 *369:51 *371:70 0.000696194
94 *369:51 *371:79 5.50049e-05
95 *369:72 *371:79 4.08664e-05
96 *369:83 *3613:B 2.18409e-05
97 *369:83 *371:86 0.00034272
98 *369:104 *371:109 0.000694099
99 *369:104 *371:118 5.67058e-05
100 *369:117 *371:118 0.000692788
101 *369:132 *371:125 0.000753883
102 *369:132 *371:132 4.34745e-05
103 *369:139 *371:132 0.000579843
104 *369:139 *371:139 4.2573e-05
105 *369:146 *371:139 0.000660138
106 *369:146 *371:146 4.34745e-05
107 *369:153 *3621:B 4.21048e-05
108 *369:153 *371:146 0.000643471
109 *369:159 *371:152 7.89973e-05
110 *370:170 *371:29 1.93308e-05
*RES
1 *3642:X *371:4 23 
2 *371:4 *3641:A 32.3836 
3 *371:4 *371:29 39.6248 
4 *371:29 *371:31 15 
5 *371:31 *371:41 35.0543 
6 *371:41 *3627:B 23 
7 *371:31 *371:52 45.6364 
8 *371:52 *371:54 15 
9 *371:54 *3599:A 23 
10 *371:54 *371:63 32.5629 
11 *371:63 *3610:B 23 
12 *371:63 *371:70 8.24429 
13 *371:70 *3611:B 23 
14 *371:70 *371:79 8.74143 
15 *371:79 *3612:B 23 
16 *371:79 *371:86 7.76786 
17 *371:86 *371:94 35.8621 
18 *371:94 *371:102 37.1671 
19 *371:102 *3614:B 23 
20 *371:102 *371:109 8.24429 
21 *371:109 *3615:B 23 
22 *371:109 *371:118 9.21786 
23 *371:118 *3616:B 23 
24 *371:118 *371:125 8.72071 
25 *371:125 *3617:B 23 
26 *371:125 *371:132 6.815 
27 *371:132 *3618:B 23 
28 *371:132 *371:139 7.76786 
29 *371:139 *3619:B 23 
30 *371:139 *371:146 7.76786 
31 *371:146 *371:152 31.2014 
32 *371:152 *3620:B 23 
33 *371:146 *3621:B 30.7679 
34 *371:86 *3613:B 23.6214 
*END

*D_NET *372 0.0551412
*CONN
*I *3749:A I *D sky130_fd_sc_hd__dlygate4sd3_1
*I *3840:X O *D sky130_fd_sc_hd__buf_4
*CAP
1 *3749:A 7.91458e-05
2 *3840:X 0.000100879
3 *372:24 0.00406076
4 *372:14 0.0099686
5 *372:10 0.00608786
6 *113:27 *372:14 0.00239734
7 *134:11 *372:24 0.00108703
8 *141:15 *372:14 0.00532886
9 *148:58 *372:24 0.00768868
10 *223:8 *3749:A 2.81066e-05
11 *258:18 *372:14 0.00186176
12 *270:34 *372:14 0
13 *270:36 *372:24 0.000288272
14 *306:58 *372:24 0.0014448
15 *308:16 *372:24 0.000493522
16 *339:28 *372:14 1.96616e-05
17 *339:38 *372:24 3.94852e-05
18 *350:14 *372:14 0.0141309
19 *364:26 *372:10 3.55303e-05
*RES
1 *3840:X *372:10 47.3775 
2 *372:10 *372:14 35.9197 
3 *372:14 *372:24 39.0822 
4 *372:24 *3749:A 39.0979 
*END

*D_NET *373 0.00173469
*CONN
*I *3781:SM I *D CF_SRAM_1024x32
*I *3782:LO O *D sky130_fd_sc_hd__conb_1
*CAP
1 *3781:SM 0.000867343
2 *3782:LO 0.000867343
3 *3781:SM *3781:ScanInDR 0
4 *3781:SM *379:8 0
*RES
1 *3782:LO *3781:SM 36.1898 
*END

*D_NET *374 0.00243957
*CONN
*I *3781:ScanInCC I *D CF_SRAM_1024x32
*I *3783:LO O *D sky130_fd_sc_hd__conb_1
*CAP
1 *3781:ScanInCC 0.000671233
2 *3783:LO 0.000671233
3 *3781:AD[3] *3781:ScanInCC 0.00108388
4 *113:9 *3781:ScanInCC 0
5 *226:25 *3781:ScanInCC 1.32314e-05
*RES
1 *3783:LO *3781:ScanInCC 36.1432 
*END

*D_NET *375 0.00201129
*CONN
*I *3781:ScanInDL I *D CF_SRAM_1024x32
*I *3784:LO O *D sky130_fd_sc_hd__conb_1
*CAP
1 *3781:ScanInDL 0.000933601
2 *3784:LO 0.000933601
3 *3781:DI[0] *3781:ScanInDL 0.000144085
4 *113:9 *3781:ScanInDL 0
*RES
1 *3784:LO *3781:ScanInDL 36.9925 
*END

*D_NET *376 0.00210273
*CONN
*I *3781:ScanInDR I *D CF_SRAM_1024x32
*I *3785:LO O *D sky130_fd_sc_hd__conb_1
*CAP
1 *3781:ScanInDR 0.000749493
2 *3785:LO 0.000749493
3 *3781:SM *3781:ScanInDR 0
4 *120:16 *3781:ScanInDR 0.000603747
*RES
1 *3785:LO *3781:ScanInDR 37.2514 
*END

*D_NET *377 0.00302079
*CONN
*I *3781:TM I *D CF_SRAM_1024x32
*I *3786:LO O *D sky130_fd_sc_hd__conb_1
*CAP
1 *3781:TM 0.000197244
2 *3786:LO 0.000581262
3 *377:10 0.000778506
4 *3781:TM *3781:WLBI 1.75018e-05
5 *3781:DI[17] *377:10 0.000264773
6 *121:20 *377:10 0.000960633
7 *248:27 *3781:TM 0.000220873
*RES
1 *3786:LO *377:10 35.2214 
2 *377:10 *3781:TM 33.7804 
*END

*D_NET *378 0.0023598
*CONN
*I *3781:WLBI I *D CF_SRAM_1024x32
*I *3787:LO O *D sky130_fd_sc_hd__conb_1
*CAP
1 *3781:WLBI 0.000817397
2 *3787:LO 0.000817397
3 *3781:TM *3781:WLBI 1.75018e-05
4 *121:20 *3781:WLBI 0.0007075
5 *248:27 *3781:WLBI 0
*RES
1 *3787:LO *3781:WLBI 38.8309 
*END

*D_NET *379 0.00209597
*CONN
*I *3781:WLOFF I *D CF_SRAM_1024x32
*I *3788:LO O *D sky130_fd_sc_hd__conb_1
*CAP
1 *3781:WLOFF 0.000151247
2 *3788:LO 0.000802214
3 *379:8 0.000953461
4 *3781:EN *3781:WLOFF 8.69658e-05
5 *3781:EN *379:8 0
6 *3781:R_WB *3781:WLOFF 0
7 *3781:SM *379:8 0
8 *128:11 *3781:WLOFF 0.000102079
*RES
1 *3788:LO *379:8 49.5793 
2 *379:8 *3781:WLOFF 18.6716 
*END

*D_NET *380 0.0453159
*CONN
*I *3781:vpwrac I *D CF_SRAM_1024x32
*I *3789:HI O *D sky130_fd_sc_hd__conb_1
*CAP
1 *3781:vpwrac 0.00207493
2 *3789:HI 7.59693e-05
3 *380:16 0.00645341
4 *380:12 0.00445446
5 *3781:vpwrac *3781:vpwrpc 3.20451e-05
6 *380:16 *381:16 0.00774392
7 *115:25 *380:16 0.00178323
8 *126:27 *3781:vpwrac 6.04745e-05
9 *138:31 *3781:vpwrac 0.00031534
10 *160:14 *380:12 2.33476e-05
11 *188:26 *3781:vpwrac 0.000111701
12 *217:10 *380:16 0.000102679
13 *228:10 *380:12 2.5343e-05
14 *228:10 *380:16 0.000119516
15 *230:20 *380:16 0.00358753
16 *234:10 *380:16 0.00104893
17 *234:24 *380:16 0.000141169
18 *239:8 *380:16 0.000978763
19 *239:22 *380:16 0.000268814
20 *241:28 *3781:vpwrac 0.00217559
21 *292:22 *380:16 0.00108624
22 *303:28 *3781:vpwrac 0.000685645
23 *326:24 *380:16 0.0107312
24 *328:50 *380:16 0.00123565
*RES
1 *3789:HI *380:12 46.42 
2 *380:12 *380:16 44.6128 
3 *380:16 *3781:vpwrac 23.2311 
*END

*D_NET *381 0.0472323
*CONN
*I *3781:vpwrpc I *D CF_SRAM_1024x32
*I *3790:HI O *D sky130_fd_sc_hd__conb_1
*CAP
1 *3781:vpwrpc 0.00205028
2 *3790:HI 0.000111319
3 *381:16 0.00881312
4 *381:12 0.00687416
5 *3781:vpwrac *3781:vpwrpc 3.20451e-05
6 *110:31 *381:16 0.000414593
7 *115:25 *381:16 0.00177797
8 *119:11 *381:16 0.000200208
9 *126:27 *3781:vpwrpc 0.00213876
10 *133:27 *381:16 0.0010656
11 *139:17 *3781:vpwrpc 0
12 *143:53 *3781:vpwrpc 0.000130187
13 *149:24 *3781:vpwrpc 0.00170407
14 *162:22 *3781:vpwrpc 0.000141691
15 *166:16 *381:16 0.000241157
16 *168:10 *381:16 0.000232764
17 *195:26 *381:16 0.000600819
18 *212:10 *381:16 0.000562183
19 *212:16 *381:12 2.33476e-05
20 *219:50 *381:16 0.00105084
21 *221:8 *381:16 0.000903758
22 *226:10 *381:16 0.000855768
23 *226:18 *381:16 0.000598438
24 *234:32 *381:16 0.000193368
25 *239:22 *381:12 2.5343e-05
26 *241:28 *3781:vpwrpc 2.59001e-05
27 *251:8 *381:16 0.00010785
28 *281:72 *381:16 0.000897493
29 *292:34 *381:16 0.000310624
30 *301:18 *3781:vpwrpc 0.000112764
31 *302:26 *381:16 0.000341849
32 *303:28 *3781:vpwrpc 0.000387561
33 *303:38 *381:16 0.000282858
34 *326:24 *381:16 5.04237e-05
35 *339:38 *381:16 0.000248958
36 *350:24 *381:16 0.00598029
37 *380:16 *381:16 0.00774392
*RES
1 *3790:HI *381:12 46.5059 
2 *381:12 *381:16 44.9936 
3 *381:16 *3781:vpwrpc 25.7242 
*END

*D_NET *382 0.000126903
*CONN
*I *3801:A I *D sky130_fd_sc_hd__buf_2
*I *3643:X O *D sky130_fd_sc_hd__dlygate4sd3_1
*CAP
1 *3801:A 6.74574e-06
2 *3643:X 6.74574e-06
3 *236:22 *3801:A 5.67058e-05
4 *339:18 *3801:A 5.67058e-05
*RES
1 *3643:X *3801:A 46.6214 
*END
