*SPEF "ieee 1481-1999"
*DESIGN "CF_SRAM_1024x32_wb_wrapper"
*DATE "18:14:31 Tuesday September 29, 2026"
*VENDOR "The OpenROAD Project"
*PROGRAM "OpenROAD"
*VERSION "edf00dff99f6c40d67a30c0e22a8191c5d2ed9d6"
*DESIGN_FLOW "NAME_SCOPE LOCAL" "PIN_CAP NONE"
*DIVIDER /
*DELIMITER :
*BUS_DELIMITER []
*T_UNIT 1 NS
*C_UNIT 1 PF
*R_UNIT 1 OHM
*L_UNIT 1 HENRY

*NAME_MAP
*3 wb_clk_i
*4 wb_rst_i
*5 wbs_ack_o
*6 wbs_adr_i[0]
*7 wbs_adr_i[10]
*8 wbs_adr_i[11]
*9 wbs_adr_i[12]
*10 wbs_adr_i[13]
*11 wbs_adr_i[14]
*12 wbs_adr_i[15]
*13 wbs_adr_i[16]
*14 wbs_adr_i[17]
*15 wbs_adr_i[18]
*16 wbs_adr_i[19]
*17 wbs_adr_i[1]
*18 wbs_adr_i[20]
*19 wbs_adr_i[21]
*20 wbs_adr_i[22]
*21 wbs_adr_i[23]
*22 wbs_adr_i[24]
*23 wbs_adr_i[25]
*24 wbs_adr_i[26]
*25 wbs_adr_i[27]
*26 wbs_adr_i[28]
*27 wbs_adr_i[29]
*28 wbs_adr_i[2]
*29 wbs_adr_i[30]
*30 wbs_adr_i[31]
*31 wbs_adr_i[3]
*32 wbs_adr_i[4]
*33 wbs_adr_i[5]
*34 wbs_adr_i[6]
*35 wbs_adr_i[7]
*36 wbs_adr_i[8]
*37 wbs_adr_i[9]
*38 wbs_cyc_i
*39 wbs_dat_i[0]
*40 wbs_dat_i[10]
*41 wbs_dat_i[11]
*42 wbs_dat_i[12]
*43 wbs_dat_i[13]
*44 wbs_dat_i[14]
*45 wbs_dat_i[15]
*46 wbs_dat_i[16]
*47 wbs_dat_i[17]
*48 wbs_dat_i[18]
*49 wbs_dat_i[19]
*50 wbs_dat_i[1]
*51 wbs_dat_i[20]
*52 wbs_dat_i[21]
*53 wbs_dat_i[22]
*54 wbs_dat_i[23]
*55 wbs_dat_i[24]
*56 wbs_dat_i[25]
*57 wbs_dat_i[26]
*58 wbs_dat_i[27]
*59 wbs_dat_i[28]
*60 wbs_dat_i[29]
*61 wbs_dat_i[2]
*62 wbs_dat_i[30]
*63 wbs_dat_i[31]
*64 wbs_dat_i[3]
*65 wbs_dat_i[4]
*66 wbs_dat_i[5]
*67 wbs_dat_i[6]
*68 wbs_dat_i[7]
*69 wbs_dat_i[8]
*70 wbs_dat_i[9]
*71 wbs_dat_o[0]
*72 wbs_dat_o[10]
*73 wbs_dat_o[11]
*74 wbs_dat_o[12]
*75 wbs_dat_o[13]
*76 wbs_dat_o[14]
*77 wbs_dat_o[15]
*78 wbs_dat_o[16]
*79 wbs_dat_o[17]
*80 wbs_dat_o[18]
*81 wbs_dat_o[19]
*82 wbs_dat_o[1]
*83 wbs_dat_o[20]
*84 wbs_dat_o[21]
*85 wbs_dat_o[22]
*86 wbs_dat_o[23]
*87 wbs_dat_o[24]
*88 wbs_dat_o[25]
*89 wbs_dat_o[26]
*90 wbs_dat_o[27]
*91 wbs_dat_o[28]
*92 wbs_dat_o[29]
*93 wbs_dat_o[2]
*94 wbs_dat_o[30]
*95 wbs_dat_o[31]
*96 wbs_dat_o[3]
*97 wbs_dat_o[4]
*98 wbs_dat_o[5]
*99 wbs_dat_o[6]
*100 wbs_dat_o[7]
*101 wbs_dat_o[8]
*102 wbs_dat_o[9]
*103 wbs_sel_i[0]
*104 wbs_sel_i[1]
*105 wbs_sel_i[2]
*106 wbs_sel_i[3]
*107 wbs_stb_i
*108 wbs_we_i
*109 _00_
*110 clknet_0_wb_clk_i
*111 clknet_1_0__leaf_wb_clk_i
*112 clknet_1_1__leaf_wb_clk_i
*113 i_ram_wb_controller\.DO\[0\]
*114 i_ram_wb_controller\.DO\[10\]
*115 i_ram_wb_controller\.DO\[11\]
*116 i_ram_wb_controller\.DO\[12\]
*117 i_ram_wb_controller\.DO\[13\]
*118 i_ram_wb_controller\.DO\[14\]
*119 i_ram_wb_controller\.DO\[15\]
*120 i_ram_wb_controller\.DO\[16\]
*121 i_ram_wb_controller\.DO\[17\]
*122 i_ram_wb_controller\.DO\[18\]
*123 i_ram_wb_controller\.DO\[19\]
*124 i_ram_wb_controller\.DO\[1\]
*125 i_ram_wb_controller\.DO\[20\]
*126 i_ram_wb_controller\.DO\[21\]
*127 i_ram_wb_controller\.DO\[22\]
*128 i_ram_wb_controller\.DO\[23\]
*129 i_ram_wb_controller\.DO\[24\]
*130 i_ram_wb_controller\.DO\[25\]
*131 i_ram_wb_controller\.DO\[26\]
*132 i_ram_wb_controller\.DO\[27\]
*133 i_ram_wb_controller\.DO\[28\]
*134 i_ram_wb_controller\.DO\[29\]
*135 i_ram_wb_controller\.DO\[2\]
*136 i_ram_wb_controller\.DO\[30\]
*137 i_ram_wb_controller\.DO\[31\]
*138 i_ram_wb_controller\.DO\[3\]
*139 i_ram_wb_controller\.DO\[4\]
*140 i_ram_wb_controller\.DO\[5\]
*141 i_ram_wb_controller\.DO\[6\]
*142 i_ram_wb_controller\.DO\[7\]
*143 i_ram_wb_controller\.DO\[8\]
*144 i_ram_wb_controller\.DO\[9\]
*145 i_ram_wb_controller\.EN
*146 i_ram_wb_controller\.R_WB
*147 net1
*148 net10
*149 net100
*150 net101
*151 net102
*152 net103
*153 net104
*154 net105
*155 net106
*156 net107
*157 net108
*158 net109
*159 net11
*160 net110
*161 net111
*162 net112
*163 net113
*164 net114
*165 net115
*166 net116
*167 net117
*168 net118
*169 net119
*170 net12
*171 net120
*172 net121
*173 net122
*174 net123
*175 net124
*176 net125
*177 net126
*178 net127
*179 net128
*180 net129
*181 net13
*182 net130
*183 net131
*184 net132
*185 net133
*186 net134
*187 net135
*188 net136
*189 net137
*190 net138
*191 net139
*192 net14
*193 net140
*194 net141
*195 net142
*196 net143
*197 net144
*198 net145
*199 net146
*200 net147
*201 net148
*202 net149
*203 net15
*204 net150
*205 net151
*206 net152
*207 net153
*208 net154
*209 net155
*210 net156
*211 net157
*212 net158
*213 net159
*214 net16
*215 net160
*216 net161
*217 net162
*218 net163
*219 net164
*220 net165
*221 net166
*222 net167
*223 net168
*224 net169
*225 net17
*226 net170
*227 net171
*228 net172
*229 net173
*230 net174
*231 net175
*232 net176
*233 net177
*234 net178
*235 net179
*236 net18
*237 net180
*238 net181
*239 net182
*240 net183
*241 net184
*242 net185
*243 net186
*244 net187
*245 net188
*246 net189
*247 net19
*248 net190
*249 net191
*250 net192
*251 net193
*252 net194
*253 net195
*254 net196
*255 net197
*256 net198
*257 net199
*258 net2
*259 net20
*260 net200
*261 net201
*262 net202
*263 net203
*264 net204
*265 net205
*266 net206
*267 net207
*268 net208
*269 net209
*270 net21
*271 net210
*272 net211
*273 net212
*274 net213
*275 net214
*276 net215
*277 net216
*278 net217
*279 net218
*280 net219
*281 net22
*282 net220
*283 net221
*284 net222
*285 net223
*286 net224
*287 net225
*288 net226
*289 net227
*290 net228
*291 net229
*292 net23
*293 net230
*294 net231
*295 net232
*296 net233
*297 net234
*298 net235
*299 net236
*300 net24
*301 net25
*302 net26
*303 net27
*304 net28
*305 net29
*306 net3
*307 net30
*308 net31
*309 net32
*310 net33
*311 net34
*312 net35
*313 net36
*314 net37
*315 net38
*316 net39
*317 net4
*318 net40
*319 net41
*320 net42
*321 net43
*322 net44
*323 net45
*324 net46
*325 net47
*326 net48
*327 net49
*328 net5
*329 net50
*330 net51
*331 net52
*332 net53
*333 net54
*334 net55
*335 net56
*336 net57
*337 net58
*338 net59
*339 net6
*340 net60
*341 net61
*342 net62
*343 net63
*344 net64
*345 net65
*346 net66
*347 net67
*348 net68
*349 net69
*350 net7
*351 net70
*352 net71
*353 net72
*354 net73
*355 net74
*356 net75
*357 net76
*358 net77
*359 net78
*360 net79
*361 net8
*362 net80
*363 net81
*364 net82
*365 net83
*366 net84
*367 net85
*368 net86
*369 net87
*370 net88
*371 net89
*372 net9
*373 net90
*374 net91
*375 net92
*376 net93
*377 net94
*378 net95
*379 net96
*380 net97
*381 net98
*382 net99
*383 sram_scan_out_cc
*384 ANTENNA_1
*385 ANTENNA_10
*386 ANTENNA_11
*387 ANTENNA_12
*388 ANTENNA_13
*389 ANTENNA_14
*390 ANTENNA_15
*391 ANTENNA_16
*392 ANTENNA_17
*393 ANTENNA_18
*394 ANTENNA_19
*395 ANTENNA_2
*396 ANTENNA_20
*397 ANTENNA_21
*398 ANTENNA_22
*399 ANTENNA_23
*400 ANTENNA_24
*401 ANTENNA_25
*402 ANTENNA_26
*403 ANTENNA_27
*404 ANTENNA_28
*405 ANTENNA_29
*406 ANTENNA_3
*407 ANTENNA_30
*408 ANTENNA_31
*409 ANTENNA_32
*410 ANTENNA_33
*411 ANTENNA_34
*412 ANTENNA_35
*413 ANTENNA_36
*414 ANTENNA_37
*415 ANTENNA_38
*416 ANTENNA_39
*417 ANTENNA_4
*418 ANTENNA_40
*419 ANTENNA_41
*420 ANTENNA_42
*421 ANTENNA_43
*422 ANTENNA_44
*423 ANTENNA_45
*424 ANTENNA_46
*425 ANTENNA_47
*426 ANTENNA_48
*427 ANTENNA_49
*428 ANTENNA_5
*429 ANTENNA_50
*430 ANTENNA_51
*431 ANTENNA_52
*432 ANTENNA_53
*433 ANTENNA_54
*434 ANTENNA_55
*435 ANTENNA_56
*436 ANTENNA_57
*437 ANTENNA_58
*438 ANTENNA_59
*439 ANTENNA_6
*440 ANTENNA_60
*441 ANTENNA_61
*442 ANTENNA_62
*443 ANTENNA_63
*444 ANTENNA_64
*445 ANTENNA_65
*446 ANTENNA_66
*447 ANTENNA_67
*448 ANTENNA_68
*449 ANTENNA_69
*450 ANTENNA_7
*451 ANTENNA_70
*452 ANTENNA_71
*453 ANTENNA_72
*454 ANTENNA_73
*455 ANTENNA_74
*456 ANTENNA_75
*457 ANTENNA_76
*458 ANTENNA_77
*459 ANTENNA_78
*460 ANTENNA_79
*461 ANTENNA_8
*462 ANTENNA_80
*463 ANTENNA_81
*464 ANTENNA_82
*465 ANTENNA_83
*466 ANTENNA_84
*467 ANTENNA_85
*468 ANTENNA_86
*469 ANTENNA_87
*470 ANTENNA_88
*471 ANTENNA_89
*472 ANTENNA_9
*473 ANTENNA_90
*474 FILLER_0_109
*475 FILLER_0_111
*476 FILLER_0_113
*477 FILLER_0_125
*478 FILLER_0_137
*479 FILLER_0_139
*480 FILLER_0_141
*481 FILLER_0_15
*482 FILLER_0_153
*483 FILLER_0_165
*484 FILLER_0_167
*485 FILLER_0_169
*486 FILLER_0_181
*487 FILLER_0_193
*488 FILLER_0_195
*489 FILLER_0_197
*490 FILLER_0_209
*491 FILLER_0_221
*492 FILLER_0_223
*493 FILLER_0_225
*494 FILLER_0_237
*495 FILLER_0_248
*496 FILLER_0_269
*497 FILLER_0_27
*498 FILLER_0_271
*499 FILLER_0_281
*500 FILLER_0_283
*501 FILLER_0_29
*502 FILLER_0_3
*503 FILLER_0_309
*504 FILLER_0_311
*505 FILLER_0_361
*506 FILLER_0_363
*507 FILLER_0_365
*508 FILLER_0_391
*509 FILLER_0_393
*510 FILLER_0_395
*511 FILLER_0_41
*512 FILLER_0_445
*513 FILLER_0_447
*514 FILLER_0_473
*515 FILLER_0_475
*516 FILLER_0_477
*517 FILLER_0_479
*518 FILLER_0_529
*519 FILLER_0_53
*520 FILLER_0_531
*521 FILLER_0_55
*522 FILLER_0_557
*523 FILLER_0_559
*524 FILLER_0_57
*525 FILLER_0_585
*526 FILLER_0_587
*527 FILLER_0_613
*528 FILLER_0_615
*529 FILLER_0_617
*530 FILLER_0_629
*531 FILLER_0_641
*532 FILLER_0_643
*533 FILLER_0_661
*534 FILLER_0_665
*535 FILLER_0_669
*536 FILLER_0_671
*537 FILLER_0_673
*538 FILLER_0_677
*539 FILLER_0_69
*540 FILLER_0_697
*541 FILLER_0_699
*542 FILLER_0_709
*543 FILLER_0_713
*544 FILLER_0_725
*545 FILLER_0_727
*546 FILLER_0_735
*547 FILLER_0_739
*548 FILLER_0_743
*549 FILLER_0_753
*550 FILLER_0_755
*551 FILLER_0_781
*552 FILLER_0_783
*553 FILLER_0_793
*554 FILLER_0_81
*555 FILLER_0_83
*556 FILLER_0_85
*557 FILLER_0_97
*558 FILLER_100_703
*559 FILLER_100_715
*560 FILLER_100_727
*561 FILLER_100_729
*562 FILLER_100_741
*563 FILLER_100_753
*564 FILLER_100_765
*565 FILLER_100_777
*566 FILLER_100_781
*567 FILLER_100_783
*568 FILLER_100_785
*569 FILLER_100_797
*570 FILLER_101_703
*571 FILLER_101_715
*572 FILLER_101_727
*573 FILLER_101_739
*574 FILLER_101_751
*575 FILLER_101_755
*576 FILLER_101_757
*577 FILLER_101_769
*578 FILLER_101_781
*579 FILLER_101_793
*580 FILLER_102_703
*581 FILLER_102_715
*582 FILLER_102_727
*583 FILLER_102_729
*584 FILLER_102_741
*585 FILLER_102_753
*586 FILLER_102_765
*587 FILLER_102_777
*588 FILLER_102_781
*589 FILLER_102_783
*590 FILLER_102_785
*591 FILLER_102_797
*592 FILLER_103_703
*593 FILLER_103_715
*594 FILLER_103_727
*595 FILLER_103_739
*596 FILLER_103_751
*597 FILLER_103_755
*598 FILLER_103_757
*599 FILLER_103_769
*600 FILLER_103_781
*601 FILLER_103_793
*602 FILLER_104_703
*603 FILLER_104_715
*604 FILLER_104_727
*605 FILLER_104_729
*606 FILLER_104_741
*607 FILLER_104_753
*608 FILLER_104_765
*609 FILLER_104_777
*610 FILLER_104_781
*611 FILLER_104_783
*612 FILLER_104_785
*613 FILLER_104_797
*614 FILLER_105_703
*615 FILLER_105_715
*616 FILLER_105_727
*617 FILLER_105_739
*618 FILLER_105_751
*619 FILLER_105_755
*620 FILLER_105_757
*621 FILLER_105_769
*622 FILLER_105_781
*623 FILLER_105_793
*624 FILLER_106_703
*625 FILLER_106_715
*626 FILLER_106_727
*627 FILLER_106_729
*628 FILLER_106_741
*629 FILLER_106_753
*630 FILLER_106_765
*631 FILLER_106_777
*632 FILLER_106_781
*633 FILLER_106_783
*634 FILLER_106_785
*635 FILLER_106_797
*636 FILLER_107_703
*637 FILLER_107_715
*638 FILLER_107_727
*639 FILLER_107_739
*640 FILLER_107_751
*641 FILLER_107_755
*642 FILLER_107_757
*643 FILLER_107_769
*644 FILLER_107_781
*645 FILLER_107_793
*646 FILLER_108_703
*647 FILLER_108_715
*648 FILLER_108_727
*649 FILLER_108_729
*650 FILLER_108_741
*651 FILLER_108_753
*652 FILLER_108_765
*653 FILLER_108_777
*654 FILLER_108_781
*655 FILLER_108_783
*656 FILLER_108_785
*657 FILLER_108_797
*658 FILLER_109_703
*659 FILLER_109_715
*660 FILLER_109_727
*661 FILLER_109_739
*662 FILLER_109_751
*663 FILLER_109_755
*664 FILLER_109_757
*665 FILLER_109_769
*666 FILLER_109_781
*667 FILLER_109_793
*668 FILLER_10_703
*669 FILLER_10_713
*670 FILLER_10_725
*671 FILLER_10_727
*672 FILLER_10_729
*673 FILLER_10_743
*674 FILLER_10_755
*675 FILLER_10_767
*676 FILLER_10_779
*677 FILLER_10_783
*678 FILLER_10_785
*679 FILLER_10_797
*680 FILLER_110_703
*681 FILLER_110_715
*682 FILLER_110_727
*683 FILLER_110_729
*684 FILLER_110_741
*685 FILLER_110_753
*686 FILLER_110_765
*687 FILLER_110_777
*688 FILLER_110_781
*689 FILLER_110_783
*690 FILLER_110_785
*691 FILLER_110_797
*692 FILLER_111_703
*693 FILLER_111_715
*694 FILLER_111_727
*695 FILLER_111_739
*696 FILLER_111_751
*697 FILLER_111_755
*698 FILLER_111_757
*699 FILLER_111_769
*700 FILLER_111_781
*701 FILLER_111_793
*702 FILLER_112_703
*703 FILLER_112_715
*704 FILLER_112_727
*705 FILLER_112_729
*706 FILLER_112_741
*707 FILLER_112_753
*708 FILLER_112_765
*709 FILLER_112_777
*710 FILLER_112_781
*711 FILLER_112_783
*712 FILLER_112_785
*713 FILLER_112_797
*714 FILLER_113_703
*715 FILLER_113_715
*716 FILLER_113_727
*717 FILLER_113_739
*718 FILLER_113_751
*719 FILLER_113_755
*720 FILLER_113_757
*721 FILLER_113_769
*722 FILLER_113_781
*723 FILLER_113_793
*724 FILLER_114_703
*725 FILLER_114_715
*726 FILLER_114_727
*727 FILLER_114_729
*728 FILLER_114_741
*729 FILLER_114_753
*730 FILLER_114_765
*731 FILLER_114_777
*732 FILLER_114_781
*733 FILLER_114_783
*734 FILLER_114_785
*735 FILLER_114_797
*736 FILLER_115_703
*737 FILLER_115_715
*738 FILLER_115_727
*739 FILLER_115_739
*740 FILLER_115_751
*741 FILLER_115_755
*742 FILLER_115_757
*743 FILLER_115_769
*744 FILLER_115_781
*745 FILLER_115_793
*746 FILLER_116_703
*747 FILLER_116_715
*748 FILLER_116_727
*749 FILLER_116_729
*750 FILLER_116_741
*751 FILLER_116_753
*752 FILLER_116_765
*753 FILLER_116_777
*754 FILLER_116_781
*755 FILLER_116_783
*756 FILLER_116_785
*757 FILLER_116_797
*758 FILLER_117_703
*759 FILLER_117_715
*760 FILLER_117_727
*761 FILLER_117_739
*762 FILLER_117_751
*763 FILLER_117_755
*764 FILLER_117_757
*765 FILLER_117_769
*766 FILLER_117_781
*767 FILLER_117_793
*768 FILLER_118_703
*769 FILLER_118_715
*770 FILLER_118_727
*771 FILLER_118_729
*772 FILLER_118_741
*773 FILLER_118_753
*774 FILLER_118_765
*775 FILLER_118_777
*776 FILLER_118_781
*777 FILLER_118_783
*778 FILLER_118_785
*779 FILLER_118_797
*780 FILLER_119_703
*781 FILLER_119_715
*782 FILLER_119_727
*783 FILLER_119_739
*784 FILLER_119_751
*785 FILLER_119_755
*786 FILLER_119_757
*787 FILLER_119_769
*788 FILLER_119_781
*789 FILLER_119_793
*790 FILLER_11_705
*791 FILLER_11_709
*792 FILLER_11_713
*793 FILLER_11_725
*794 FILLER_11_737
*795 FILLER_11_743
*796 FILLER_11_755
*797 FILLER_11_757
*798 FILLER_11_769
*799 FILLER_11_781
*800 FILLER_11_793
*801 FILLER_120_703
*802 FILLER_120_715
*803 FILLER_120_727
*804 FILLER_120_729
*805 FILLER_120_741
*806 FILLER_120_753
*807 FILLER_120_765
*808 FILLER_120_777
*809 FILLER_120_781
*810 FILLER_120_783
*811 FILLER_120_785
*812 FILLER_120_797
*813 FILLER_121_703
*814 FILLER_121_715
*815 FILLER_121_727
*816 FILLER_121_739
*817 FILLER_121_751
*818 FILLER_121_755
*819 FILLER_121_757
*820 FILLER_121_769
*821 FILLER_121_781
*822 FILLER_121_793
*823 FILLER_122_703
*824 FILLER_122_715
*825 FILLER_122_727
*826 FILLER_122_729
*827 FILLER_122_741
*828 FILLER_122_753
*829 FILLER_122_765
*830 FILLER_122_777
*831 FILLER_122_781
*832 FILLER_122_783
*833 FILLER_122_785
*834 FILLER_122_797
*835 FILLER_123_703
*836 FILLER_123_715
*837 FILLER_123_727
*838 FILLER_123_739
*839 FILLER_123_751
*840 FILLER_123_755
*841 FILLER_123_757
*842 FILLER_123_769
*843 FILLER_123_781
*844 FILLER_123_793
*845 FILLER_124_703
*846 FILLER_124_715
*847 FILLER_124_727
*848 FILLER_124_729
*849 FILLER_124_741
*850 FILLER_124_753
*851 FILLER_124_765
*852 FILLER_124_777
*853 FILLER_124_781
*854 FILLER_124_783
*855 FILLER_124_785
*856 FILLER_124_797
*857 FILLER_125_703
*858 FILLER_125_715
*859 FILLER_125_727
*860 FILLER_125_739
*861 FILLER_125_751
*862 FILLER_125_755
*863 FILLER_125_757
*864 FILLER_125_769
*865 FILLER_125_781
*866 FILLER_125_793
*867 FILLER_126_703
*868 FILLER_126_715
*869 FILLER_126_727
*870 FILLER_126_729
*871 FILLER_126_741
*872 FILLER_126_753
*873 FILLER_126_765
*874 FILLER_126_777
*875 FILLER_126_781
*876 FILLER_126_783
*877 FILLER_126_785
*878 FILLER_126_797
*879 FILLER_127_703
*880 FILLER_127_715
*881 FILLER_127_727
*882 FILLER_127_739
*883 FILLER_127_751
*884 FILLER_127_755
*885 FILLER_127_757
*886 FILLER_127_769
*887 FILLER_127_781
*888 FILLER_127_793
*889 FILLER_128_703
*890 FILLER_128_715
*891 FILLER_128_727
*892 FILLER_128_729
*893 FILLER_128_741
*894 FILLER_128_753
*895 FILLER_128_765
*896 FILLER_128_777
*897 FILLER_128_781
*898 FILLER_128_783
*899 FILLER_128_785
*900 FILLER_128_797
*901 FILLER_129_703
*902 FILLER_129_715
*903 FILLER_129_727
*904 FILLER_129_739
*905 FILLER_129_751
*906 FILLER_129_755
*907 FILLER_129_757
*908 FILLER_129_769
*909 FILLER_129_781
*910 FILLER_129_793
*911 FILLER_12_703
*912 FILLER_12_715
*913 FILLER_12_727
*914 FILLER_12_729
*915 FILLER_12_741
*916 FILLER_12_753
*917 FILLER_12_765
*918 FILLER_12_777
*919 FILLER_12_781
*920 FILLER_12_783
*921 FILLER_12_785
*922 FILLER_12_797
*923 FILLER_130_703
*924 FILLER_130_715
*925 FILLER_130_727
*926 FILLER_130_729
*927 FILLER_130_741
*928 FILLER_130_753
*929 FILLER_130_765
*930 FILLER_130_777
*931 FILLER_130_781
*932 FILLER_130_783
*933 FILLER_130_785
*934 FILLER_130_797
*935 FILLER_131_703
*936 FILLER_131_715
*937 FILLER_131_727
*938 FILLER_131_739
*939 FILLER_131_751
*940 FILLER_131_755
*941 FILLER_131_757
*942 FILLER_131_769
*943 FILLER_131_781
*944 FILLER_131_793
*945 FILLER_132_703
*946 FILLER_132_715
*947 FILLER_132_727
*948 FILLER_132_729
*949 FILLER_132_741
*950 FILLER_132_753
*951 FILLER_132_765
*952 FILLER_132_777
*953 FILLER_132_781
*954 FILLER_132_783
*955 FILLER_132_785
*956 FILLER_132_797
*957 FILLER_133_703
*958 FILLER_133_715
*959 FILLER_133_727
*960 FILLER_133_739
*961 FILLER_133_751
*962 FILLER_133_755
*963 FILLER_133_757
*964 FILLER_133_769
*965 FILLER_133_781
*966 FILLER_133_793
*967 FILLER_134_703
*968 FILLER_134_715
*969 FILLER_134_727
*970 FILLER_134_729
*971 FILLER_134_741
*972 FILLER_134_753
*973 FILLER_134_765
*974 FILLER_134_777
*975 FILLER_134_781
*976 FILLER_134_783
*977 FILLER_134_785
*978 FILLER_134_797
*979 FILLER_135_703
*980 FILLER_135_715
*981 FILLER_135_727
*982 FILLER_135_739
*983 FILLER_135_751
*984 FILLER_135_755
*985 FILLER_135_757
*986 FILLER_135_769
*987 FILLER_135_781
*988 FILLER_135_793
*989 FILLER_136_703
*990 FILLER_136_715
*991 FILLER_136_727
*992 FILLER_136_729
*993 FILLER_136_741
*994 FILLER_136_753
*995 FILLER_136_765
*996 FILLER_136_777
*997 FILLER_136_781
*998 FILLER_136_783
*999 FILLER_136_785
*1000 FILLER_136_797
*1001 FILLER_137_703
*1002 FILLER_137_715
*1003 FILLER_137_727
*1004 FILLER_137_739
*1005 FILLER_137_751
*1006 FILLER_137_755
*1007 FILLER_137_757
*1008 FILLER_137_769
*1009 FILLER_137_781
*1010 FILLER_137_793
*1011 FILLER_138_703
*1012 FILLER_138_715
*1013 FILLER_138_727
*1014 FILLER_138_729
*1015 FILLER_138_741
*1016 FILLER_138_753
*1017 FILLER_138_765
*1018 FILLER_138_777
*1019 FILLER_138_781
*1020 FILLER_138_783
*1021 FILLER_138_785
*1022 FILLER_138_797
*1023 FILLER_139_703
*1024 FILLER_139_715
*1025 FILLER_139_727
*1026 FILLER_139_739
*1027 FILLER_139_751
*1028 FILLER_139_755
*1029 FILLER_139_757
*1030 FILLER_139_769
*1031 FILLER_139_781
*1032 FILLER_139_793
*1033 FILLER_13_703
*1034 FILLER_13_715
*1035 FILLER_13_727
*1036 FILLER_13_739
*1037 FILLER_13_751
*1038 FILLER_13_755
*1039 FILLER_13_757
*1040 FILLER_13_769
*1041 FILLER_13_781
*1042 FILLER_13_793
*1043 FILLER_140_703
*1044 FILLER_140_715
*1045 FILLER_140_727
*1046 FILLER_140_729
*1047 FILLER_140_741
*1048 FILLER_140_753
*1049 FILLER_140_765
*1050 FILLER_140_777
*1051 FILLER_140_781
*1052 FILLER_140_783
*1053 FILLER_140_785
*1054 FILLER_140_797
*1055 FILLER_141_703
*1056 FILLER_141_715
*1057 FILLER_141_727
*1058 FILLER_141_739
*1059 FILLER_141_751
*1060 FILLER_141_755
*1061 FILLER_141_757
*1062 FILLER_141_769
*1063 FILLER_141_781
*1064 FILLER_141_793
*1065 FILLER_142_703
*1066 FILLER_142_715
*1067 FILLER_142_727
*1068 FILLER_142_729
*1069 FILLER_142_741
*1070 FILLER_142_753
*1071 FILLER_142_765
*1072 FILLER_142_777
*1073 FILLER_142_781
*1074 FILLER_142_783
*1075 FILLER_142_785
*1076 FILLER_142_797
*1077 FILLER_143_703
*1078 FILLER_143_715
*1079 FILLER_143_727
*1080 FILLER_143_739
*1081 FILLER_143_751
*1082 FILLER_143_755
*1083 FILLER_143_757
*1084 FILLER_143_769
*1085 FILLER_143_781
*1086 FILLER_143_793
*1087 FILLER_144_703
*1088 FILLER_144_715
*1089 FILLER_144_727
*1090 FILLER_144_729
*1091 FILLER_144_741
*1092 FILLER_144_753
*1093 FILLER_144_765
*1094 FILLER_144_777
*1095 FILLER_144_781
*1096 FILLER_144_783
*1097 FILLER_144_785
*1098 FILLER_144_797
*1099 FILLER_145_703
*1100 FILLER_145_715
*1101 FILLER_145_727
*1102 FILLER_145_739
*1103 FILLER_145_751
*1104 FILLER_145_755
*1105 FILLER_145_757
*1106 FILLER_145_769
*1107 FILLER_145_781
*1108 FILLER_145_793
*1109 FILLER_146_703
*1110 FILLER_146_715
*1111 FILLER_146_727
*1112 FILLER_146_729
*1113 FILLER_146_741
*1114 FILLER_146_753
*1115 FILLER_146_765
*1116 FILLER_146_777
*1117 FILLER_146_781
*1118 FILLER_146_783
*1119 FILLER_146_785
*1120 FILLER_146_797
*1121 FILLER_147_703
*1122 FILLER_147_715
*1123 FILLER_147_727
*1124 FILLER_147_739
*1125 FILLER_147_751
*1126 FILLER_147_755
*1127 FILLER_147_757
*1128 FILLER_147_769
*1129 FILLER_147_781
*1130 FILLER_147_793
*1131 FILLER_148_703
*1132 FILLER_148_715
*1133 FILLER_148_727
*1134 FILLER_148_729
*1135 FILLER_148_741
*1136 FILLER_148_753
*1137 FILLER_148_765
*1138 FILLER_148_777
*1139 FILLER_148_781
*1140 FILLER_148_783
*1141 FILLER_148_785
*1142 FILLER_148_797
*1143 FILLER_149_703
*1144 FILLER_149_715
*1145 FILLER_149_727
*1146 FILLER_149_739
*1147 FILLER_149_751
*1148 FILLER_149_755
*1149 FILLER_149_757
*1150 FILLER_149_769
*1151 FILLER_149_781
*1152 FILLER_149_793
*1153 FILLER_14_703
*1154 FILLER_14_715
*1155 FILLER_14_727
*1156 FILLER_14_729
*1157 FILLER_14_741
*1158 FILLER_14_753
*1159 FILLER_14_765
*1160 FILLER_14_777
*1161 FILLER_14_781
*1162 FILLER_14_783
*1163 FILLER_14_785
*1164 FILLER_14_797
*1165 FILLER_150_703
*1166 FILLER_150_715
*1167 FILLER_150_727
*1168 FILLER_150_729
*1169 FILLER_150_741
*1170 FILLER_150_753
*1171 FILLER_150_765
*1172 FILLER_150_777
*1173 FILLER_150_781
*1174 FILLER_150_783
*1175 FILLER_150_785
*1176 FILLER_150_797
*1177 FILLER_151_703
*1178 FILLER_151_715
*1179 FILLER_151_727
*1180 FILLER_151_739
*1181 FILLER_151_751
*1182 FILLER_151_755
*1183 FILLER_151_757
*1184 FILLER_151_769
*1185 FILLER_151_781
*1186 FILLER_151_793
*1187 FILLER_152_703
*1188 FILLER_152_715
*1189 FILLER_152_727
*1190 FILLER_152_729
*1191 FILLER_152_741
*1192 FILLER_152_753
*1193 FILLER_152_765
*1194 FILLER_152_777
*1195 FILLER_152_781
*1196 FILLER_152_783
*1197 FILLER_152_785
*1198 FILLER_152_797
*1199 FILLER_153_703
*1200 FILLER_153_715
*1201 FILLER_153_727
*1202 FILLER_153_739
*1203 FILLER_153_751
*1204 FILLER_153_755
*1205 FILLER_153_757
*1206 FILLER_153_769
*1207 FILLER_153_781
*1208 FILLER_153_793
*1209 FILLER_154_703
*1210 FILLER_154_715
*1211 FILLER_154_727
*1212 FILLER_154_729
*1213 FILLER_154_741
*1214 FILLER_154_753
*1215 FILLER_154_765
*1216 FILLER_154_777
*1217 FILLER_154_781
*1218 FILLER_154_783
*1219 FILLER_154_785
*1220 FILLER_154_797
*1221 FILLER_155_703
*1222 FILLER_155_715
*1223 FILLER_155_727
*1224 FILLER_155_729
*1225 FILLER_155_741
*1226 FILLER_155_753
*1227 FILLER_155_755
*1228 FILLER_155_757
*1229 FILLER_155_769
*1230 FILLER_155_781
*1231 FILLER_155_783
*1232 FILLER_155_785
*1233 FILLER_155_797
*1234 FILLER_15_703
*1235 FILLER_15_715
*1236 FILLER_15_727
*1237 FILLER_15_739
*1238 FILLER_15_751
*1239 FILLER_15_755
*1240 FILLER_15_757
*1241 FILLER_15_769
*1242 FILLER_15_781
*1243 FILLER_15_793
*1244 FILLER_16_703
*1245 FILLER_16_715
*1246 FILLER_16_727
*1247 FILLER_16_729
*1248 FILLER_16_741
*1249 FILLER_16_753
*1250 FILLER_16_765
*1251 FILLER_16_777
*1252 FILLER_16_781
*1253 FILLER_16_783
*1254 FILLER_16_785
*1255 FILLER_16_797
*1256 FILLER_17_703
*1257 FILLER_17_715
*1258 FILLER_17_727
*1259 FILLER_17_739
*1260 FILLER_17_751
*1261 FILLER_17_755
*1262 FILLER_17_757
*1263 FILLER_17_769
*1264 FILLER_17_781
*1265 FILLER_17_793
*1266 FILLER_18_703
*1267 FILLER_18_715
*1268 FILLER_18_727
*1269 FILLER_18_729
*1270 FILLER_18_741
*1271 FILLER_18_753
*1272 FILLER_18_765
*1273 FILLER_18_777
*1274 FILLER_18_781
*1275 FILLER_18_783
*1276 FILLER_18_785
*1277 FILLER_18_797
*1278 FILLER_19_703
*1279 FILLER_19_715
*1280 FILLER_19_727
*1281 FILLER_19_739
*1282 FILLER_19_751
*1283 FILLER_19_755
*1284 FILLER_19_757
*1285 FILLER_19_769
*1286 FILLER_19_781
*1287 FILLER_19_793
*1288 FILLER_1_105
*1289 FILLER_1_109
*1290 FILLER_1_111
*1291 FILLER_1_113
*1292 FILLER_1_125
*1293 FILLER_1_137
*1294 FILLER_1_149
*1295 FILLER_1_15
*1296 FILLER_1_161
*1297 FILLER_1_165
*1298 FILLER_1_167
*1299 FILLER_1_169
*1300 FILLER_1_181
*1301 FILLER_1_193
*1302 FILLER_1_205
*1303 FILLER_1_217
*1304 FILLER_1_221
*1305 FILLER_1_223
*1306 FILLER_1_225
*1307 FILLER_1_237
*1308 FILLER_1_249
*1309 FILLER_1_251
*1310 FILLER_1_27
*1311 FILLER_1_3
*1312 FILLER_1_301
*1313 FILLER_1_303
*1314 FILLER_1_337
*1315 FILLER_1_339
*1316 FILLER_1_356
*1317 FILLER_1_39
*1318 FILLER_1_447
*1319 FILLER_1_449
*1320 FILLER_1_490
*1321 FILLER_1_509
*1322 FILLER_1_51
*1323 FILLER_1_55
*1324 FILLER_1_556
*1325 FILLER_1_569
*1326 FILLER_1_57
*1327 FILLER_1_625
*1328 FILLER_1_629
*1329 FILLER_1_657
*1330 FILLER_1_661
*1331 FILLER_1_671
*1332 FILLER_1_673
*1333 FILLER_1_677
*1334 FILLER_1_69
*1335 FILLER_1_697
*1336 FILLER_1_709
*1337 FILLER_1_727
*1338 FILLER_1_729
*1339 FILLER_1_781
*1340 FILLER_1_783
*1341 FILLER_1_785
*1342 FILLER_1_797
*1343 FILLER_1_81
*1344 FILLER_1_93
*1345 FILLER_20_703
*1346 FILLER_20_715
*1347 FILLER_20_727
*1348 FILLER_20_729
*1349 FILLER_20_741
*1350 FILLER_20_753
*1351 FILLER_20_765
*1352 FILLER_20_777
*1353 FILLER_20_781
*1354 FILLER_20_783
*1355 FILLER_20_785
*1356 FILLER_20_797
*1357 FILLER_21_703
*1358 FILLER_21_715
*1359 FILLER_21_727
*1360 FILLER_21_739
*1361 FILLER_21_751
*1362 FILLER_21_755
*1363 FILLER_21_757
*1364 FILLER_21_769
*1365 FILLER_21_781
*1366 FILLER_21_793
*1367 FILLER_22_703
*1368 FILLER_22_715
*1369 FILLER_22_727
*1370 FILLER_22_729
*1371 FILLER_22_741
*1372 FILLER_22_753
*1373 FILLER_22_765
*1374 FILLER_22_777
*1375 FILLER_22_781
*1376 FILLER_22_783
*1377 FILLER_22_785
*1378 FILLER_22_797
*1379 FILLER_23_703
*1380 FILLER_23_715
*1381 FILLER_23_727
*1382 FILLER_23_739
*1383 FILLER_23_751
*1384 FILLER_23_755
*1385 FILLER_23_757
*1386 FILLER_23_769
*1387 FILLER_23_781
*1388 FILLER_23_793
*1389 FILLER_24_703
*1390 FILLER_24_715
*1391 FILLER_24_727
*1392 FILLER_24_729
*1393 FILLER_24_741
*1394 FILLER_24_753
*1395 FILLER_24_765
*1396 FILLER_24_777
*1397 FILLER_24_781
*1398 FILLER_24_783
*1399 FILLER_24_785
*1400 FILLER_24_797
*1401 FILLER_25_703
*1402 FILLER_25_715
*1403 FILLER_25_727
*1404 FILLER_25_739
*1405 FILLER_25_751
*1406 FILLER_25_755
*1407 FILLER_25_757
*1408 FILLER_25_769
*1409 FILLER_25_781
*1410 FILLER_25_793
*1411 FILLER_26_703
*1412 FILLER_26_715
*1413 FILLER_26_727
*1414 FILLER_26_729
*1415 FILLER_26_741
*1416 FILLER_26_753
*1417 FILLER_26_765
*1418 FILLER_26_777
*1419 FILLER_26_781
*1420 FILLER_26_783
*1421 FILLER_26_785
*1422 FILLER_26_797
*1423 FILLER_27_703
*1424 FILLER_27_715
*1425 FILLER_27_727
*1426 FILLER_27_739
*1427 FILLER_27_751
*1428 FILLER_27_755
*1429 FILLER_27_757
*1430 FILLER_27_769
*1431 FILLER_27_781
*1432 FILLER_27_793
*1433 FILLER_28_703
*1434 FILLER_28_715
*1435 FILLER_28_727
*1436 FILLER_28_729
*1437 FILLER_28_741
*1438 FILLER_28_753
*1439 FILLER_28_765
*1440 FILLER_28_777
*1441 FILLER_28_781
*1442 FILLER_28_783
*1443 FILLER_28_785
*1444 FILLER_28_797
*1445 FILLER_29_703
*1446 FILLER_29_715
*1447 FILLER_29_727
*1448 FILLER_29_739
*1449 FILLER_29_751
*1450 FILLER_29_755
*1451 FILLER_29_757
*1452 FILLER_29_769
*1453 FILLER_29_781
*1454 FILLER_29_793
*1455 FILLER_2_109
*1456 FILLER_2_121
*1457 FILLER_2_133
*1458 FILLER_2_137
*1459 FILLER_2_139
*1460 FILLER_2_141
*1461 FILLER_2_15
*1462 FILLER_2_153
*1463 FILLER_2_165
*1464 FILLER_2_177
*1465 FILLER_2_189
*1466 FILLER_2_193
*1467 FILLER_2_195
*1468 FILLER_2_197
*1469 FILLER_2_209
*1470 FILLER_2_221
*1471 FILLER_2_233
*1472 FILLER_2_245
*1473 FILLER_2_249
*1474 FILLER_2_251
*1475 FILLER_2_253
*1476 FILLER_2_255
*1477 FILLER_2_27
*1478 FILLER_2_29
*1479 FILLER_2_296
*1480 FILLER_2_3
*1481 FILLER_2_309
*1482 FILLER_2_313
*1483 FILLER_2_326
*1484 FILLER_2_330
*1485 FILLER_2_363
*1486 FILLER_2_365
*1487 FILLER_2_369
*1488 FILLER_2_378
*1489 FILLER_2_388
*1490 FILLER_2_408
*1491 FILLER_2_41
*1492 FILLER_2_418
*1493 FILLER_2_421
*1494 FILLER_2_431
*1495 FILLER_2_433
*1496 FILLER_2_474
*1497 FILLER_2_477
*1498 FILLER_2_491
*1499 FILLER_2_501
*1500 FILLER_2_513
*1501 FILLER_2_529
*1502 FILLER_2_53
*1503 FILLER_2_531
*1504 FILLER_2_533
*1505 FILLER_2_542
*1506 FILLER_2_564
*1507 FILLER_2_568
*1508 FILLER_2_570
*1509 FILLER_2_585
*1510 FILLER_2_587
*1511 FILLER_2_597
*1512 FILLER_2_599
*1513 FILLER_2_614
*1514 FILLER_2_616
*1515 FILLER_2_623
*1516 FILLER_2_641
*1517 FILLER_2_643
*1518 FILLER_2_65
*1519 FILLER_2_653
*1520 FILLER_2_673
*1521 FILLER_2_677
*1522 FILLER_2_697
*1523 FILLER_2_699
*1524 FILLER_2_701
*1525 FILLER_2_735
*1526 FILLER_2_739
*1527 FILLER_2_751
*1528 FILLER_2_755
*1529 FILLER_2_77
*1530 FILLER_2_771
*1531 FILLER_2_779
*1532 FILLER_2_791
*1533 FILLER_2_799
*1534 FILLER_2_81
*1535 FILLER_2_83
*1536 FILLER_2_85
*1537 FILLER_2_97
*1538 FILLER_30_703
*1539 FILLER_30_715
*1540 FILLER_30_727
*1541 FILLER_30_729
*1542 FILLER_30_741
*1543 FILLER_30_753
*1544 FILLER_30_765
*1545 FILLER_30_777
*1546 FILLER_30_781
*1547 FILLER_30_783
*1548 FILLER_30_785
*1549 FILLER_30_797
*1550 FILLER_31_703
*1551 FILLER_31_715
*1552 FILLER_31_727
*1553 FILLER_31_739
*1554 FILLER_31_751
*1555 FILLER_31_755
*1556 FILLER_31_757
*1557 FILLER_31_769
*1558 FILLER_31_781
*1559 FILLER_31_793
*1560 FILLER_32_703
*1561 FILLER_32_715
*1562 FILLER_32_727
*1563 FILLER_32_729
*1564 FILLER_32_741
*1565 FILLER_32_753
*1566 FILLER_32_765
*1567 FILLER_32_777
*1568 FILLER_32_781
*1569 FILLER_32_783
*1570 FILLER_32_785
*1571 FILLER_32_797
*1572 FILLER_33_703
*1573 FILLER_33_715
*1574 FILLER_33_727
*1575 FILLER_33_739
*1576 FILLER_33_751
*1577 FILLER_33_755
*1578 FILLER_33_757
*1579 FILLER_33_769
*1580 FILLER_33_781
*1581 FILLER_33_793
*1582 FILLER_34_703
*1583 FILLER_34_715
*1584 FILLER_34_727
*1585 FILLER_34_729
*1586 FILLER_34_741
*1587 FILLER_34_753
*1588 FILLER_34_765
*1589 FILLER_34_777
*1590 FILLER_34_781
*1591 FILLER_34_783
*1592 FILLER_34_785
*1593 FILLER_34_797
*1594 FILLER_35_703
*1595 FILLER_35_715
*1596 FILLER_35_727
*1597 FILLER_35_739
*1598 FILLER_35_751
*1599 FILLER_35_755
*1600 FILLER_35_757
*1601 FILLER_35_769
*1602 FILLER_35_781
*1603 FILLER_35_793
*1604 FILLER_36_703
*1605 FILLER_36_715
*1606 FILLER_36_727
*1607 FILLER_36_729
*1608 FILLER_36_741
*1609 FILLER_36_753
*1610 FILLER_36_765
*1611 FILLER_36_777
*1612 FILLER_36_781
*1613 FILLER_36_783
*1614 FILLER_36_785
*1615 FILLER_36_797
*1616 FILLER_37_703
*1617 FILLER_37_715
*1618 FILLER_37_727
*1619 FILLER_37_739
*1620 FILLER_37_751
*1621 FILLER_37_755
*1622 FILLER_37_757
*1623 FILLER_37_769
*1624 FILLER_37_781
*1625 FILLER_37_793
*1626 FILLER_38_703
*1627 FILLER_38_715
*1628 FILLER_38_727
*1629 FILLER_38_729
*1630 FILLER_38_741
*1631 FILLER_38_753
*1632 FILLER_38_765
*1633 FILLER_38_777
*1634 FILLER_38_781
*1635 FILLER_38_783
*1636 FILLER_38_785
*1637 FILLER_38_797
*1638 FILLER_39_711
*1639 FILLER_39_723
*1640 FILLER_39_735
*1641 FILLER_39_747
*1642 FILLER_39_755
*1643 FILLER_39_757
*1644 FILLER_39_769
*1645 FILLER_39_781
*1646 FILLER_39_793
*1647 FILLER_3_105
*1648 FILLER_3_109
*1649 FILLER_3_111
*1650 FILLER_3_113
*1651 FILLER_3_125
*1652 FILLER_3_137
*1653 FILLER_3_149
*1654 FILLER_3_15
*1655 FILLER_3_161
*1656 FILLER_3_165
*1657 FILLER_3_167
*1658 FILLER_3_169
*1659 FILLER_3_181
*1660 FILLER_3_193
*1661 FILLER_3_205
*1662 FILLER_3_217
*1663 FILLER_3_221
*1664 FILLER_3_223
*1665 FILLER_3_225
*1666 FILLER_3_237
*1667 FILLER_3_249
*1668 FILLER_3_257
*1669 FILLER_3_259
*1670 FILLER_3_264
*1671 FILLER_3_27
*1672 FILLER_3_287
*1673 FILLER_3_3
*1674 FILLER_3_337
*1675 FILLER_3_348
*1676 FILLER_3_372
*1677 FILLER_3_379
*1678 FILLER_3_388
*1679 FILLER_3_39
*1680 FILLER_3_407
*1681 FILLER_3_415
*1682 FILLER_3_427
*1683 FILLER_3_435
*1684 FILLER_3_457
*1685 FILLER_3_465
*1686 FILLER_3_484
*1687 FILLER_3_496
*1688 FILLER_3_505
*1689 FILLER_3_51
*1690 FILLER_3_517
*1691 FILLER_3_529
*1692 FILLER_3_541
*1693 FILLER_3_55
*1694 FILLER_3_553
*1695 FILLER_3_557
*1696 FILLER_3_559
*1697 FILLER_3_561
*1698 FILLER_3_57
*1699 FILLER_3_573
*1700 FILLER_3_585
*1701 FILLER_3_597
*1702 FILLER_3_609
*1703 FILLER_3_613
*1704 FILLER_3_615
*1705 FILLER_3_617
*1706 FILLER_3_629
*1707 FILLER_3_665
*1708 FILLER_3_669
*1709 FILLER_3_671
*1710 FILLER_3_673
*1711 FILLER_3_677
*1712 FILLER_3_681
*1713 FILLER_3_69
*1714 FILLER_3_707
*1715 FILLER_3_713
*1716 FILLER_3_717
*1717 FILLER_3_726
*1718 FILLER_3_729
*1719 FILLER_3_759
*1720 FILLER_3_771
*1721 FILLER_3_783
*1722 FILLER_3_785
*1723 FILLER_3_797
*1724 FILLER_3_81
*1725 FILLER_3_93
*1726 FILLER_40_719
*1727 FILLER_40_727
*1728 FILLER_40_729
*1729 FILLER_40_741
*1730 FILLER_40_753
*1731 FILLER_40_765
*1732 FILLER_40_777
*1733 FILLER_40_781
*1734 FILLER_40_783
*1735 FILLER_40_785
*1736 FILLER_40_797
*1737 FILLER_41_729
*1738 FILLER_41_741
*1739 FILLER_41_753
*1740 FILLER_41_755
*1741 FILLER_41_757
*1742 FILLER_41_769
*1743 FILLER_41_781
*1744 FILLER_41_793
*1745 FILLER_42_719
*1746 FILLER_42_727
*1747 FILLER_42_729
*1748 FILLER_42_741
*1749 FILLER_42_753
*1750 FILLER_42_765
*1751 FILLER_42_777
*1752 FILLER_42_781
*1753 FILLER_42_783
*1754 FILLER_42_785
*1755 FILLER_42_797
*1756 FILLER_43_713
*1757 FILLER_43_725
*1758 FILLER_43_737
*1759 FILLER_43_749
*1760 FILLER_43_753
*1761 FILLER_43_755
*1762 FILLER_43_757
*1763 FILLER_43_769
*1764 FILLER_43_781
*1765 FILLER_43_793
*1766 FILLER_44_713
*1767 FILLER_44_725
*1768 FILLER_44_727
*1769 FILLER_44_729
*1770 FILLER_44_741
*1771 FILLER_44_753
*1772 FILLER_44_765
*1773 FILLER_44_777
*1774 FILLER_44_781
*1775 FILLER_44_783
*1776 FILLER_44_785
*1777 FILLER_44_797
*1778 FILLER_45_703
*1779 FILLER_45_715
*1780 FILLER_45_727
*1781 FILLER_45_739
*1782 FILLER_45_751
*1783 FILLER_45_755
*1784 FILLER_45_757
*1785 FILLER_45_769
*1786 FILLER_45_781
*1787 FILLER_45_793
*1788 FILLER_46_711
*1789 FILLER_46_723
*1790 FILLER_46_727
*1791 FILLER_46_729
*1792 FILLER_46_741
*1793 FILLER_46_753
*1794 FILLER_46_765
*1795 FILLER_46_777
*1796 FILLER_46_781
*1797 FILLER_46_783
*1798 FILLER_46_785
*1799 FILLER_46_797
*1800 FILLER_47_719
*1801 FILLER_47_731
*1802 FILLER_47_743
*1803 FILLER_47_755
*1804 FILLER_47_757
*1805 FILLER_47_769
*1806 FILLER_47_781
*1807 FILLER_47_793
*1808 FILLER_48_711
*1809 FILLER_48_723
*1810 FILLER_48_727
*1811 FILLER_48_729
*1812 FILLER_48_741
*1813 FILLER_48_753
*1814 FILLER_48_765
*1815 FILLER_48_777
*1816 FILLER_48_781
*1817 FILLER_48_783
*1818 FILLER_48_785
*1819 FILLER_48_797
*1820 FILLER_49_711
*1821 FILLER_49_723
*1822 FILLER_49_735
*1823 FILLER_49_747
*1824 FILLER_49_755
*1825 FILLER_49_757
*1826 FILLER_49_769
*1827 FILLER_49_781
*1828 FILLER_49_793
*1829 FILLER_4_109
*1830 FILLER_4_121
*1831 FILLER_4_133
*1832 FILLER_4_137
*1833 FILLER_4_139
*1834 FILLER_4_141
*1835 FILLER_4_15
*1836 FILLER_4_153
*1837 FILLER_4_165
*1838 FILLER_4_177
*1839 FILLER_4_189
*1840 FILLER_4_193
*1841 FILLER_4_195
*1842 FILLER_4_197
*1843 FILLER_4_209
*1844 FILLER_4_221
*1845 FILLER_4_233
*1846 FILLER_4_245
*1847 FILLER_4_249
*1848 FILLER_4_251
*1849 FILLER_4_253
*1850 FILLER_4_265
*1851 FILLER_4_27
*1852 FILLER_4_277
*1853 FILLER_4_281
*1854 FILLER_4_283
*1855 FILLER_4_29
*1856 FILLER_4_3
*1857 FILLER_4_309
*1858 FILLER_4_327
*1859 FILLER_4_336
*1860 FILLER_4_356
*1861 FILLER_4_360
*1862 FILLER_4_375
*1863 FILLER_4_391
*1864 FILLER_4_395
*1865 FILLER_4_397
*1866 FILLER_4_404
*1867 FILLER_4_41
*1868 FILLER_4_416
*1869 FILLER_4_421
*1870 FILLER_4_433
*1871 FILLER_4_443
*1872 FILLER_4_455
*1873 FILLER_4_467
*1874 FILLER_4_475
*1875 FILLER_4_477
*1876 FILLER_4_489
*1877 FILLER_4_501
*1878 FILLER_4_515
*1879 FILLER_4_527
*1880 FILLER_4_53
*1881 FILLER_4_531
*1882 FILLER_4_533
*1883 FILLER_4_545
*1884 FILLER_4_557
*1885 FILLER_4_569
*1886 FILLER_4_583
*1887 FILLER_4_587
*1888 FILLER_4_589
*1889 FILLER_4_601
*1890 FILLER_4_613
*1891 FILLER_4_619
*1892 FILLER_4_639
*1893 FILLER_4_643
*1894 FILLER_4_645
*1895 FILLER_4_65
*1896 FILLER_4_657
*1897 FILLER_4_661
*1898 FILLER_4_665
*1899 FILLER_4_677
*1900 FILLER_4_681
*1901 FILLER_4_699
*1902 FILLER_4_701
*1903 FILLER_4_709
*1904 FILLER_4_713
*1905 FILLER_4_725
*1906 FILLER_4_737
*1907 FILLER_4_743
*1908 FILLER_4_755
*1909 FILLER_4_757
*1910 FILLER_4_769
*1911 FILLER_4_77
*1912 FILLER_4_781
*1913 FILLER_4_793
*1914 FILLER_4_81
*1915 FILLER_4_83
*1916 FILLER_4_85
*1917 FILLER_4_97
*1918 FILLER_50_723
*1919 FILLER_50_727
*1920 FILLER_50_729
*1921 FILLER_50_741
*1922 FILLER_50_753
*1923 FILLER_50_765
*1924 FILLER_50_777
*1925 FILLER_50_781
*1926 FILLER_50_783
*1927 FILLER_50_785
*1928 FILLER_50_797
*1929 FILLER_51_703
*1930 FILLER_51_715
*1931 FILLER_51_727
*1932 FILLER_51_739
*1933 FILLER_51_751
*1934 FILLER_51_755
*1935 FILLER_51_757
*1936 FILLER_51_769
*1937 FILLER_51_781
*1938 FILLER_51_793
*1939 FILLER_52_711
*1940 FILLER_52_723
*1941 FILLER_52_727
*1942 FILLER_52_729
*1943 FILLER_52_741
*1944 FILLER_52_753
*1945 FILLER_52_765
*1946 FILLER_52_777
*1947 FILLER_52_781
*1948 FILLER_52_783
*1949 FILLER_52_785
*1950 FILLER_52_797
*1951 FILLER_53_703
*1952 FILLER_53_715
*1953 FILLER_53_727
*1954 FILLER_53_739
*1955 FILLER_53_751
*1956 FILLER_53_755
*1957 FILLER_53_757
*1958 FILLER_53_769
*1959 FILLER_53_781
*1960 FILLER_53_793
*1961 FILLER_54_711
*1962 FILLER_54_723
*1963 FILLER_54_727
*1964 FILLER_54_729
*1965 FILLER_54_741
*1966 FILLER_54_753
*1967 FILLER_54_765
*1968 FILLER_54_777
*1969 FILLER_54_781
*1970 FILLER_54_783
*1971 FILLER_54_785
*1972 FILLER_54_797
*1973 FILLER_55_703
*1974 FILLER_55_715
*1975 FILLER_55_727
*1976 FILLER_55_739
*1977 FILLER_55_751
*1978 FILLER_55_755
*1979 FILLER_55_757
*1980 FILLER_55_769
*1981 FILLER_55_781
*1982 FILLER_55_793
*1983 FILLER_56_711
*1984 FILLER_56_723
*1985 FILLER_56_727
*1986 FILLER_56_729
*1987 FILLER_56_741
*1988 FILLER_56_753
*1989 FILLER_56_765
*1990 FILLER_56_777
*1991 FILLER_56_781
*1992 FILLER_56_783
*1993 FILLER_56_785
*1994 FILLER_56_797
*1995 FILLER_57_703
*1996 FILLER_57_715
*1997 FILLER_57_727
*1998 FILLER_57_739
*1999 FILLER_57_751
*2000 FILLER_57_755
*2001 FILLER_57_757
*2002 FILLER_57_769
*2003 FILLER_57_781
*2004 FILLER_57_793
*2005 FILLER_58_711
*2006 FILLER_58_723
*2007 FILLER_58_727
*2008 FILLER_58_729
*2009 FILLER_58_741
*2010 FILLER_58_753
*2011 FILLER_58_765
*2012 FILLER_58_777
*2013 FILLER_58_781
*2014 FILLER_58_783
*2015 FILLER_58_785
*2016 FILLER_58_797
*2017 FILLER_59_703
*2018 FILLER_59_715
*2019 FILLER_59_727
*2020 FILLER_59_739
*2021 FILLER_59_751
*2022 FILLER_59_755
*2023 FILLER_59_757
*2024 FILLER_59_769
*2025 FILLER_59_781
*2026 FILLER_59_793
*2027 FILLER_5_105
*2028 FILLER_5_109
*2029 FILLER_5_111
*2030 FILLER_5_113
*2031 FILLER_5_125
*2032 FILLER_5_137
*2033 FILLER_5_149
*2034 FILLER_5_15
*2035 FILLER_5_161
*2036 FILLER_5_165
*2037 FILLER_5_167
*2038 FILLER_5_169
*2039 FILLER_5_181
*2040 FILLER_5_193
*2041 FILLER_5_205
*2042 FILLER_5_217
*2043 FILLER_5_221
*2044 FILLER_5_223
*2045 FILLER_5_225
*2046 FILLER_5_237
*2047 FILLER_5_249
*2048 FILLER_5_261
*2049 FILLER_5_27
*2050 FILLER_5_273
*2051 FILLER_5_277
*2052 FILLER_5_279
*2053 FILLER_5_281
*2054 FILLER_5_283
*2055 FILLER_5_298
*2056 FILLER_5_3
*2057 FILLER_5_337
*2058 FILLER_5_388
*2059 FILLER_5_39
*2060 FILLER_5_393
*2061 FILLER_5_405
*2062 FILLER_5_417
*2063 FILLER_5_425
*2064 FILLER_5_433
*2065 FILLER_5_445
*2066 FILLER_5_447
*2067 FILLER_5_449
*2068 FILLER_5_461
*2069 FILLER_5_473
*2070 FILLER_5_485
*2071 FILLER_5_493
*2072 FILLER_5_505
*2073 FILLER_5_509
*2074 FILLER_5_51
*2075 FILLER_5_521
*2076 FILLER_5_525
*2077 FILLER_5_527
*2078 FILLER_5_538
*2079 FILLER_5_542
*2080 FILLER_5_544
*2081 FILLER_5_55
*2082 FILLER_5_555
*2083 FILLER_5_559
*2084 FILLER_5_561
*2085 FILLER_5_57
*2086 FILLER_5_572
*2087 FILLER_5_580
*2088 FILLER_5_589
*2089 FILLER_5_593
*2090 FILLER_5_595
*2091 FILLER_5_606
*2092 FILLER_5_614
*2093 FILLER_5_625
*2094 FILLER_5_629
*2095 FILLER_5_639
*2096 FILLER_5_655
*2097 FILLER_5_665
*2098 FILLER_5_669
*2099 FILLER_5_671
*2100 FILLER_5_673
*2101 FILLER_5_677
*2102 FILLER_5_687
*2103 FILLER_5_69
*2104 FILLER_5_699
*2105 FILLER_5_703
*2106 FILLER_5_713
*2107 FILLER_5_725
*2108 FILLER_5_729
*2109 FILLER_5_743
*2110 FILLER_5_755
*2111 FILLER_5_767
*2112 FILLER_5_779
*2113 FILLER_5_783
*2114 FILLER_5_785
*2115 FILLER_5_797
*2116 FILLER_5_81
*2117 FILLER_5_93
*2118 FILLER_60_711
*2119 FILLER_60_723
*2120 FILLER_60_727
*2121 FILLER_60_729
*2122 FILLER_60_741
*2123 FILLER_60_753
*2124 FILLER_60_765
*2125 FILLER_60_777
*2126 FILLER_60_781
*2127 FILLER_60_783
*2128 FILLER_60_785
*2129 FILLER_60_797
*2130 FILLER_61_711
*2131 FILLER_61_723
*2132 FILLER_61_735
*2133 FILLER_61_747
*2134 FILLER_61_755
*2135 FILLER_61_757
*2136 FILLER_61_769
*2137 FILLER_61_781
*2138 FILLER_61_793
*2139 FILLER_62_719
*2140 FILLER_62_727
*2141 FILLER_62_729
*2142 FILLER_62_741
*2143 FILLER_62_753
*2144 FILLER_62_765
*2145 FILLER_62_777
*2146 FILLER_62_781
*2147 FILLER_62_783
*2148 FILLER_62_785
*2149 FILLER_62_797
*2150 FILLER_63_723
*2151 FILLER_63_735
*2152 FILLER_63_747
*2153 FILLER_63_755
*2154 FILLER_63_757
*2155 FILLER_63_769
*2156 FILLER_63_781
*2157 FILLER_63_793
*2158 FILLER_64_711
*2159 FILLER_64_723
*2160 FILLER_64_727
*2161 FILLER_64_729
*2162 FILLER_64_741
*2163 FILLER_64_753
*2164 FILLER_64_765
*2165 FILLER_64_777
*2166 FILLER_64_781
*2167 FILLER_64_783
*2168 FILLER_64_785
*2169 FILLER_64_797
*2170 FILLER_65_703
*2171 FILLER_65_715
*2172 FILLER_65_727
*2173 FILLER_65_739
*2174 FILLER_65_751
*2175 FILLER_65_755
*2176 FILLER_65_757
*2177 FILLER_65_769
*2178 FILLER_65_781
*2179 FILLER_65_793
*2180 FILLER_66_703
*2181 FILLER_66_715
*2182 FILLER_66_727
*2183 FILLER_66_729
*2184 FILLER_66_741
*2185 FILLER_66_753
*2186 FILLER_66_765
*2187 FILLER_66_777
*2188 FILLER_66_781
*2189 FILLER_66_783
*2190 FILLER_66_785
*2191 FILLER_66_797
*2192 FILLER_67_711
*2193 FILLER_67_723
*2194 FILLER_67_735
*2195 FILLER_67_747
*2196 FILLER_67_755
*2197 FILLER_67_757
*2198 FILLER_67_769
*2199 FILLER_67_781
*2200 FILLER_67_793
*2201 FILLER_68_711
*2202 FILLER_68_723
*2203 FILLER_68_727
*2204 FILLER_68_729
*2205 FILLER_68_741
*2206 FILLER_68_753
*2207 FILLER_68_765
*2208 FILLER_68_777
*2209 FILLER_68_781
*2210 FILLER_68_783
*2211 FILLER_68_785
*2212 FILLER_68_797
*2213 FILLER_69_703
*2214 FILLER_69_715
*2215 FILLER_69_727
*2216 FILLER_69_739
*2217 FILLER_69_751
*2218 FILLER_69_755
*2219 FILLER_69_757
*2220 FILLER_69_769
*2221 FILLER_69_781
*2222 FILLER_69_793
*2223 FILLER_6_109
*2224 FILLER_6_121
*2225 FILLER_6_133
*2226 FILLER_6_137
*2227 FILLER_6_139
*2228 FILLER_6_141
*2229 FILLER_6_15
*2230 FILLER_6_153
*2231 FILLER_6_165
*2232 FILLER_6_177
*2233 FILLER_6_189
*2234 FILLER_6_193
*2235 FILLER_6_195
*2236 FILLER_6_197
*2237 FILLER_6_209
*2238 FILLER_6_221
*2239 FILLER_6_233
*2240 FILLER_6_245
*2241 FILLER_6_249
*2242 FILLER_6_251
*2243 FILLER_6_253
*2244 FILLER_6_265
*2245 FILLER_6_27
*2246 FILLER_6_277
*2247 FILLER_6_289
*2248 FILLER_6_29
*2249 FILLER_6_297
*2250 FILLER_6_3
*2251 FILLER_6_309
*2252 FILLER_6_311
*2253 FILLER_6_333
*2254 FILLER_6_335
*2255 FILLER_6_344
*2256 FILLER_6_356
*2257 FILLER_6_375
*2258 FILLER_6_387
*2259 FILLER_6_399
*2260 FILLER_6_41
*2261 FILLER_6_411
*2262 FILLER_6_419
*2263 FILLER_6_421
*2264 FILLER_6_433
*2265 FILLER_6_445
*2266 FILLER_6_457
*2267 FILLER_6_469
*2268 FILLER_6_473
*2269 FILLER_6_475
*2270 FILLER_6_477
*2271 FILLER_6_481
*2272 FILLER_6_483
*2273 FILLER_6_500
*2274 FILLER_6_504
*2275 FILLER_6_521
*2276 FILLER_6_529
*2277 FILLER_6_53
*2278 FILLER_6_531
*2279 FILLER_6_533
*2280 FILLER_6_545
*2281 FILLER_6_557
*2282 FILLER_6_569
*2283 FILLER_6_581
*2284 FILLER_6_585
*2285 FILLER_6_587
*2286 FILLER_6_589
*2287 FILLER_6_601
*2288 FILLER_6_613
*2289 FILLER_6_625
*2290 FILLER_6_629
*2291 FILLER_6_633
*2292 FILLER_6_641
*2293 FILLER_6_643
*2294 FILLER_6_645
*2295 FILLER_6_65
*2296 FILLER_6_657
*2297 FILLER_6_661
*2298 FILLER_6_671
*2299 FILLER_6_681
*2300 FILLER_6_693
*2301 FILLER_6_697
*2302 FILLER_6_699
*2303 FILLER_6_709
*2304 FILLER_6_719
*2305 FILLER_6_723
*2306 FILLER_6_725
*2307 FILLER_6_734
*2308 FILLER_6_738
*2309 FILLER_6_740
*2310 FILLER_6_749
*2311 FILLER_6_753
*2312 FILLER_6_755
*2313 FILLER_6_757
*2314 FILLER_6_769
*2315 FILLER_6_77
*2316 FILLER_6_781
*2317 FILLER_6_793
*2318 FILLER_6_81
*2319 FILLER_6_83
*2320 FILLER_6_85
*2321 FILLER_6_97
*2322 FILLER_70_711
*2323 FILLER_70_723
*2324 FILLER_70_727
*2325 FILLER_70_729
*2326 FILLER_70_741
*2327 FILLER_70_753
*2328 FILLER_70_765
*2329 FILLER_70_777
*2330 FILLER_70_781
*2331 FILLER_70_783
*2332 FILLER_70_785
*2333 FILLER_70_797
*2334 FILLER_71_703
*2335 FILLER_71_715
*2336 FILLER_71_727
*2337 FILLER_71_739
*2338 FILLER_71_751
*2339 FILLER_71_755
*2340 FILLER_71_757
*2341 FILLER_71_769
*2342 FILLER_71_781
*2343 FILLER_71_793
*2344 FILLER_72_703
*2345 FILLER_72_719
*2346 FILLER_72_727
*2347 FILLER_72_729
*2348 FILLER_72_741
*2349 FILLER_72_753
*2350 FILLER_72_765
*2351 FILLER_72_777
*2352 FILLER_72_781
*2353 FILLER_72_783
*2354 FILLER_72_785
*2355 FILLER_72_797
*2356 FILLER_73_703
*2357 FILLER_73_715
*2358 FILLER_73_727
*2359 FILLER_73_739
*2360 FILLER_73_751
*2361 FILLER_73_755
*2362 FILLER_73_757
*2363 FILLER_73_769
*2364 FILLER_73_781
*2365 FILLER_73_793
*2366 FILLER_74_703
*2367 FILLER_74_711
*2368 FILLER_74_713
*2369 FILLER_74_722
*2370 FILLER_74_726
*2371 FILLER_74_729
*2372 FILLER_74_741
*2373 FILLER_74_753
*2374 FILLER_74_765
*2375 FILLER_74_777
*2376 FILLER_74_781
*2377 FILLER_74_783
*2378 FILLER_74_785
*2379 FILLER_74_797
*2380 FILLER_75_703
*2381 FILLER_75_715
*2382 FILLER_75_727
*2383 FILLER_75_739
*2384 FILLER_75_751
*2385 FILLER_75_755
*2386 FILLER_75_757
*2387 FILLER_75_769
*2388 FILLER_75_781
*2389 FILLER_75_793
*2390 FILLER_76_706
*2391 FILLER_76_718
*2392 FILLER_76_726
*2393 FILLER_76_737
*2394 FILLER_76_749
*2395 FILLER_76_761
*2396 FILLER_76_773
*2397 FILLER_76_781
*2398 FILLER_76_783
*2399 FILLER_76_785
*2400 FILLER_76_797
*2401 FILLER_77_703
*2402 FILLER_77_715
*2403 FILLER_77_727
*2404 FILLER_77_739
*2405 FILLER_77_751
*2406 FILLER_77_755
*2407 FILLER_77_757
*2408 FILLER_77_769
*2409 FILLER_77_781
*2410 FILLER_77_793
*2411 FILLER_78_706
*2412 FILLER_78_718
*2413 FILLER_78_726
*2414 FILLER_78_729
*2415 FILLER_78_741
*2416 FILLER_78_753
*2417 FILLER_78_765
*2418 FILLER_78_777
*2419 FILLER_78_781
*2420 FILLER_78_783
*2421 FILLER_78_785
*2422 FILLER_78_797
*2423 FILLER_79_703
*2424 FILLER_79_715
*2425 FILLER_79_727
*2426 FILLER_79_739
*2427 FILLER_79_751
*2428 FILLER_79_755
*2429 FILLER_79_757
*2430 FILLER_79_769
*2431 FILLER_79_781
*2432 FILLER_79_793
*2433 FILLER_7_105
*2434 FILLER_7_109
*2435 FILLER_7_111
*2436 FILLER_7_113
*2437 FILLER_7_125
*2438 FILLER_7_137
*2439 FILLER_7_149
*2440 FILLER_7_15
*2441 FILLER_7_161
*2442 FILLER_7_165
*2443 FILLER_7_167
*2444 FILLER_7_169
*2445 FILLER_7_181
*2446 FILLER_7_193
*2447 FILLER_7_205
*2448 FILLER_7_217
*2449 FILLER_7_221
*2450 FILLER_7_223
*2451 FILLER_7_225
*2452 FILLER_7_237
*2453 FILLER_7_249
*2454 FILLER_7_261
*2455 FILLER_7_27
*2456 FILLER_7_273
*2457 FILLER_7_277
*2458 FILLER_7_279
*2459 FILLER_7_281
*2460 FILLER_7_293
*2461 FILLER_7_3
*2462 FILLER_7_305
*2463 FILLER_7_313
*2464 FILLER_7_324
*2465 FILLER_7_327
*2466 FILLER_7_343
*2467 FILLER_7_355
*2468 FILLER_7_367
*2469 FILLER_7_369
*2470 FILLER_7_372
*2471 FILLER_7_384
*2472 FILLER_7_39
*2473 FILLER_7_393
*2474 FILLER_7_405
*2475 FILLER_7_417
*2476 FILLER_7_429
*2477 FILLER_7_441
*2478 FILLER_7_445
*2479 FILLER_7_447
*2480 FILLER_7_449
*2481 FILLER_7_461
*2482 FILLER_7_473
*2483 FILLER_7_51
*2484 FILLER_7_523
*2485 FILLER_7_535
*2486 FILLER_7_537
*2487 FILLER_7_546
*2488 FILLER_7_55
*2489 FILLER_7_558
*2490 FILLER_7_561
*2491 FILLER_7_57
*2492 FILLER_7_573
*2493 FILLER_7_577
*2494 FILLER_7_587
*2495 FILLER_7_599
*2496 FILLER_7_611
*2497 FILLER_7_615
*2498 FILLER_7_617
*2499 FILLER_7_629
*2500 FILLER_7_633
*2501 FILLER_7_645
*2502 FILLER_7_657
*2503 FILLER_7_661
*2504 FILLER_7_665
*2505 FILLER_7_669
*2506 FILLER_7_671
*2507 FILLER_7_673
*2508 FILLER_7_677
*2509 FILLER_7_681
*2510 FILLER_7_69
*2511 FILLER_7_693
*2512 FILLER_7_705
*2513 FILLER_7_709
*2514 FILLER_7_713
*2515 FILLER_7_725
*2516 FILLER_7_727
*2517 FILLER_7_729
*2518 FILLER_7_743
*2519 FILLER_7_755
*2520 FILLER_7_767
*2521 FILLER_7_779
*2522 FILLER_7_783
*2523 FILLER_7_785
*2524 FILLER_7_797
*2525 FILLER_7_81
*2526 FILLER_7_93
*2527 FILLER_80_703
*2528 FILLER_80_715
*2529 FILLER_80_727
*2530 FILLER_80_729
*2531 FILLER_80_741
*2532 FILLER_80_753
*2533 FILLER_80_765
*2534 FILLER_80_777
*2535 FILLER_80_781
*2536 FILLER_80_783
*2537 FILLER_80_785
*2538 FILLER_80_797
*2539 FILLER_81_703
*2540 FILLER_81_715
*2541 FILLER_81_727
*2542 FILLER_81_739
*2543 FILLER_81_751
*2544 FILLER_81_755
*2545 FILLER_81_757
*2546 FILLER_81_769
*2547 FILLER_81_781
*2548 FILLER_81_793
*2549 FILLER_82_703
*2550 FILLER_82_715
*2551 FILLER_82_727
*2552 FILLER_82_729
*2553 FILLER_82_741
*2554 FILLER_82_753
*2555 FILLER_82_765
*2556 FILLER_82_777
*2557 FILLER_82_781
*2558 FILLER_82_783
*2559 FILLER_82_785
*2560 FILLER_82_797
*2561 FILLER_83_703
*2562 FILLER_83_715
*2563 FILLER_83_727
*2564 FILLER_83_739
*2565 FILLER_83_751
*2566 FILLER_83_755
*2567 FILLER_83_757
*2568 FILLER_83_769
*2569 FILLER_83_781
*2570 FILLER_83_793
*2571 FILLER_84_709
*2572 FILLER_84_721
*2573 FILLER_84_725
*2574 FILLER_84_727
*2575 FILLER_84_729
*2576 FILLER_84_741
*2577 FILLER_84_753
*2578 FILLER_84_765
*2579 FILLER_84_777
*2580 FILLER_84_781
*2581 FILLER_84_783
*2582 FILLER_84_785
*2583 FILLER_84_797
*2584 FILLER_85_703
*2585 FILLER_85_715
*2586 FILLER_85_727
*2587 FILLER_85_739
*2588 FILLER_85_751
*2589 FILLER_85_755
*2590 FILLER_85_757
*2591 FILLER_85_769
*2592 FILLER_85_781
*2593 FILLER_85_793
*2594 FILLER_86_703
*2595 FILLER_86_715
*2596 FILLER_86_727
*2597 FILLER_86_729
*2598 FILLER_86_741
*2599 FILLER_86_753
*2600 FILLER_86_765
*2601 FILLER_86_777
*2602 FILLER_86_781
*2603 FILLER_86_783
*2604 FILLER_86_785
*2605 FILLER_86_797
*2606 FILLER_87_703
*2607 FILLER_87_715
*2608 FILLER_87_727
*2609 FILLER_87_739
*2610 FILLER_87_751
*2611 FILLER_87_755
*2612 FILLER_87_757
*2613 FILLER_87_769
*2614 FILLER_87_781
*2615 FILLER_87_793
*2616 FILLER_88_706
*2617 FILLER_88_718
*2618 FILLER_88_726
*2619 FILLER_88_729
*2620 FILLER_88_741
*2621 FILLER_88_753
*2622 FILLER_88_765
*2623 FILLER_88_777
*2624 FILLER_88_781
*2625 FILLER_88_783
*2626 FILLER_88_785
*2627 FILLER_88_797
*2628 FILLER_89_706
*2629 FILLER_89_718
*2630 FILLER_89_730
*2631 FILLER_89_742
*2632 FILLER_89_754
*2633 FILLER_89_757
*2634 FILLER_89_769
*2635 FILLER_89_781
*2636 FILLER_89_793
*2637 FILLER_8_109
*2638 FILLER_8_111
*2639 FILLER_8_113
*2640 FILLER_8_125
*2641 FILLER_8_137
*2642 FILLER_8_139
*2643 FILLER_8_141
*2644 FILLER_8_15
*2645 FILLER_8_153
*2646 FILLER_8_165
*2647 FILLER_8_167
*2648 FILLER_8_169
*2649 FILLER_8_181
*2650 FILLER_8_193
*2651 FILLER_8_195
*2652 FILLER_8_197
*2653 FILLER_8_209
*2654 FILLER_8_221
*2655 FILLER_8_223
*2656 FILLER_8_225
*2657 FILLER_8_237
*2658 FILLER_8_249
*2659 FILLER_8_251
*2660 FILLER_8_253
*2661 FILLER_8_265
*2662 FILLER_8_27
*2663 FILLER_8_277
*2664 FILLER_8_279
*2665 FILLER_8_281
*2666 FILLER_8_29
*2667 FILLER_8_293
*2668 FILLER_8_3
*2669 FILLER_8_305
*2670 FILLER_8_307
*2671 FILLER_8_309
*2672 FILLER_8_321
*2673 FILLER_8_333
*2674 FILLER_8_335
*2675 FILLER_8_337
*2676 FILLER_8_349
*2677 FILLER_8_361
*2678 FILLER_8_363
*2679 FILLER_8_365
*2680 FILLER_8_377
*2681 FILLER_8_389
*2682 FILLER_8_391
*2683 FILLER_8_393
*2684 FILLER_8_405
*2685 FILLER_8_41
*2686 FILLER_8_417
*2687 FILLER_8_419
*2688 FILLER_8_421
*2689 FILLER_8_433
*2690 FILLER_8_445
*2691 FILLER_8_447
*2692 FILLER_8_449
*2693 FILLER_8_457
*2694 FILLER_8_465
*2695 FILLER_8_467
*2696 FILLER_8_477
*2697 FILLER_8_479
*2698 FILLER_8_505
*2699 FILLER_8_517
*2700 FILLER_8_529
*2701 FILLER_8_53
*2702 FILLER_8_531
*2703 FILLER_8_55
*2704 FILLER_8_557
*2705 FILLER_8_559
*2706 FILLER_8_57
*2707 FILLER_8_585
*2708 FILLER_8_587
*2709 FILLER_8_613
*2710 FILLER_8_615
*2711 FILLER_8_617
*2712 FILLER_8_629
*2713 FILLER_8_637
*2714 FILLER_8_641
*2715 FILLER_8_643
*2716 FILLER_8_645
*2717 FILLER_8_657
*2718 FILLER_8_661
*2719 FILLER_8_671
*2720 FILLER_8_673
*2721 FILLER_8_677
*2722 FILLER_8_685
*2723 FILLER_8_69
*2724 FILLER_8_697
*2725 FILLER_8_699
*2726 FILLER_8_701
*2727 FILLER_8_709
*2728 FILLER_8_713
*2729 FILLER_8_725
*2730 FILLER_8_727
*2731 FILLER_8_729
*2732 FILLER_8_743
*2733 FILLER_8_755
*2734 FILLER_8_757
*2735 FILLER_8_769
*2736 FILLER_8_781
*2737 FILLER_8_783
*2738 FILLER_8_785
*2739 FILLER_8_797
*2740 FILLER_8_81
*2741 FILLER_8_83
*2742 FILLER_8_85
*2743 FILLER_8_97
*2744 FILLER_90_706
*2745 FILLER_90_718
*2746 FILLER_90_726
*2747 FILLER_90_729
*2748 FILLER_90_741
*2749 FILLER_90_753
*2750 FILLER_90_765
*2751 FILLER_90_777
*2752 FILLER_90_781
*2753 FILLER_90_783
*2754 FILLER_90_785
*2755 FILLER_90_797
*2756 FILLER_91_703
*2757 FILLER_91_715
*2758 FILLER_91_727
*2759 FILLER_91_739
*2760 FILLER_91_751
*2761 FILLER_91_755
*2762 FILLER_91_757
*2763 FILLER_91_769
*2764 FILLER_91_781
*2765 FILLER_91_793
*2766 FILLER_92_703
*2767 FILLER_92_715
*2768 FILLER_92_727
*2769 FILLER_92_729
*2770 FILLER_92_741
*2771 FILLER_92_753
*2772 FILLER_92_765
*2773 FILLER_92_777
*2774 FILLER_92_781
*2775 FILLER_92_783
*2776 FILLER_92_785
*2777 FILLER_92_797
*2778 FILLER_93_703
*2779 FILLER_93_715
*2780 FILLER_93_727
*2781 FILLER_93_739
*2782 FILLER_93_751
*2783 FILLER_93_755
*2784 FILLER_93_757
*2785 FILLER_93_769
*2786 FILLER_93_781
*2787 FILLER_93_793
*2788 FILLER_94_709
*2789 FILLER_94_721
*2790 FILLER_94_725
*2791 FILLER_94_727
*2792 FILLER_94_729
*2793 FILLER_94_741
*2794 FILLER_94_753
*2795 FILLER_94_765
*2796 FILLER_94_777
*2797 FILLER_94_781
*2798 FILLER_94_783
*2799 FILLER_94_785
*2800 FILLER_94_797
*2801 FILLER_95_703
*2802 FILLER_95_715
*2803 FILLER_95_727
*2804 FILLER_95_739
*2805 FILLER_95_751
*2806 FILLER_95_755
*2807 FILLER_95_757
*2808 FILLER_95_769
*2809 FILLER_95_781
*2810 FILLER_95_793
*2811 FILLER_96_703
*2812 FILLER_96_715
*2813 FILLER_96_727
*2814 FILLER_96_729
*2815 FILLER_96_741
*2816 FILLER_96_753
*2817 FILLER_96_765
*2818 FILLER_96_777
*2819 FILLER_96_781
*2820 FILLER_96_783
*2821 FILLER_96_785
*2822 FILLER_96_797
*2823 FILLER_97_703
*2824 FILLER_97_715
*2825 FILLER_97_727
*2826 FILLER_97_739
*2827 FILLER_97_751
*2828 FILLER_97_755
*2829 FILLER_97_757
*2830 FILLER_97_769
*2831 FILLER_97_781
*2832 FILLER_97_793
*2833 FILLER_98_703
*2834 FILLER_98_715
*2835 FILLER_98_727
*2836 FILLER_98_729
*2837 FILLER_98_741
*2838 FILLER_98_753
*2839 FILLER_98_765
*2840 FILLER_98_777
*2841 FILLER_98_781
*2842 FILLER_98_783
*2843 FILLER_98_785
*2844 FILLER_98_797
*2845 FILLER_99_703
*2846 FILLER_99_715
*2847 FILLER_99_727
*2848 FILLER_99_739
*2849 FILLER_99_751
*2850 FILLER_99_755
*2851 FILLER_99_757
*2852 FILLER_99_769
*2853 FILLER_99_781
*2854 FILLER_99_793
*2855 FILLER_9_703
*2856 FILLER_9_713
*2857 FILLER_9_725
*2858 FILLER_9_737
*2859 FILLER_9_743
*2860 FILLER_9_755
*2861 FILLER_9_757
*2862 FILLER_9_769
*2863 FILLER_9_781
*2864 FILLER_9_793
*2865 PHY_EDGE_ROW_0_Left_0
*2866 PHY_EDGE_ROW_0_Right_9
*2867 PHY_EDGE_ROW_100_2_Left_255
*2868 PHY_EDGE_ROW_100_2_Right_108
*2869 PHY_EDGE_ROW_101_2_Left_256
*2870 PHY_EDGE_ROW_101_2_Right_109
*2871 PHY_EDGE_ROW_102_2_Left_257
*2872 PHY_EDGE_ROW_102_2_Right_110
*2873 PHY_EDGE_ROW_103_2_Left_258
*2874 PHY_EDGE_ROW_103_2_Right_111
*2875 PHY_EDGE_ROW_104_2_Left_259
*2876 PHY_EDGE_ROW_104_2_Right_112
*2877 PHY_EDGE_ROW_105_2_Left_260
*2878 PHY_EDGE_ROW_105_2_Right_113
*2879 PHY_EDGE_ROW_106_2_Left_261
*2880 PHY_EDGE_ROW_106_2_Right_114
*2881 PHY_EDGE_ROW_107_2_Left_262
*2882 PHY_EDGE_ROW_107_2_Right_115
*2883 PHY_EDGE_ROW_108_2_Left_263
*2884 PHY_EDGE_ROW_108_2_Right_116
*2885 PHY_EDGE_ROW_109_2_Left_264
*2886 PHY_EDGE_ROW_109_2_Right_117
*2887 PHY_EDGE_ROW_10_2_Left_165
*2888 PHY_EDGE_ROW_10_2_Right_18
*2889 PHY_EDGE_ROW_110_2_Left_265
*2890 PHY_EDGE_ROW_110_2_Right_118
*2891 PHY_EDGE_ROW_111_2_Left_266
*2892 PHY_EDGE_ROW_111_2_Right_119
*2893 PHY_EDGE_ROW_112_2_Left_267
*2894 PHY_EDGE_ROW_112_2_Right_120
*2895 PHY_EDGE_ROW_113_2_Left_268
*2896 PHY_EDGE_ROW_113_2_Right_121
*2897 PHY_EDGE_ROW_114_2_Left_269
*2898 PHY_EDGE_ROW_114_2_Right_122
*2899 PHY_EDGE_ROW_115_2_Left_270
*2900 PHY_EDGE_ROW_115_2_Right_123
*2901 PHY_EDGE_ROW_116_2_Left_271
*2902 PHY_EDGE_ROW_116_2_Right_124
*2903 PHY_EDGE_ROW_117_2_Left_272
*2904 PHY_EDGE_ROW_117_2_Right_125
*2905 PHY_EDGE_ROW_118_2_Left_273
*2906 PHY_EDGE_ROW_118_2_Right_126
*2907 PHY_EDGE_ROW_119_2_Left_274
*2908 PHY_EDGE_ROW_119_2_Right_127
*2909 PHY_EDGE_ROW_11_2_Left_166
*2910 PHY_EDGE_ROW_11_2_Right_19
*2911 PHY_EDGE_ROW_120_2_Left_275
*2912 PHY_EDGE_ROW_120_2_Right_128
*2913 PHY_EDGE_ROW_121_2_Left_276
*2914 PHY_EDGE_ROW_121_2_Right_129
*2915 PHY_EDGE_ROW_122_2_Left_277
*2916 PHY_EDGE_ROW_122_2_Right_130
*2917 PHY_EDGE_ROW_123_2_Left_278
*2918 PHY_EDGE_ROW_123_2_Right_131
*2919 PHY_EDGE_ROW_124_2_Left_279
*2920 PHY_EDGE_ROW_124_2_Right_132
*2921 PHY_EDGE_ROW_125_2_Left_280
*2922 PHY_EDGE_ROW_125_2_Right_133
*2923 PHY_EDGE_ROW_126_2_Left_281
*2924 PHY_EDGE_ROW_126_2_Right_134
*2925 PHY_EDGE_ROW_127_2_Left_282
*2926 PHY_EDGE_ROW_127_2_Right_135
*2927 PHY_EDGE_ROW_128_2_Left_283
*2928 PHY_EDGE_ROW_128_2_Right_136
*2929 PHY_EDGE_ROW_129_2_Left_284
*2930 PHY_EDGE_ROW_129_2_Right_137
*2931 PHY_EDGE_ROW_12_2_Left_167
*2932 PHY_EDGE_ROW_12_2_Right_20
*2933 PHY_EDGE_ROW_130_2_Left_285
*2934 PHY_EDGE_ROW_130_2_Right_138
*2935 PHY_EDGE_ROW_131_2_Left_286
*2936 PHY_EDGE_ROW_131_2_Right_139
*2937 PHY_EDGE_ROW_132_2_Left_287
*2938 PHY_EDGE_ROW_132_2_Right_140
*2939 PHY_EDGE_ROW_133_2_Left_288
*2940 PHY_EDGE_ROW_133_2_Right_141
*2941 PHY_EDGE_ROW_134_2_Left_289
*2942 PHY_EDGE_ROW_134_2_Right_142
*2943 PHY_EDGE_ROW_135_2_Left_290
*2944 PHY_EDGE_ROW_135_2_Right_143
*2945 PHY_EDGE_ROW_136_2_Left_291
*2946 PHY_EDGE_ROW_136_2_Right_144
*2947 PHY_EDGE_ROW_137_2_Left_292
*2948 PHY_EDGE_ROW_137_2_Right_145
*2949 PHY_EDGE_ROW_138_2_Left_293
*2950 PHY_EDGE_ROW_138_2_Right_146
*2951 PHY_EDGE_ROW_139_2_Left_294
*2952 PHY_EDGE_ROW_139_2_Right_147
*2953 PHY_EDGE_ROW_13_2_Left_168
*2954 PHY_EDGE_ROW_13_2_Right_21
*2955 PHY_EDGE_ROW_140_2_Left_295
*2956 PHY_EDGE_ROW_140_2_Right_148
*2957 PHY_EDGE_ROW_141_2_Left_296
*2958 PHY_EDGE_ROW_141_2_Right_149
*2959 PHY_EDGE_ROW_142_2_Left_297
*2960 PHY_EDGE_ROW_142_2_Right_150
*2961 PHY_EDGE_ROW_143_2_Left_298
*2962 PHY_EDGE_ROW_143_2_Right_151
*2963 PHY_EDGE_ROW_144_2_Left_299
*2964 PHY_EDGE_ROW_144_2_Right_152
*2965 PHY_EDGE_ROW_145_2_Left_300
*2966 PHY_EDGE_ROW_145_2_Right_153
*2967 PHY_EDGE_ROW_146_2_Left_301
*2968 PHY_EDGE_ROW_146_2_Right_154
*2969 PHY_EDGE_ROW_147_2_Left_302
*2970 PHY_EDGE_ROW_147_2_Right_155
*2971 PHY_EDGE_ROW_148_2_Left_303
*2972 PHY_EDGE_ROW_148_2_Right_156
*2973 PHY_EDGE_ROW_149_2_Left_304
*2974 PHY_EDGE_ROW_149_2_Right_157
*2975 PHY_EDGE_ROW_14_2_Left_169
*2976 PHY_EDGE_ROW_14_2_Right_22
*2977 PHY_EDGE_ROW_150_2_Left_305
*2978 PHY_EDGE_ROW_150_2_Right_158
*2979 PHY_EDGE_ROW_151_2_Left_306
*2980 PHY_EDGE_ROW_151_2_Right_159
*2981 PHY_EDGE_ROW_152_2_Left_307
*2982 PHY_EDGE_ROW_152_2_Right_160
*2983 PHY_EDGE_ROW_153_2_Left_308
*2984 PHY_EDGE_ROW_153_2_Right_161
*2985 PHY_EDGE_ROW_154_2_Left_309
*2986 PHY_EDGE_ROW_154_2_Right_162
*2987 PHY_EDGE_ROW_155_2_Left_310
*2988 PHY_EDGE_ROW_155_2_Right_163
*2989 PHY_EDGE_ROW_15_2_Left_170
*2990 PHY_EDGE_ROW_15_2_Right_23
*2991 PHY_EDGE_ROW_16_2_Left_171
*2992 PHY_EDGE_ROW_16_2_Right_24
*2993 PHY_EDGE_ROW_17_2_Left_172
*2994 PHY_EDGE_ROW_17_2_Right_25
*2995 PHY_EDGE_ROW_18_2_Left_173
*2996 PHY_EDGE_ROW_18_2_Right_26
*2997 PHY_EDGE_ROW_19_2_Left_174
*2998 PHY_EDGE_ROW_19_2_Right_27
*2999 PHY_EDGE_ROW_1_Left_1
*3000 PHY_EDGE_ROW_1_Right_10
*3001 PHY_EDGE_ROW_20_2_Left_175
*3002 PHY_EDGE_ROW_20_2_Right_28
*3003 PHY_EDGE_ROW_21_2_Left_176
*3004 PHY_EDGE_ROW_21_2_Right_29
*3005 PHY_EDGE_ROW_22_2_Left_177
*3006 PHY_EDGE_ROW_22_2_Right_30
*3007 PHY_EDGE_ROW_23_2_Left_178
*3008 PHY_EDGE_ROW_23_2_Right_31
*3009 PHY_EDGE_ROW_24_2_Left_179
*3010 PHY_EDGE_ROW_24_2_Right_32
*3011 PHY_EDGE_ROW_25_2_Left_180
*3012 PHY_EDGE_ROW_25_2_Right_33
*3013 PHY_EDGE_ROW_26_2_Left_181
*3014 PHY_EDGE_ROW_26_2_Right_34
*3015 PHY_EDGE_ROW_27_2_Left_182
*3016 PHY_EDGE_ROW_27_2_Right_35
*3017 PHY_EDGE_ROW_28_2_Left_183
*3018 PHY_EDGE_ROW_28_2_Right_36
*3019 PHY_EDGE_ROW_29_2_Left_184
*3020 PHY_EDGE_ROW_29_2_Right_37
*3021 PHY_EDGE_ROW_2_Left_2
*3022 PHY_EDGE_ROW_2_Right_11
*3023 PHY_EDGE_ROW_30_2_Left_185
*3024 PHY_EDGE_ROW_30_2_Right_38
*3025 PHY_EDGE_ROW_31_2_Left_186
*3026 PHY_EDGE_ROW_31_2_Right_39
*3027 PHY_EDGE_ROW_32_2_Left_187
*3028 PHY_EDGE_ROW_32_2_Right_40
*3029 PHY_EDGE_ROW_33_2_Left_188
*3030 PHY_EDGE_ROW_33_2_Right_41
*3031 PHY_EDGE_ROW_34_2_Left_189
*3032 PHY_EDGE_ROW_34_2_Right_42
*3033 PHY_EDGE_ROW_35_2_Left_190
*3034 PHY_EDGE_ROW_35_2_Right_43
*3035 PHY_EDGE_ROW_36_2_Left_191
*3036 PHY_EDGE_ROW_36_2_Right_44
*3037 PHY_EDGE_ROW_37_2_Left_192
*3038 PHY_EDGE_ROW_37_2_Right_45
*3039 PHY_EDGE_ROW_38_2_Left_193
*3040 PHY_EDGE_ROW_38_2_Right_46
*3041 PHY_EDGE_ROW_39_2_Left_194
*3042 PHY_EDGE_ROW_39_2_Right_47
*3043 PHY_EDGE_ROW_3_Left_3
*3044 PHY_EDGE_ROW_3_Right_12
*3045 PHY_EDGE_ROW_40_2_Left_195
*3046 PHY_EDGE_ROW_40_2_Right_48
*3047 PHY_EDGE_ROW_41_2_Left_196
*3048 PHY_EDGE_ROW_41_2_Right_49
*3049 PHY_EDGE_ROW_42_2_Left_197
*3050 PHY_EDGE_ROW_42_2_Right_50
*3051 PHY_EDGE_ROW_43_2_Left_198
*3052 PHY_EDGE_ROW_43_2_Right_51
*3053 PHY_EDGE_ROW_44_2_Left_199
*3054 PHY_EDGE_ROW_44_2_Right_52
*3055 PHY_EDGE_ROW_45_2_Left_200
*3056 PHY_EDGE_ROW_45_2_Right_53
*3057 PHY_EDGE_ROW_46_2_Left_201
*3058 PHY_EDGE_ROW_46_2_Right_54
*3059 PHY_EDGE_ROW_47_2_Left_202
*3060 PHY_EDGE_ROW_47_2_Right_55
*3061 PHY_EDGE_ROW_48_2_Left_203
*3062 PHY_EDGE_ROW_48_2_Right_56
*3063 PHY_EDGE_ROW_49_2_Left_204
*3064 PHY_EDGE_ROW_49_2_Right_57
*3065 PHY_EDGE_ROW_4_Left_4
*3066 PHY_EDGE_ROW_4_Right_13
*3067 PHY_EDGE_ROW_50_2_Left_205
*3068 PHY_EDGE_ROW_50_2_Right_58
*3069 PHY_EDGE_ROW_51_2_Left_206
*3070 PHY_EDGE_ROW_51_2_Right_59
*3071 PHY_EDGE_ROW_52_2_Left_207
*3072 PHY_EDGE_ROW_52_2_Right_60
*3073 PHY_EDGE_ROW_53_2_Left_208
*3074 PHY_EDGE_ROW_53_2_Right_61
*3075 PHY_EDGE_ROW_54_2_Left_209
*3076 PHY_EDGE_ROW_54_2_Right_62
*3077 PHY_EDGE_ROW_55_2_Left_210
*3078 PHY_EDGE_ROW_55_2_Right_63
*3079 PHY_EDGE_ROW_56_2_Left_211
*3080 PHY_EDGE_ROW_56_2_Right_64
*3081 PHY_EDGE_ROW_57_2_Left_212
*3082 PHY_EDGE_ROW_57_2_Right_65
*3083 PHY_EDGE_ROW_58_2_Left_213
*3084 PHY_EDGE_ROW_58_2_Right_66
*3085 PHY_EDGE_ROW_59_2_Left_214
*3086 PHY_EDGE_ROW_59_2_Right_67
*3087 PHY_EDGE_ROW_5_Left_5
*3088 PHY_EDGE_ROW_5_Right_14
*3089 PHY_EDGE_ROW_60_2_Left_215
*3090 PHY_EDGE_ROW_60_2_Right_68
*3091 PHY_EDGE_ROW_61_2_Left_216
*3092 PHY_EDGE_ROW_61_2_Right_69
*3093 PHY_EDGE_ROW_62_2_Left_217
*3094 PHY_EDGE_ROW_62_2_Right_70
*3095 PHY_EDGE_ROW_63_2_Left_218
*3096 PHY_EDGE_ROW_63_2_Right_71
*3097 PHY_EDGE_ROW_64_2_Left_219
*3098 PHY_EDGE_ROW_64_2_Right_72
*3099 PHY_EDGE_ROW_65_2_Left_220
*3100 PHY_EDGE_ROW_65_2_Right_73
*3101 PHY_EDGE_ROW_66_2_Left_221
*3102 PHY_EDGE_ROW_66_2_Right_74
*3103 PHY_EDGE_ROW_67_2_Left_222
*3104 PHY_EDGE_ROW_67_2_Right_75
*3105 PHY_EDGE_ROW_68_2_Left_223
*3106 PHY_EDGE_ROW_68_2_Right_76
*3107 PHY_EDGE_ROW_69_2_Left_224
*3108 PHY_EDGE_ROW_69_2_Right_77
*3109 PHY_EDGE_ROW_6_Left_6
*3110 PHY_EDGE_ROW_6_Right_15
*3111 PHY_EDGE_ROW_70_2_Left_225
*3112 PHY_EDGE_ROW_70_2_Right_78
*3113 PHY_EDGE_ROW_71_2_Left_226
*3114 PHY_EDGE_ROW_71_2_Right_79
*3115 PHY_EDGE_ROW_72_2_Left_227
*3116 PHY_EDGE_ROW_72_2_Right_80
*3117 PHY_EDGE_ROW_73_2_Left_228
*3118 PHY_EDGE_ROW_73_2_Right_81
*3119 PHY_EDGE_ROW_74_2_Left_229
*3120 PHY_EDGE_ROW_74_2_Right_82
*3121 PHY_EDGE_ROW_75_2_Left_230
*3122 PHY_EDGE_ROW_75_2_Right_83
*3123 PHY_EDGE_ROW_76_2_Left_231
*3124 PHY_EDGE_ROW_76_2_Right_84
*3125 PHY_EDGE_ROW_77_2_Left_232
*3126 PHY_EDGE_ROW_77_2_Right_85
*3127 PHY_EDGE_ROW_78_2_Left_233
*3128 PHY_EDGE_ROW_78_2_Right_86
*3129 PHY_EDGE_ROW_79_2_Left_234
*3130 PHY_EDGE_ROW_79_2_Right_87
*3131 PHY_EDGE_ROW_7_Left_7
*3132 PHY_EDGE_ROW_7_Right_16
*3133 PHY_EDGE_ROW_80_2_Left_235
*3134 PHY_EDGE_ROW_80_2_Right_88
*3135 PHY_EDGE_ROW_81_2_Left_236
*3136 PHY_EDGE_ROW_81_2_Right_89
*3137 PHY_EDGE_ROW_82_2_Left_237
*3138 PHY_EDGE_ROW_82_2_Right_90
*3139 PHY_EDGE_ROW_83_2_Left_238
*3140 PHY_EDGE_ROW_83_2_Right_91
*3141 PHY_EDGE_ROW_84_2_Left_239
*3142 PHY_EDGE_ROW_84_2_Right_92
*3143 PHY_EDGE_ROW_85_2_Left_240
*3144 PHY_EDGE_ROW_85_2_Right_93
*3145 PHY_EDGE_ROW_86_2_Left_241
*3146 PHY_EDGE_ROW_86_2_Right_94
*3147 PHY_EDGE_ROW_87_2_Left_242
*3148 PHY_EDGE_ROW_87_2_Right_95
*3149 PHY_EDGE_ROW_88_2_Left_243
*3150 PHY_EDGE_ROW_88_2_Right_96
*3151 PHY_EDGE_ROW_89_2_Left_244
*3152 PHY_EDGE_ROW_89_2_Right_97
*3153 PHY_EDGE_ROW_8_Left_8
*3154 PHY_EDGE_ROW_8_Right_17
*3155 PHY_EDGE_ROW_90_2_Left_245
*3156 PHY_EDGE_ROW_90_2_Right_98
*3157 PHY_EDGE_ROW_91_2_Left_246
*3158 PHY_EDGE_ROW_91_2_Right_99
*3159 PHY_EDGE_ROW_92_2_Left_247
*3160 PHY_EDGE_ROW_92_2_Right_100
*3161 PHY_EDGE_ROW_93_2_Left_248
*3162 PHY_EDGE_ROW_93_2_Right_101
*3163 PHY_EDGE_ROW_94_2_Left_249
*3164 PHY_EDGE_ROW_94_2_Right_102
*3165 PHY_EDGE_ROW_95_2_Left_250
*3166 PHY_EDGE_ROW_95_2_Right_103
*3167 PHY_EDGE_ROW_96_2_Left_251
*3168 PHY_EDGE_ROW_96_2_Right_104
*3169 PHY_EDGE_ROW_97_2_Left_252
*3170 PHY_EDGE_ROW_97_2_Right_105
*3171 PHY_EDGE_ROW_98_2_Left_253
*3172 PHY_EDGE_ROW_98_2_Right_106
*3173 PHY_EDGE_ROW_99_2_Left_254
*3174 PHY_EDGE_ROW_99_2_Right_107
*3175 PHY_EDGE_ROW_9_2_Left_311
*3176 PHY_EDGE_ROW_9_2_Right_164
*3177 TAP_TAPCELL_ROW_0_312
*3178 TAP_TAPCELL_ROW_0_313
*3179 TAP_TAPCELL_ROW_0_314
*3180 TAP_TAPCELL_ROW_0_315
*3181 TAP_TAPCELL_ROW_0_316
*3182 TAP_TAPCELL_ROW_0_317
*3183 TAP_TAPCELL_ROW_0_318
*3184 TAP_TAPCELL_ROW_0_319
*3185 TAP_TAPCELL_ROW_0_320
*3186 TAP_TAPCELL_ROW_0_321
*3187 TAP_TAPCELL_ROW_0_322
*3188 TAP_TAPCELL_ROW_0_323
*3189 TAP_TAPCELL_ROW_0_324
*3190 TAP_TAPCELL_ROW_0_325
*3191 TAP_TAPCELL_ROW_0_326
*3192 TAP_TAPCELL_ROW_0_327
*3193 TAP_TAPCELL_ROW_0_328
*3194 TAP_TAPCELL_ROW_0_329
*3195 TAP_TAPCELL_ROW_0_330
*3196 TAP_TAPCELL_ROW_0_331
*3197 TAP_TAPCELL_ROW_0_332
*3198 TAP_TAPCELL_ROW_0_333
*3199 TAP_TAPCELL_ROW_0_334
*3200 TAP_TAPCELL_ROW_0_335
*3201 TAP_TAPCELL_ROW_0_336
*3202 TAP_TAPCELL_ROW_0_337
*3203 TAP_TAPCELL_ROW_0_338
*3204 TAP_TAPCELL_ROW_0_339
*3205 TAP_TAPCELL_ROW_100_2_601
*3206 TAP_TAPCELL_ROW_100_2_602
*3207 TAP_TAPCELL_ROW_101_2_603
*3208 TAP_TAPCELL_ROW_102_2_604
*3209 TAP_TAPCELL_ROW_102_2_605
*3210 TAP_TAPCELL_ROW_103_2_606
*3211 TAP_TAPCELL_ROW_104_2_607
*3212 TAP_TAPCELL_ROW_104_2_608
*3213 TAP_TAPCELL_ROW_105_2_609
*3214 TAP_TAPCELL_ROW_106_2_610
*3215 TAP_TAPCELL_ROW_106_2_611
*3216 TAP_TAPCELL_ROW_107_2_612
*3217 TAP_TAPCELL_ROW_108_2_613
*3218 TAP_TAPCELL_ROW_108_2_614
*3219 TAP_TAPCELL_ROW_109_2_615
*3220 TAP_TAPCELL_ROW_10_2_466
*3221 TAP_TAPCELL_ROW_10_2_467
*3222 TAP_TAPCELL_ROW_110_2_616
*3223 TAP_TAPCELL_ROW_110_2_617
*3224 TAP_TAPCELL_ROW_111_2_618
*3225 TAP_TAPCELL_ROW_112_2_619
*3226 TAP_TAPCELL_ROW_112_2_620
*3227 TAP_TAPCELL_ROW_113_2_621
*3228 TAP_TAPCELL_ROW_114_2_622
*3229 TAP_TAPCELL_ROW_114_2_623
*3230 TAP_TAPCELL_ROW_115_2_624
*3231 TAP_TAPCELL_ROW_116_2_625
*3232 TAP_TAPCELL_ROW_116_2_626
*3233 TAP_TAPCELL_ROW_117_2_627
*3234 TAP_TAPCELL_ROW_118_2_628
*3235 TAP_TAPCELL_ROW_118_2_629
*3236 TAP_TAPCELL_ROW_119_2_630
*3237 TAP_TAPCELL_ROW_11_2_468
*3238 TAP_TAPCELL_ROW_120_2_631
*3239 TAP_TAPCELL_ROW_120_2_632
*3240 TAP_TAPCELL_ROW_121_2_633
*3241 TAP_TAPCELL_ROW_122_2_634
*3242 TAP_TAPCELL_ROW_122_2_635
*3243 TAP_TAPCELL_ROW_123_2_636
*3244 TAP_TAPCELL_ROW_124_2_637
*3245 TAP_TAPCELL_ROW_124_2_638
*3246 TAP_TAPCELL_ROW_125_2_639
*3247 TAP_TAPCELL_ROW_126_2_640
*3248 TAP_TAPCELL_ROW_126_2_641
*3249 TAP_TAPCELL_ROW_127_2_642
*3250 TAP_TAPCELL_ROW_128_2_643
*3251 TAP_TAPCELL_ROW_128_2_644
*3252 TAP_TAPCELL_ROW_129_2_645
*3253 TAP_TAPCELL_ROW_12_2_469
*3254 TAP_TAPCELL_ROW_12_2_470
*3255 TAP_TAPCELL_ROW_130_2_646
*3256 TAP_TAPCELL_ROW_130_2_647
*3257 TAP_TAPCELL_ROW_131_2_648
*3258 TAP_TAPCELL_ROW_132_2_649
*3259 TAP_TAPCELL_ROW_132_2_650
*3260 TAP_TAPCELL_ROW_133_2_651
*3261 TAP_TAPCELL_ROW_134_2_652
*3262 TAP_TAPCELL_ROW_134_2_653
*3263 TAP_TAPCELL_ROW_135_2_654
*3264 TAP_TAPCELL_ROW_136_2_655
*3265 TAP_TAPCELL_ROW_136_2_656
*3266 TAP_TAPCELL_ROW_137_2_657
*3267 TAP_TAPCELL_ROW_138_2_658
*3268 TAP_TAPCELL_ROW_138_2_659
*3269 TAP_TAPCELL_ROW_139_2_660
*3270 TAP_TAPCELL_ROW_13_2_471
*3271 TAP_TAPCELL_ROW_140_2_661
*3272 TAP_TAPCELL_ROW_140_2_662
*3273 TAP_TAPCELL_ROW_141_2_663
*3274 TAP_TAPCELL_ROW_142_2_664
*3275 TAP_TAPCELL_ROW_142_2_665
*3276 TAP_TAPCELL_ROW_143_2_666
*3277 TAP_TAPCELL_ROW_144_2_667
*3278 TAP_TAPCELL_ROW_144_2_668
*3279 TAP_TAPCELL_ROW_145_2_669
*3280 TAP_TAPCELL_ROW_146_2_670
*3281 TAP_TAPCELL_ROW_146_2_671
*3282 TAP_TAPCELL_ROW_147_2_672
*3283 TAP_TAPCELL_ROW_148_2_673
*3284 TAP_TAPCELL_ROW_148_2_674
*3285 TAP_TAPCELL_ROW_149_2_675
*3286 TAP_TAPCELL_ROW_14_2_472
*3287 TAP_TAPCELL_ROW_14_2_473
*3288 TAP_TAPCELL_ROW_150_2_676
*3289 TAP_TAPCELL_ROW_150_2_677
*3290 TAP_TAPCELL_ROW_151_2_678
*3291 TAP_TAPCELL_ROW_152_2_679
*3292 TAP_TAPCELL_ROW_152_2_680
*3293 TAP_TAPCELL_ROW_153_2_681
*3294 TAP_TAPCELL_ROW_154_2_682
*3295 TAP_TAPCELL_ROW_154_2_683
*3296 TAP_TAPCELL_ROW_155_2_684
*3297 TAP_TAPCELL_ROW_155_2_685
*3298 TAP_TAPCELL_ROW_155_2_686
*3299 TAP_TAPCELL_ROW_15_2_474
*3300 TAP_TAPCELL_ROW_16_2_475
*3301 TAP_TAPCELL_ROW_16_2_476
*3302 TAP_TAPCELL_ROW_17_2_477
*3303 TAP_TAPCELL_ROW_18_2_478
*3304 TAP_TAPCELL_ROW_18_2_479
*3305 TAP_TAPCELL_ROW_19_2_480
*3306 TAP_TAPCELL_ROW_1_340
*3307 TAP_TAPCELL_ROW_1_341
*3308 TAP_TAPCELL_ROW_1_342
*3309 TAP_TAPCELL_ROW_1_343
*3310 TAP_TAPCELL_ROW_1_344
*3311 TAP_TAPCELL_ROW_1_345
*3312 TAP_TAPCELL_ROW_1_346
*3313 TAP_TAPCELL_ROW_1_347
*3314 TAP_TAPCELL_ROW_1_348
*3315 TAP_TAPCELL_ROW_1_349
*3316 TAP_TAPCELL_ROW_1_350
*3317 TAP_TAPCELL_ROW_1_351
*3318 TAP_TAPCELL_ROW_1_352
*3319 TAP_TAPCELL_ROW_1_353
*3320 TAP_TAPCELL_ROW_20_2_481
*3321 TAP_TAPCELL_ROW_20_2_482
*3322 TAP_TAPCELL_ROW_21_2_483
*3323 TAP_TAPCELL_ROW_22_2_484
*3324 TAP_TAPCELL_ROW_22_2_485
*3325 TAP_TAPCELL_ROW_23_2_486
*3326 TAP_TAPCELL_ROW_24_2_487
*3327 TAP_TAPCELL_ROW_24_2_488
*3328 TAP_TAPCELL_ROW_25_2_489
*3329 TAP_TAPCELL_ROW_26_2_490
*3330 TAP_TAPCELL_ROW_26_2_491
*3331 TAP_TAPCELL_ROW_27_2_492
*3332 TAP_TAPCELL_ROW_28_2_493
*3333 TAP_TAPCELL_ROW_28_2_494
*3334 TAP_TAPCELL_ROW_29_2_495
*3335 TAP_TAPCELL_ROW_2_354
*3336 TAP_TAPCELL_ROW_2_355
*3337 TAP_TAPCELL_ROW_2_356
*3338 TAP_TAPCELL_ROW_2_357
*3339 TAP_TAPCELL_ROW_2_358
*3340 TAP_TAPCELL_ROW_2_359
*3341 TAP_TAPCELL_ROW_2_360
*3342 TAP_TAPCELL_ROW_2_361
*3343 TAP_TAPCELL_ROW_2_362
*3344 TAP_TAPCELL_ROW_2_363
*3345 TAP_TAPCELL_ROW_2_364
*3346 TAP_TAPCELL_ROW_2_365
*3347 TAP_TAPCELL_ROW_2_366
*3348 TAP_TAPCELL_ROW_2_367
*3349 TAP_TAPCELL_ROW_30_2_496
*3350 TAP_TAPCELL_ROW_30_2_497
*3351 TAP_TAPCELL_ROW_31_2_498
*3352 TAP_TAPCELL_ROW_32_2_499
*3353 TAP_TAPCELL_ROW_32_2_500
*3354 TAP_TAPCELL_ROW_33_2_501
*3355 TAP_TAPCELL_ROW_34_2_502
*3356 TAP_TAPCELL_ROW_34_2_503
*3357 TAP_TAPCELL_ROW_35_2_504
*3358 TAP_TAPCELL_ROW_36_2_505
*3359 TAP_TAPCELL_ROW_36_2_506
*3360 TAP_TAPCELL_ROW_37_2_507
*3361 TAP_TAPCELL_ROW_38_2_508
*3362 TAP_TAPCELL_ROW_38_2_509
*3363 TAP_TAPCELL_ROW_39_2_510
*3364 TAP_TAPCELL_ROW_3_368
*3365 TAP_TAPCELL_ROW_3_369
*3366 TAP_TAPCELL_ROW_3_370
*3367 TAP_TAPCELL_ROW_3_371
*3368 TAP_TAPCELL_ROW_3_372
*3369 TAP_TAPCELL_ROW_3_373
*3370 TAP_TAPCELL_ROW_3_374
*3371 TAP_TAPCELL_ROW_3_375
*3372 TAP_TAPCELL_ROW_3_376
*3373 TAP_TAPCELL_ROW_3_377
*3374 TAP_TAPCELL_ROW_3_378
*3375 TAP_TAPCELL_ROW_3_379
*3376 TAP_TAPCELL_ROW_3_380
*3377 TAP_TAPCELL_ROW_3_381
*3378 TAP_TAPCELL_ROW_40_2_511
*3379 TAP_TAPCELL_ROW_40_2_512
*3380 TAP_TAPCELL_ROW_41_2_513
*3381 TAP_TAPCELL_ROW_42_2_514
*3382 TAP_TAPCELL_ROW_42_2_515
*3383 TAP_TAPCELL_ROW_43_2_516
*3384 TAP_TAPCELL_ROW_44_2_517
*3385 TAP_TAPCELL_ROW_44_2_518
*3386 TAP_TAPCELL_ROW_45_2_519
*3387 TAP_TAPCELL_ROW_46_2_520
*3388 TAP_TAPCELL_ROW_46_2_521
*3389 TAP_TAPCELL_ROW_47_2_522
*3390 TAP_TAPCELL_ROW_48_2_523
*3391 TAP_TAPCELL_ROW_48_2_524
*3392 TAP_TAPCELL_ROW_49_2_525
*3393 TAP_TAPCELL_ROW_4_382
*3394 TAP_TAPCELL_ROW_4_383
*3395 TAP_TAPCELL_ROW_4_384
*3396 TAP_TAPCELL_ROW_4_385
*3397 TAP_TAPCELL_ROW_4_386
*3398 TAP_TAPCELL_ROW_4_387
*3399 TAP_TAPCELL_ROW_4_388
*3400 TAP_TAPCELL_ROW_4_389
*3401 TAP_TAPCELL_ROW_4_390
*3402 TAP_TAPCELL_ROW_4_391
*3403 TAP_TAPCELL_ROW_4_392
*3404 TAP_TAPCELL_ROW_4_393
*3405 TAP_TAPCELL_ROW_4_394
*3406 TAP_TAPCELL_ROW_4_395
*3407 TAP_TAPCELL_ROW_50_2_526
*3408 TAP_TAPCELL_ROW_50_2_527
*3409 TAP_TAPCELL_ROW_51_2_528
*3410 TAP_TAPCELL_ROW_52_2_529
*3411 TAP_TAPCELL_ROW_52_2_530
*3412 TAP_TAPCELL_ROW_53_2_531
*3413 TAP_TAPCELL_ROW_54_2_532
*3414 TAP_TAPCELL_ROW_54_2_533
*3415 TAP_TAPCELL_ROW_55_2_534
*3416 TAP_TAPCELL_ROW_56_2_535
*3417 TAP_TAPCELL_ROW_56_2_536
*3418 TAP_TAPCELL_ROW_57_2_537
*3419 TAP_TAPCELL_ROW_58_2_538
*3420 TAP_TAPCELL_ROW_58_2_539
*3421 TAP_TAPCELL_ROW_59_2_540
*3422 TAP_TAPCELL_ROW_5_396
*3423 TAP_TAPCELL_ROW_5_397
*3424 TAP_TAPCELL_ROW_5_398
*3425 TAP_TAPCELL_ROW_5_399
*3426 TAP_TAPCELL_ROW_5_400
*3427 TAP_TAPCELL_ROW_5_401
*3428 TAP_TAPCELL_ROW_5_402
*3429 TAP_TAPCELL_ROW_5_403
*3430 TAP_TAPCELL_ROW_5_404
*3431 TAP_TAPCELL_ROW_5_405
*3432 TAP_TAPCELL_ROW_5_406
*3433 TAP_TAPCELL_ROW_5_407
*3434 TAP_TAPCELL_ROW_5_408
*3435 TAP_TAPCELL_ROW_5_409
*3436 TAP_TAPCELL_ROW_60_2_541
*3437 TAP_TAPCELL_ROW_60_2_542
*3438 TAP_TAPCELL_ROW_61_2_543
*3439 TAP_TAPCELL_ROW_62_2_544
*3440 TAP_TAPCELL_ROW_62_2_545
*3441 TAP_TAPCELL_ROW_63_2_546
*3442 TAP_TAPCELL_ROW_64_2_547
*3443 TAP_TAPCELL_ROW_64_2_548
*3444 TAP_TAPCELL_ROW_65_2_549
*3445 TAP_TAPCELL_ROW_66_2_550
*3446 TAP_TAPCELL_ROW_66_2_551
*3447 TAP_TAPCELL_ROW_67_2_552
*3448 TAP_TAPCELL_ROW_68_2_553
*3449 TAP_TAPCELL_ROW_68_2_554
*3450 TAP_TAPCELL_ROW_69_2_555
*3451 TAP_TAPCELL_ROW_6_410
*3452 TAP_TAPCELL_ROW_6_411
*3453 TAP_TAPCELL_ROW_6_412
*3454 TAP_TAPCELL_ROW_6_413
*3455 TAP_TAPCELL_ROW_6_414
*3456 TAP_TAPCELL_ROW_6_415
*3457 TAP_TAPCELL_ROW_6_416
*3458 TAP_TAPCELL_ROW_6_417
*3459 TAP_TAPCELL_ROW_6_418
*3460 TAP_TAPCELL_ROW_6_419
*3461 TAP_TAPCELL_ROW_6_420
*3462 TAP_TAPCELL_ROW_6_421
*3463 TAP_TAPCELL_ROW_6_422
*3464 TAP_TAPCELL_ROW_6_423
*3465 TAP_TAPCELL_ROW_70_2_556
*3466 TAP_TAPCELL_ROW_70_2_557
*3467 TAP_TAPCELL_ROW_71_2_558
*3468 TAP_TAPCELL_ROW_72_2_559
*3469 TAP_TAPCELL_ROW_72_2_560
*3470 TAP_TAPCELL_ROW_73_2_561
*3471 TAP_TAPCELL_ROW_74_2_562
*3472 TAP_TAPCELL_ROW_74_2_563
*3473 TAP_TAPCELL_ROW_75_2_564
*3474 TAP_TAPCELL_ROW_76_2_565
*3475 TAP_TAPCELL_ROW_76_2_566
*3476 TAP_TAPCELL_ROW_77_2_567
*3477 TAP_TAPCELL_ROW_78_2_568
*3478 TAP_TAPCELL_ROW_78_2_569
*3479 TAP_TAPCELL_ROW_79_2_570
*3480 TAP_TAPCELL_ROW_7_424
*3481 TAP_TAPCELL_ROW_7_425
*3482 TAP_TAPCELL_ROW_7_426
*3483 TAP_TAPCELL_ROW_7_427
*3484 TAP_TAPCELL_ROW_7_428
*3485 TAP_TAPCELL_ROW_7_429
*3486 TAP_TAPCELL_ROW_7_430
*3487 TAP_TAPCELL_ROW_7_431
*3488 TAP_TAPCELL_ROW_7_432
*3489 TAP_TAPCELL_ROW_7_433
*3490 TAP_TAPCELL_ROW_7_434
*3491 TAP_TAPCELL_ROW_7_435
*3492 TAP_TAPCELL_ROW_7_436
*3493 TAP_TAPCELL_ROW_7_437
*3494 TAP_TAPCELL_ROW_80_2_571
*3495 TAP_TAPCELL_ROW_80_2_572
*3496 TAP_TAPCELL_ROW_81_2_573
*3497 TAP_TAPCELL_ROW_82_2_574
*3498 TAP_TAPCELL_ROW_82_2_575
*3499 TAP_TAPCELL_ROW_83_2_576
*3500 TAP_TAPCELL_ROW_84_2_577
*3501 TAP_TAPCELL_ROW_84_2_578
*3502 TAP_TAPCELL_ROW_85_2_579
*3503 TAP_TAPCELL_ROW_86_2_580
*3504 TAP_TAPCELL_ROW_86_2_581
*3505 TAP_TAPCELL_ROW_87_2_582
*3506 TAP_TAPCELL_ROW_88_2_583
*3507 TAP_TAPCELL_ROW_88_2_584
*3508 TAP_TAPCELL_ROW_89_2_585
*3509 TAP_TAPCELL_ROW_8_438
*3510 TAP_TAPCELL_ROW_8_439
*3511 TAP_TAPCELL_ROW_8_440
*3512 TAP_TAPCELL_ROW_8_441
*3513 TAP_TAPCELL_ROW_8_442
*3514 TAP_TAPCELL_ROW_8_443
*3515 TAP_TAPCELL_ROW_8_444
*3516 TAP_TAPCELL_ROW_8_445
*3517 TAP_TAPCELL_ROW_8_446
*3518 TAP_TAPCELL_ROW_8_447
*3519 TAP_TAPCELL_ROW_8_448
*3520 TAP_TAPCELL_ROW_8_449
*3521 TAP_TAPCELL_ROW_8_450
*3522 TAP_TAPCELL_ROW_8_451
*3523 TAP_TAPCELL_ROW_8_452
*3524 TAP_TAPCELL_ROW_8_453
*3525 TAP_TAPCELL_ROW_8_454
*3526 TAP_TAPCELL_ROW_8_455
*3527 TAP_TAPCELL_ROW_8_456
*3528 TAP_TAPCELL_ROW_8_457
*3529 TAP_TAPCELL_ROW_8_458
*3530 TAP_TAPCELL_ROW_8_459
*3531 TAP_TAPCELL_ROW_8_460
*3532 TAP_TAPCELL_ROW_8_461
*3533 TAP_TAPCELL_ROW_8_462
*3534 TAP_TAPCELL_ROW_8_463
*3535 TAP_TAPCELL_ROW_8_464
*3536 TAP_TAPCELL_ROW_8_465
*3537 TAP_TAPCELL_ROW_90_2_586
*3538 TAP_TAPCELL_ROW_90_2_587
*3539 TAP_TAPCELL_ROW_91_2_588
*3540 TAP_TAPCELL_ROW_92_2_589
*3541 TAP_TAPCELL_ROW_92_2_590
*3542 TAP_TAPCELL_ROW_93_2_591
*3543 TAP_TAPCELL_ROW_94_2_592
*3544 TAP_TAPCELL_ROW_94_2_593
*3545 TAP_TAPCELL_ROW_95_2_594
*3546 TAP_TAPCELL_ROW_96_2_595
*3547 TAP_TAPCELL_ROW_96_2_596
*3548 TAP_TAPCELL_ROW_97_2_597
*3549 TAP_TAPCELL_ROW_98_2_598
*3550 TAP_TAPCELL_ROW_98_2_599
*3551 TAP_TAPCELL_ROW_99_2_600
*3552 TAP_TAPCELL_ROW_9_2_687
*3553 _10_
*3554 _11_
*3555 _12_
*3556 _13_
*3557 _14_
*3558 _15_
*3559 _16_
*3560 _17_
*3561 _18_
*3562 _19_
*3563 _20_
*3564 _21_
*3565 _22_
*3566 _23_
*3567 _24_
*3568 _25_
*3569 _26_
*3570 _27_
*3571 _28_
*3572 _29_
*3573 _30_
*3574 _31_
*3575 _32_
*3576 _33_
*3577 _34_
*3578 _35_
*3579 _36_
*3580 _37_
*3581 _38_
*3582 _39_
*3583 _40_
*3584 _41_
*3585 _42_
*3586 _43_
*3587 _44_
*3588 _45_
*3589 clkbuf_0_wb_clk_i
*3590 clkbuf_1_0__f_wb_clk_i
*3591 clkbuf_1_1__f_wb_clk_i
*3592 clkload0
*3593 fanout84
*3594 fanout85
*3595 fanout86
*3596 fanout87
*3597 fanout88
*3598 fanout89
*3599 hold1
*3600 hold10
*3601 hold100
*3602 hold101
*3603 hold102
*3604 hold103
*3605 hold104
*3606 hold105
*3607 hold106
*3608 hold107
*3609 hold108
*3610 hold109
*3611 hold11
*3612 hold110
*3613 hold111
*3614 hold112
*3615 hold113
*3616 hold114
*3617 hold115
*3618 hold116
*3619 hold117
*3620 hold118
*3621 hold119
*3622 hold12
*3623 hold120
*3624 hold121
*3625 hold122
*3626 hold123
*3627 hold124
*3628 hold125
*3629 hold126
*3630 hold127
*3631 hold128
*3632 hold129
*3633 hold13
*3634 hold130
*3635 hold131
*3636 hold132
*3637 hold133
*3638 hold134
*3639 hold135
*3640 hold136
*3641 hold137
*3642 hold138
*3643 hold14
*3644 hold15
*3645 hold16
*3646 hold17
*3647 hold18
*3648 hold19
*3649 hold2
*3650 hold20
*3651 hold21
*3652 hold22
*3653 hold23
*3654 hold24
*3655 hold25
*3656 hold26
*3657 hold27
*3658 hold28
*3659 hold29
*3660 hold3
*3661 hold30
*3662 hold31
*3663 hold32
*3664 hold33
*3665 hold34
*3666 hold35
*3667 hold36
*3668 hold37
*3669 hold38
*3670 hold39
*3671 hold4
*3672 hold40
*3673 hold41
*3674 hold42
*3675 hold43
*3676 hold44
*3677 hold45
*3678 hold46
*3679 hold47
*3680 hold48
*3681 hold49
*3682 hold5
*3683 hold50
*3684 hold51
*3685 hold52
*3686 hold53
*3687 hold54
*3688 hold55
*3689 hold56
*3690 hold57
*3691 hold58
*3692 hold59
*3693 hold6
*3694 hold60
*3695 hold61
*3696 hold62
*3697 hold63
*3698 hold64
*3699 hold65
*3700 hold66
*3701 hold67
*3702 hold68
*3703 hold69
*3704 hold7
*3705 hold70
*3706 hold71
*3707 hold72
*3708 hold73
*3709 hold74
*3710 hold75
*3711 hold76
*3712 hold77
*3713 hold78
*3714 hold79
*3715 hold8
*3716 hold80
*3717 hold81
*3718 hold82
*3719 hold83
*3720 hold84
*3721 hold85
*3722 hold86
*3723 hold87
*3724 hold88
*3725 hold89
*3726 hold9
*3727 hold90
*3728 hold91
*3729 hold92
*3730 hold93
*3731 hold94
*3732 hold95
*3733 hold96
*3734 hold97
*3735 hold98
*3736 hold99
*3737 i_sram
*3738 i_sram_90
*3739 i_sram_91
*3740 i_sram_92
*3741 i_sram_93
*3742 i_sram_94
*3743 i_sram_95
*3744 i_sram_96
*3745 i_sram_97
*3746 i_sram_98
*3747 input1
*3748 input10
*3749 input11
*3750 input12
*3751 input13
*3752 input14
*3753 input15
*3754 input16
*3755 input17
*3756 input18
*3757 input19
*3758 input2
*3759 input20
*3760 input21
*3761 input22
*3762 input23
*3763 input24
*3764 input25
*3765 input26
*3766 input27
*3767 input28
*3768 input29
*3769 input3
*3770 input30
*3771 input31
*3772 input32
*3773 input33
*3774 input34
*3775 input35
*3776 input36
*3777 input37
*3778 input38
*3779 input39
*3780 input4
*3781 input40
*3782 input41
*3783 input42
*3784 input43
*3785 input44
*3786 input45
*3787 input46
*3788 input47
*3789 input48
*3790 input49
*3791 input5
*3792 input50
*3793 input6
*3794 input7
*3795 input8
*3796 input9
*3797 output51
*3798 output52
*3799 output53
*3800 output54
*3801 output55
*3802 output56
*3803 output57
*3804 output58
*3805 output59
*3806 output60
*3807 output61
*3808 output62
*3809 output63
*3810 output64
*3811 output65
*3812 output66
*3813 output67
*3814 output68
*3815 output69
*3816 output70
*3817 output71
*3818 output72
*3819 output73
*3820 output74
*3821 output75
*3822 output76
*3823 output77
*3824 output78
*3825 output79
*3826 output80
*3827 output81
*3828 output82
*3829 output83

*PORTS
wb_clk_i I
wb_rst_i I
wbs_ack_o O
wbs_adr_i[0] I
wbs_adr_i[10] I
wbs_adr_i[11] I
wbs_adr_i[12] I
wbs_adr_i[13] I
wbs_adr_i[14] I
wbs_adr_i[15] I
wbs_adr_i[16] I
wbs_adr_i[17] I
wbs_adr_i[18] I
wbs_adr_i[19] I
wbs_adr_i[1] I
wbs_adr_i[20] I
wbs_adr_i[21] I
wbs_adr_i[22] I
wbs_adr_i[23] I
wbs_adr_i[24] I
wbs_adr_i[25] I
wbs_adr_i[26] I
wbs_adr_i[27] I
wbs_adr_i[28] I
wbs_adr_i[29] I
wbs_adr_i[2] I
wbs_adr_i[30] I
wbs_adr_i[31] I
wbs_adr_i[3] I
wbs_adr_i[4] I
wbs_adr_i[5] I
wbs_adr_i[6] I
wbs_adr_i[7] I
wbs_adr_i[8] I
wbs_adr_i[9] I
wbs_cyc_i I
wbs_dat_i[0] I
wbs_dat_i[10] I
wbs_dat_i[11] I
wbs_dat_i[12] I
wbs_dat_i[13] I
wbs_dat_i[14] I
wbs_dat_i[15] I
wbs_dat_i[16] I
wbs_dat_i[17] I
wbs_dat_i[18] I
wbs_dat_i[19] I
wbs_dat_i[1] I
wbs_dat_i[20] I
wbs_dat_i[21] I
wbs_dat_i[22] I
wbs_dat_i[23] I
wbs_dat_i[24] I
wbs_dat_i[25] I
wbs_dat_i[26] I
wbs_dat_i[27] I
wbs_dat_i[28] I
wbs_dat_i[29] I
wbs_dat_i[2] I
wbs_dat_i[30] I
wbs_dat_i[31] I
wbs_dat_i[3] I
wbs_dat_i[4] I
wbs_dat_i[5] I
wbs_dat_i[6] I
wbs_dat_i[7] I
wbs_dat_i[8] I
wbs_dat_i[9] I
wbs_dat_o[0] O
wbs_dat_o[10] O
wbs_dat_o[11] O
wbs_dat_o[12] O
wbs_dat_o[13] O
wbs_dat_o[14] O
wbs_dat_o[15] O
wbs_dat_o[16] O
wbs_dat_o[17] O
wbs_dat_o[18] O
wbs_dat_o[19] O
wbs_dat_o[1] O
wbs_dat_o[20] O
wbs_dat_o[21] O
wbs_dat_o[22] O
wbs_dat_o[23] O
wbs_dat_o[24] O
wbs_dat_o[25] O
wbs_dat_o[26] O
wbs_dat_o[27] O
wbs_dat_o[28] O
wbs_dat_o[29] O
wbs_dat_o[2] O
wbs_dat_o[30] O
wbs_dat_o[31] O
wbs_dat_o[3] O
wbs_dat_o[4] O
wbs_dat_o[5] O
wbs_dat_o[6] O
wbs_dat_o[7] O
wbs_dat_o[8] O
wbs_dat_o[9] O
wbs_sel_i[0] I
wbs_sel_i[1] I
wbs_sel_i[2] I
wbs_sel_i[3] I
wbs_stb_i I
wbs_we_i I

*D_NET *3 0.0455186
*CONN
*P wb_clk_i I
*I *3589:A I *D sky130_fd_sc_hd__clkbuf_16
*CAP
1 wb_clk_i 0.000218002
2 *3589:A 0
3 *3:17 0.00326823
4 *3:15 0.00326823
5 *3:13 0.00993967
6 *3:11 0.0101577
7 *3:13 *334:34 0
8 *3:13 *335:12 0
9 *3:13 *365:34 0
10 *3:17 wbs_dat_o[27] 0.000311035
11 *3:17 *3591:A 1.76135e-05
12 *3:17 *3624:A 0
13 *3:17 *3704:A 0.000144789
14 *3:17 *3716:A 0.000241665
15 *3:17 *3732:A 0.00155833
16 *3:17 *3817:A 0.000127615
17 *3:17 *110:10 0.000264481
18 *3:17 *170:85 0.000214629
19 *3:17 *232:10 5.18083e-05
20 *3:17 *237:12 0.00105534
21 *3:17 *239:8 0.000130286
22 *3:17 *258:28 6.86157e-05
23 *3:17 *258:30 0.000199109
24 *3:17 *317:50 0.00181795
25 *3:17 *325:34 0
26 *3:17 *325:36 0.00843879
27 *3:17 *327:65 1.08359e-05
28 *3:17 *327:69 1.11775e-05
29 *3:17 *339:52 4.67566e-05
30 *3:17 *339:54 0.003956
*RES
1 wb_clk_i *3:11 9.32143 
2 *3:11 *3:13 190.286 
3 *3:13 *3:15 4.5 
4 *3:15 *3:17 126.714 
5 *3:17 *3589:A 13.8 
*END

*D_NET *4 0.00036883
*CONN
*P wb_rst_i I
*I *3747:A I *D sky130_fd_sc_hd__buf_1
*CAP
1 wb_rst_i 0.000184415
2 *3747:A 0.000184415
3 *3747:A wbs_ack_o 0
*RES
1 wb_rst_i *3747:A 16.9786 
*END

*D_NET *5 0.000750996
*CONN
*P wbs_ack_o O
*I *3797:X O *D sky130_fd_sc_hd__buf_12
*CAP
1 wbs_ack_o 0.000334615
2 *3797:X 0.000334615
3 wbs_ack_o *3750:A 0
4 wbs_ack_o *147:16 8.17663e-05
5 *3747:A wbs_ack_o 0
*RES
1 *3797:X wbs_ack_o 19.3357 
*END

*D_NET *7 0.00310915
*CONN
*P wbs_adr_i[10] I
*I *3634:A I *D sky130_fd_sc_hd__dlygate4sd3_1
*CAP
1 wbs_adr_i[10] 0.000542359
2 *3634:A 0.000542359
3 *3634:A wbs_dat_o[11] 6.46163e-05
4 *3634:A *3603:A 0
5 *3634:A *115:41 0.000113043
6 *3634:A *325:26 0.000119429
7 *3634:A *334:34 7.96614e-05
8 *3634:A *335:16 0.00116804
9 *3634:A *365:34 0.000479645
*RES
1 wbs_adr_i[10] *3634:A 38.9607 
*END

*D_NET *8 0.00163746
*CONN
*P wbs_adr_i[11] I
*I *3632:A I *D sky130_fd_sc_hd__dlygate4sd3_1
*CAP
1 wbs_adr_i[11] 0.000444403
2 *3632:A 0.000444403
3 *3632:A wbs_dat_o[10] 0
4 *3632:A wbs_dat_o[11] 0
5 *3632:A *3602:A 0
6 *3632:A *3686:A 0.000370097
7 *3632:A *159:8 0.000180777
8 *3632:A *324:14 6.26276e-05
9 *3632:A *333:46 0.000135152
10 *3632:A *365:34 0
*RES
1 wbs_adr_i[11] *3632:A 23.0679 
*END

*D_NET *28 0.00553534
*CONN
*P wbs_adr_i[2] I
*I *3642:A I *D sky130_fd_sc_hd__dlygate4sd3_1
*CAP
1 wbs_adr_i[2] 0.00170932
2 *3642:A 0.00170932
3 *3642:A *3620:A 0
4 *3642:A *3638:A 0
5 *3642:A *3644:A 8.6129e-05
6 *3642:A *3717:A 0.000733525
7 *3642:A *3731:A 0.000371725
8 *3642:A *3775:A 6.45847e-06
9 *3642:A *170:28 6.12683e-05
10 *3642:A *329:20 0.000857591
*RES
1 wbs_adr_i[2] *3642:A 39.6214 
*END

*D_NET *31 0.00302162
*CONN
*P wbs_adr_i[3] I
*I *3641:A I *D sky130_fd_sc_hd__dlygate4sd3_1
*CAP
1 wbs_adr_i[3] 0.000761711
2 *3641:A 0.000761711
3 *3641:A wbs_dat_o[2] 0
4 *3641:A *428:DIODE 3.06307e-05
5 *3641:A *3561:D 0
6 *3641:A *3588:RESET_B 0.000952343
7 *3641:A *3706:A 0.000145805
8 *3641:A *3730:A 0
9 *3641:A *3731:A 0.000269428
10 *3641:A *3789:A 0
11 *3641:A *115:49 6.02251e-05
12 *3641:A *329:20 3.97677e-05
13 *3641:A *336:24 0
*RES
1 wbs_adr_i[3] *3641:A 30.7643 
*END

*D_NET *32 0.0013852
*CONN
*P wbs_adr_i[4] I
*I *3640:A I *D sky130_fd_sc_hd__dlygate4sd3_1
*CAP
1 wbs_adr_i[4] 0.000253242
2 *3640:A 0.000253242
3 *3640:A *3789:A 0.000166407
4 *3640:A *115:41 6.62783e-05
5 *3640:A *325:8 0.000485537
6 *3640:A *330:10 0.000146474
7 *3640:A *365:24 1.4023e-05
*RES
1 wbs_adr_i[4] *3640:A 21.2107 
*END

*D_NET *33 0.00507678
*CONN
*P wbs_adr_i[5] I
*I *3638:A I *D sky130_fd_sc_hd__dlygate4sd3_1
*CAP
1 wbs_adr_i[5] 0.000834888
2 *3638:A 0.000834888
3 *3638:A wbs_dat_o[4] 0
4 *3638:A *3609:A 0
5 *3638:A *3620:A 0.000148196
6 *3638:A *3733:A 0.00133949
7 *3638:A *330:18 0.0015984
8 *3638:A *335:12 0.000320917
9 *3642:A *3638:A 0
*RES
1 wbs_adr_i[5] *3638:A 46.6393 
*END

*D_NET *34 0.00234312
*CONN
*P wbs_adr_i[6] I
*I *3639:A I *D sky130_fd_sc_hd__dlygate4sd3_1
*CAP
1 wbs_adr_i[6] 0.000683258
2 *3639:A 0.000683258
3 *3639:A wbs_dat_o[5] 9.16215e-05
4 *3639:A wbs_dat_o[6] 0
5 *3639:A *3607:A 0
6 *3639:A *3664:A 2.8266e-06
7 *3639:A *3712:A 0.00012401
8 *3639:A *3782:A 0
9 *3639:A *3794:A 0
10 *3639:A *187:14 8.24047e-05
11 *3639:A *323:16 9.45051e-05
12 *3639:A *331:12 0
13 *3639:A *333:24 0.00026353
14 *3639:A *350:20 0.00026353
15 *3639:A *360:20 0
16 *3639:A *363:28 5.41794e-05
*RES
1 wbs_adr_i[6] *3639:A 26.9786 
*END

*D_NET *35 0.00135653
*CONN
*P wbs_adr_i[7] I
*I *3637:A I *D sky130_fd_sc_hd__dlygate4sd3_1
*CAP
1 wbs_adr_i[7] 0.000400328
2 *3637:A 0.000400328
3 *3637:A wbs_dat_o[6] 0.000225616
4 *3637:A *3606:A 0
5 *3637:A *3827:A 0.000110441
6 *3637:A *336:38 0.000219818
*RES
1 wbs_adr_i[7] *3637:A 22.6929 
*END

*D_NET *36 0.00146786
*CONN
*P wbs_adr_i[8] I
*I *3636:A I *D sky130_fd_sc_hd__dlygate4sd3_1
*CAP
1 wbs_adr_i[8] 0.000313911
2 *3636:A 0.000313911
3 *3636:A wbs_dat_o[7] 0.000185964
4 *3636:A *3605:A 0
5 *3636:A *3827:A 0.000312373
6 *3636:A *115:41 0.000331931
7 *3636:A *325:8 9.77264e-06
*RES
1 wbs_adr_i[8] *3636:A 22.6036 
*END

*D_NET *37 0.00200477
*CONN
*P wbs_adr_i[9] I
*I *3635:A I *D sky130_fd_sc_hd__dlygate4sd3_1
*CAP
1 wbs_adr_i[9] 0.000327172
2 *3635:A 0.000327172
3 *3635:A wbs_dat_o[8] 0.000314889
4 *3635:A wbs_dat_o[9] 0.000402119
5 *3635:A *3604:A 0
6 *3635:A *3828:A 2.83284e-06
7 *3635:A *115:41 0.000455042
8 *3635:A *325:8 6.24774e-05
9 *3635:A *326:14 0.00011307
*RES
1 wbs_adr_i[9] *3635:A 24.3714 
*END

*D_NET *38 0.00123822
*CONN
*P wbs_cyc_i I
*I *3750:A I *D sky130_fd_sc_hd__buf_2
*CAP
1 wbs_cyc_i 0.000502014
2 *3750:A 0.000502014
3 *3750:A *3790:A 0.000140032
4 *3750:A *170:14 9.41642e-05
5 wbs_ack_o *3750:A 0
*RES
1 wbs_cyc_i *3750:A 22.0143 
*END

*D_NET *39 0.00107253
*CONN
*P wbs_dat_i[0] I
*I *3628:A I *D sky130_fd_sc_hd__dlygate4sd3_1
*CAP
1 wbs_dat_i[0] 0.000350442
2 *3628:A 0.000350442
3 *3628:A *3625:A 0.000185824
4 *3628:A *3792:A 0.000185824
*RES
1 wbs_dat_i[0] *3628:A 20.6393 
*END

*D_NET *40 0.00227772
*CONN
*P wbs_dat_i[10] I
*I *3603:A I *D sky130_fd_sc_hd__dlygate4sd3_1
*CAP
1 wbs_dat_i[10] 0.000874059
2 *3603:A 0.000874059
3 *3603:A wbs_dat_o[10] 0.000385888
4 *3603:A *3682:A 0
5 *3603:A *3686:A 0
6 *3603:A *3752:A 0.000114807
7 *3603:A *192:20 2.89114e-05
8 *3603:A *333:46 0
9 *3634:A *3603:A 0
*RES
1 wbs_dat_i[10] *3603:A 27.6214 
*END

*D_NET *41 0.00312445
*CONN
*P wbs_dat_i[11] I
*I *3602:A I *D sky130_fd_sc_hd__dlygate4sd3_1
*CAP
1 wbs_dat_i[11] 0.000607351
2 *3602:A 0.000607351
3 *3602:A wbs_dat_o[11] 0.000308595
4 *3602:A *321:8 0.00117204
5 *3602:A *333:46 0.000116855
6 *3602:A *336:38 0.000312261
7 *3632:A *3602:A 0
*RES
1 wbs_dat_i[11] *3602:A 31.1571 
*END

*D_NET *42 0.00303212
*CONN
*P wbs_dat_i[12] I
*I *3601:A I *D sky130_fd_sc_hd__dlygate4sd3_1
*CAP
1 wbs_dat_i[12] 0.00040991
2 *3601:A 0.00040991
3 *3601:A wbs_dat_o[12] 0.000452452
4 *3601:A wbs_dat_o[13] 0.000356165
5 *3601:A *115:39 0.000819903
6 *3601:A *115:41 0.000273807
7 *3601:A *325:26 0.000206331
8 *3601:A *326:14 0.000103646
*RES
1 wbs_dat_i[12] *3601:A 29.175 
*END

*D_NET *43 0.000875509
*CONN
*P wbs_dat_i[13] I
*I *3736:A I *D sky130_fd_sc_hd__dlygate4sd3_1
*CAP
1 wbs_dat_i[13] 0.000359979
2 *3736:A 0.000359979
3 *3736:A wbs_dat_o[13] 0
4 *3736:A *3657:A 0
5 *3736:A *3801:A 0
6 *3736:A *321:8 7.77751e-05
7 *3736:A *321:22 0
8 *3736:A *336:38 7.77751e-05
*RES
1 wbs_dat_i[13] *3736:A 20.2286 
*END

*D_NET *44 0.00115823
*CONN
*P wbs_dat_i[14] I
*I *3735:A I *D sky130_fd_sc_hd__dlygate4sd3_1
*CAP
1 wbs_dat_i[14] 0.000419388
2 *3735:A 0.000419388
3 *3735:A wbs_dat_o[13] 0
4 *3735:A *3756:A 0
5 *3735:A *3802:A 0.00011925
6 *3735:A *159:10 5.52302e-05
7 *3735:A *337:40 0.000144978
*RES
1 wbs_dat_i[14] *3735:A 21.8357 
*END

*D_NET *45 0.00170302
*CONN
*P wbs_dat_i[15] I
*I *3734:A I *D sky130_fd_sc_hd__dlygate4sd3_1
*CAP
1 wbs_dat_i[15] 0.000416385
2 *3734:A 0.000416385
3 *3734:A wbs_dat_o[14] 0
4 *3734:A wbs_dat_o[15] 0
5 *3734:A *3646:A 0
6 *3734:A *225:6 0.00057944
7 *3734:A *236:14 0.000290809
*RES
1 wbs_dat_i[15] *3734:A 24.3357 
*END

*D_NET *46 0.00103776
*CONN
*P wbs_dat_i[16] I
*I *3615:A I *D sky130_fd_sc_hd__dlygate4sd3_1
*CAP
1 wbs_dat_i[16] 0.00043424
2 *3615:A 0.00043424
3 *3615:A wbs_dat_o[15] 0
4 *3615:A *3599:A 0
5 *3615:A *3759:A 0
6 *3615:A *259:14 2.34969e-05
7 *3615:A *337:40 0.000145788
8 *3615:A *338:16 0
*RES
1 wbs_dat_i[16] *3615:A 21.3 
*END

*D_NET *47 0.0022971
*CONN
*P wbs_dat_i[17] I
*I *3612:A I *D sky130_fd_sc_hd__dlygate4sd3_1
*CAP
1 wbs_dat_i[17] 0.000439603
2 *3612:A 0.000439603
3 *3612:A wbs_dat_o[16] 0
4 *3612:A wbs_dat_o[17] 0
5 *3612:A *3681:A 0
6 *3612:A *3807:A 5.65955e-05
7 *3612:A *225:6 0.000779546
8 *3612:A *236:14 0.000381002
9 *3612:A *325:26 9.97552e-05
10 *3612:A *340:16 0.000100996
*RES
1 wbs_dat_i[17] *3612:A 26.3893 
*END

*D_NET *48 0.00204466
*CONN
*P wbs_dat_i[18] I
*I *3608:A I *D sky130_fd_sc_hd__dlygate4sd3_1
*CAP
1 wbs_dat_i[18] 0.000755696
2 *3608:A 0.000755696
3 *3608:A wbs_dat_o[17] 0.000313474
4 *3608:A *3670:A 0.000129595
5 *3608:A *115:29 9.02047e-05
*RES
1 wbs_dat_i[18] *3608:A 24.4964 
*END

*D_NET *49 0.00152208
*CONN
*P wbs_dat_i[19] I
*I *3613:A I *D sky130_fd_sc_hd__dlygate4sd3_1
*CAP
1 wbs_dat_i[19] 0.000527597
2 *3613:A 0.000527597
3 *3613:A wbs_dat_o[18] 0
4 *3613:A wbs_dat_o[19] 9.3552e-05
5 *3613:A *225:6 0.000186669
6 *3613:A *342:14 0
7 *3613:A *344:16 0.000186669
*RES
1 wbs_dat_i[19] *3613:A 23.5857 
*END

*D_NET *50 0.00230412
*CONN
*P wbs_dat_i[1] I
*I *3625:A I *D sky130_fd_sc_hd__dlygate4sd3_1
*CAP
1 wbs_dat_i[1] 0.00081126
2 *3625:A 0.00081126
3 *3625:A wbs_dat_o[1] 0
4 *3625:A *3723:A 0
5 *3625:A *3727:A 0
6 *3625:A *3792:A 0.000138437
7 *3625:A *147:16 0
8 *3625:A *170:14 0.000323914
9 *3625:A *331:20 3.34295e-05
10 *3628:A *3625:A 0.000185824
*RES
1 wbs_dat_i[1] *3625:A 28.5679 
*END

*D_NET *51 0.00179581
*CONN
*P wbs_dat_i[20] I
*I *3610:A I *D sky130_fd_sc_hd__dlygate4sd3_1
*CAP
1 wbs_dat_i[20] 0.000670013
2 *3610:A 0.000670013
3 *3610:A wbs_dat_o[19] 0.000226867
4 *3610:A *3684:A 0.000103897
5 *3610:A *115:29 0.000125023
*RES
1 wbs_dat_i[20] *3610:A 23.675 
*END

*D_NET *52 0.00133021
*CONN
*P wbs_dat_i[21] I
*I *3616:A I *D sky130_fd_sc_hd__dlygate4sd3_1
*CAP
1 wbs_dat_i[21] 0.000441081
2 *3616:A 0.000441081
3 *3616:A wbs_dat_o[20] 0
4 *3616:A wbs_dat_o[21] 0.000142856
5 *3616:A *3684:A 0
6 *3616:A *292:8 0.000117621
7 *3616:A *345:22 0.000187569
*RES
1 wbs_dat_i[21] *3616:A 22.5857 
*END

*D_NET *53 0.00205489
*CONN
*P wbs_dat_i[22] I
*I *3614:A I *D sky130_fd_sc_hd__dlygate4sd3_1
*CAP
1 wbs_dat_i[22] 0.000611505
2 *3614:A 0.000611505
3 *3614:A wbs_dat_o[21] 0
4 *3614:A wbs_dat_o[22] 0
5 *3614:A *3688:A 0.000147132
6 *3614:A *3813:A 0
7 *3614:A *159:32 0
8 *3614:A *281:20 0.000136682
9 *3614:A *301:26 0.000199057
10 *3614:A *302:6 0.000349009
*RES
1 wbs_dat_i[22] *3614:A 25.675 
*END

*D_NET *54 0.00156805
*CONN
*P wbs_dat_i[23] I
*I *3618:A I *D sky130_fd_sc_hd__dlygate4sd3_1
*CAP
1 wbs_dat_i[23] 0.000438743
2 *3618:A 0.000438743
3 *3618:A wbs_dat_o[22] 0
4 *3618:A wbs_dat_o[23] 0
5 *3618:A *3765:A 0
6 *3618:A *270:28 0.000441768
7 *3618:A *292:8 0.000248798
*RES
1 wbs_dat_i[23] *3618:A 23.4071 
*END

*D_NET *55 0.00112967
*CONN
*P wbs_dat_i[24] I
*I *3619:A I *D sky130_fd_sc_hd__dlygate4sd3_1
*CAP
1 wbs_dat_i[24] 0.000483761
2 *3619:A 0.000483761
3 *3619:A wbs_dat_o[23] 0
4 *3619:A wbs_dat_o[24] 0
5 *3619:A *3692:A 5.16867e-05
6 *3619:A *159:32 0
7 *3619:A *281:30 5.52302e-05
8 *3619:A *301:26 5.52302e-05
*RES
1 wbs_dat_i[24] *3619:A 21.8357 
*END

*D_NET *56 0.00388676
*CONN
*P wbs_dat_i[25] I
*I *3623:A I *D sky130_fd_sc_hd__dlygate4sd3_1
*CAP
1 wbs_dat_i[25] 0.00130625
2 *3623:A 0.00130625
3 *3623:A wbs_dat_o[24] 0.000954399
4 *3623:A wbs_dat_o[25] 0
5 *3623:A *3708:A 0.000225838
6 *3623:A *115:29 9.40156e-05
*RES
1 wbs_dat_i[25] *3623:A 32.3 
*END

*D_NET *57 0.00155919
*CONN
*P wbs_dat_i[26] I
*I *3627:A I *D sky130_fd_sc_hd__dlygate4sd3_1
*CAP
1 wbs_dat_i[26] 0.000457897
2 *3627:A 0.000457897
3 *3627:A wbs_dat_o[25] 0
4 *3627:A wbs_dat_o[26] 0
5 *3627:A *3708:A 0.000181564
6 *3627:A *132:49 0
7 *3627:A *281:30 5.94923e-05
8 *3627:A *292:16 0.000402338
*RES
1 wbs_dat_i[26] *3627:A 23.7286 
*END

*D_NET *58 0.00216168
*CONN
*P wbs_dat_i[27] I
*I *3624:A I *D sky130_fd_sc_hd__dlygate4sd3_1
*CAP
1 wbs_dat_i[27] 0.000516679
2 *3624:A 0.000516679
3 *3624:A wbs_dat_o[28] 6.05161e-06
4 *3624:A *3704:A 0.000137515
5 *3624:A *3772:A 0.000398815
6 *3624:A *305:8 0.000440717
7 *3624:A *325:34 0.000145228
8 *3:17 *3624:A 0
*RES
1 wbs_dat_i[27] *3624:A 27.2107 
*END

*D_NET *59 0.000634558
*CONN
*P wbs_dat_i[28] I
*I *3626:A I *D sky130_fd_sc_hd__dlygate4sd3_1
*CAP
1 wbs_dat_i[28] 0.000174423
2 *3626:A 0.000174423
3 *3626:A wbs_dat_o[27] 0
4 *3626:A wbs_dat_o[28] 0
5 *3626:A *3770:A 0.000142856
6 *3626:A *115:29 0.000142856
*RES
1 wbs_dat_i[28] *3626:A 17.8 
*END

*D_NET *60 0.00154539
*CONN
*P wbs_dat_i[29] I
*I *3629:A I *D sky130_fd_sc_hd__dlygate4sd3_1
*CAP
1 wbs_dat_i[29] 0.000684325
2 *3629:A 0.000684325
3 *3629:A wbs_dat_o[28] 0
4 *3629:A wbs_dat_o[30] 9.90431e-05
5 *3629:A *3648:A 2.27416e-05
6 *3629:A *3770:A 5.49544e-05
*RES
1 wbs_dat_i[29] *3629:A 25.6036 
*END

*D_NET *61 0.00251493
*CONN
*P wbs_dat_i[2] I
*I *3620:A I *D sky130_fd_sc_hd__dlygate4sd3_1
*CAP
1 wbs_dat_i[2] 0.000667844
2 *3620:A 0.000667844
3 *3620:A wbs_dat_o[2] 0
4 *3620:A *3563:A_N 0.00018077
5 *3620:A *3563:B 5.52238e-05
6 *3620:A *170:28 0.000136381
7 *3620:A *317:22 0.000133783
8 *3620:A *327:20 0.00012401
9 *3620:A *329:20 0.00040088
10 *3620:A *335:12 0
11 *3638:A *3620:A 0.000148196
12 *3642:A *3620:A 0
*RES
1 wbs_dat_i[2] *3620:A 29.1571 
*END

*D_NET *62 0.00148804
*CONN
*P wbs_dat_i[30] I
*I *3630:A I *D sky130_fd_sc_hd__dlygate4sd3_1
*CAP
1 wbs_dat_i[30] 0.000359686
2 *3630:A 0.000359686
3 *3630:A wbs_dat_o[28] 0.000400867
4 *3630:A wbs_dat_o[29] 0
5 *3630:A wbs_dat_o[30] 0
6 *3630:A *456:DIODE 5.01117e-05
7 *3630:A *3648:A 0.000100823
8 *3630:A *353:14 0.000216862
*RES
1 wbs_dat_i[30] *3630:A 23.4786 
*END

*D_NET *63 0.00118487
*CONN
*P wbs_dat_i[31] I
*I *3631:A I *D sky130_fd_sc_hd__dlygate4sd3_1
*CAP
1 wbs_dat_i[31] 0.000520156
2 *3631:A 0.000520156
3 *3631:A wbs_dat_o[30] 0.000141734
4 *3631:A *356:18 2.8266e-06
*RES
1 wbs_dat_i[31] *3631:A 22.3179 
*END

*D_NET *64 0.00396396
*CONN
*P wbs_dat_i[3] I
*I *3621:A I *D sky130_fd_sc_hd__dlygate4sd3_1
*CAP
1 wbs_dat_i[3] 0.00131639
2 *3621:A 0.00131639
3 *3621:A wbs_dat_o[3] 0.000375899
4 *3621:A *462:DIODE 0.000129884
5 *3621:A *3714:A 0
6 *3621:A *3779:A 7.60562e-05
7 *3621:A *3793:A 1.90936e-05
8 *3621:A *118:49 6.53397e-05
9 *3621:A *315:20 6.7352e-05
10 *3621:A *316:18 0.000325272
11 *3621:A *328:16 9.77118e-05
12 *3621:A *335:12 0.000140088
13 *3621:A *364:30 1.45937e-05
14 *3621:A *369:28 1.98839e-05
15 *3621:A *370:103 0
*RES
1 wbs_dat_i[3] *3621:A 45.6929 
*END

*D_NET *65 0.00218855
*CONN
*P wbs_dat_i[4] I
*I *3617:A I *D sky130_fd_sc_hd__dlygate4sd3_1
*CAP
1 wbs_dat_i[4] 0.000454024
2 *3617:A 0.000454024
3 *3617:A wbs_dat_o[4] 0
4 *3617:A *3679:A 5.33005e-05
5 *3617:A *3794:A 5.01909e-05
6 *3617:A *3823:A 0.000205991
7 *3617:A *187:14 0.000132957
8 *3617:A *324:14 0.000225609
9 *3617:A *326:14 0
10 *3617:A *334:32 0.000612457
*RES
1 wbs_dat_i[4] *3617:A 25.3357 
*END

*D_NET *66 0.00193873
*CONN
*P wbs_dat_i[5] I
*I *3609:A I *D sky130_fd_sc_hd__dlygate4sd3_1
*CAP
1 wbs_dat_i[5] 0.0004385
2 *3609:A 0.0004385
3 *3609:A wbs_dat_o[4] 0
4 *3609:A wbs_dat_o[5] 0
5 *3609:A *3820:A 1.15085e-05
6 *3609:A *3824:A 0.000160877
7 *3609:A *187:14 0.000311787
8 *3609:A *324:14 0.000165641
9 *3609:A *336:36 4.42631e-05
10 *3609:A *360:20 0.000367655
11 *3638:A *3609:A 0
*RES
1 wbs_dat_i[5] *3609:A 24.3 
*END

*D_NET *67 0.00186497
*CONN
*P wbs_dat_i[6] I
*I *3607:A I *D sky130_fd_sc_hd__dlygate4sd3_1
*CAP
1 wbs_dat_i[6] 0.000355044
2 *3607:A 0.000355044
3 *3607:A wbs_dat_o[5] 0.000313241
4 *3607:A wbs_dat_o[6] 0
5 *3607:A *115:41 0.000235593
6 *3607:A *325:8 0.000374766
7 *3607:A *360:20 0.000231278
8 *3639:A *3607:A 0
*RES
1 wbs_dat_i[6] *3607:A 24.1214 
*END

*D_NET *68 0.00150061
*CONN
*P wbs_dat_i[7] I
*I *3606:A I *D sky130_fd_sc_hd__dlygate4sd3_1
*CAP
1 wbs_dat_i[7] 0.00058273
2 *3606:A 0.00058273
3 *3606:A wbs_dat_o[7] 0
4 *3606:A *3827:A 0
5 *3606:A *323:22 0.000164753
6 *3606:A *324:14 0.000170397
7 *3606:A *362:20 0
8 *3637:A *3606:A 0
*RES
1 wbs_dat_i[7] *3606:A 24.3 
*END

*D_NET *69 0.00186069
*CONN
*P wbs_dat_i[8] I
*I *3605:A I *D sky130_fd_sc_hd__dlygate4sd3_1
*CAP
1 wbs_dat_i[8] 0.000446454
2 *3605:A 0.000446454
3 *3605:A wbs_dat_o[8] 0
4 *3605:A *3653:A 5.71472e-05
5 *3605:A *3701:A 0
6 *3605:A *3784:A 2.89114e-05
7 *3605:A *3828:A 0
8 *3605:A *321:8 0.000665667
9 *3605:A *336:38 0.000216054
10 *3636:A *3605:A 0
*RES
1 wbs_dat_i[8] *3605:A 25.2821 
*END

*D_NET *70 0.00211504
*CONN
*P wbs_dat_i[9] I
*I *3604:A I *D sky130_fd_sc_hd__dlygate4sd3_1
*CAP
1 wbs_dat_i[9] 0.00055249
2 *3604:A 0.00055249
3 *3604:A wbs_dat_o[9] 0
4 *3604:A *3695:A 0
5 *3604:A *3799:A 0.000301659
6 *3604:A *3828:A 0
7 *3604:A *321:8 2.94004e-05
8 *3604:A *332:42 3.00174e-05
9 *3604:A *336:38 0.000648986
10 *3635:A *3604:A 0
*RES
1 wbs_dat_i[9] *3604:A 26.1214 
*END

*D_NET *71 0.00132804
*CONN
*P wbs_dat_o[0] O
*I *3798:X O *D sky130_fd_sc_hd__buf_12
*CAP
1 wbs_dat_o[0] 0.000464467
2 *3798:X 0.000464467
3 wbs_dat_o[0] *3644:A 0
4 wbs_dat_o[0] *3660:A 0.000140933
5 wbs_dat_o[0] *3717:A 0.000140933
6 wbs_dat_o[0] *3727:A 0
7 wbs_dat_o[0] *3728:A 0.000117239
*RES
1 *3798:X wbs_dat_o[0] 22.6571 
*END

*D_NET *72 0.00138663
*CONN
*P wbs_dat_o[10] O
*I *3799:X O *D sky130_fd_sc_hd__buf_12
*CAP
1 wbs_dat_o[10] 0.000262509
2 *3799:X 0.000262509
3 wbs_dat_o[10] *3686:A 0
4 wbs_dat_o[10] *3799:A 5.52302e-05
5 wbs_dat_o[10] *321:8 0.000141985
6 wbs_dat_o[10] *336:38 0.000113073
7 wbs_dat_o[10] *365:34 0.000165435
8 *3603:A wbs_dat_o[10] 0.000385888
9 *3632:A wbs_dat_o[10] 0
*RES
1 *3799:X wbs_dat_o[10] 21.4607 
*END

*D_NET *73 0.00135657
*CONN
*P wbs_dat_o[11] O
*I *3800:X O *D sky130_fd_sc_hd__buf_12
*CAP
1 wbs_dat_o[11] 0.000388361
2 *3800:X 0.000388361
3 wbs_dat_o[11] *333:46 9.83442e-05
4 wbs_dat_o[11] *336:38 0.000108297
5 *3602:A wbs_dat_o[11] 0.000308595
6 *3632:A wbs_dat_o[11] 0
7 *3634:A wbs_dat_o[11] 6.46163e-05
*RES
1 *3800:X wbs_dat_o[11] 21.8714 
*END

*D_NET *74 0.00148222
*CONN
*P wbs_dat_o[12] O
*I *3801:X O *D sky130_fd_sc_hd__buf_12
*CAP
1 wbs_dat_o[12] 0.000181489
2 *3801:X 0.000181489
3 wbs_dat_o[12] *3801:A 0.000179329
4 wbs_dat_o[12] *325:26 0.000487467
5 *3601:A wbs_dat_o[12] 0.000452452
*RES
1 *3801:X wbs_dat_o[12] 20.7821 
*END

*D_NET *75 0.00233276
*CONN
*P wbs_dat_o[13] O
*I *3802:X O *D sky130_fd_sc_hd__buf_12
*CAP
1 wbs_dat_o[13] 0.000308545
2 *3802:X 0.000308545
3 wbs_dat_o[13] *3756:A 0.000314139
4 wbs_dat_o[13] *115:39 0.000129036
5 wbs_dat_o[13] *325:26 0.000916328
6 wbs_dat_o[13] *337:40 0
7 *3601:A wbs_dat_o[13] 0.000356165
8 *3735:A wbs_dat_o[13] 0
9 *3736:A wbs_dat_o[13] 0
*RES
1 *3802:X wbs_dat_o[13] 24.8893 
*END

*D_NET *76 0.00124923
*CONN
*P wbs_dat_o[14] O
*I *3803:X O *D sky130_fd_sc_hd__buf_12
*CAP
1 wbs_dat_o[14] 0.000335078
2 *3803:X 0.000335078
3 wbs_dat_o[14] *3646:A 0
4 wbs_dat_o[14] *3756:A 0.000196927
5 wbs_dat_o[14] *3802:A 0
6 wbs_dat_o[14] *225:6 0.000271352
7 wbs_dat_o[14] *236:14 8.18783e-05
8 wbs_dat_o[14] *336:38 2.89114e-05
9 *3734:A wbs_dat_o[14] 0
*RES
1 *3803:X wbs_dat_o[14] 21.4607 
*END

*D_NET *77 0.00167682
*CONN
*P wbs_dat_o[15] O
*I *3804:X O *D sky130_fd_sc_hd__buf_12
*CAP
1 wbs_dat_o[15] 0.000502102
2 *3804:X 0.000502102
3 wbs_dat_o[15] *115:39 0.000617395
4 wbs_dat_o[15] *259:14 5.52238e-05
5 wbs_dat_o[15] *337:40 0
6 *3615:A wbs_dat_o[15] 0
7 *3734:A wbs_dat_o[15] 0
*RES
1 *3804:X wbs_dat_o[15] 23.3536 
*END

*D_NET *78 0.00133311
*CONN
*P wbs_dat_o[16] O
*I *3805:X O *D sky130_fd_sc_hd__buf_12
*CAP
1 wbs_dat_o[16] 0.000290868
2 *3805:X 0.000290868
3 wbs_dat_o[16] *3681:A 9.60298e-05
4 wbs_dat_o[16] *3759:A 0.000237456
5 wbs_dat_o[16] *225:6 0.000271352
6 wbs_dat_o[16] *236:14 0.000146533
7 *3612:A wbs_dat_o[16] 0
*RES
1 *3805:X wbs_dat_o[16] 21.4607 
*END

*D_NET *79 0.00161833
*CONN
*P wbs_dat_o[17] O
*I *3806:X O *D sky130_fd_sc_hd__buf_12
*CAP
1 wbs_dat_o[17] 0.000464066
2 *3806:X 0.000464066
3 wbs_dat_o[17] *3806:A 0.00014258
4 wbs_dat_o[17] *115:29 0.000234142
5 *3608:A wbs_dat_o[17] 0.000313474
6 *3612:A wbs_dat_o[17] 0
*RES
1 *3806:X wbs_dat_o[17] 24.9607 
*END

*D_NET *80 0.00117772
*CONN
*P wbs_dat_o[18] O
*I *3807:X O *D sky130_fd_sc_hd__buf_12
*CAP
1 wbs_dat_o[18] 0.000352565
2 *3807:X 0.000352565
3 wbs_dat_o[18] *3670:A 6.41279e-05
4 wbs_dat_o[18] *3807:A 5.52302e-05
5 wbs_dat_o[18] *225:6 0.000271352
6 wbs_dat_o[18] *236:14 8.18783e-05
7 *3613:A wbs_dat_o[18] 0
*RES
1 *3807:X wbs_dat_o[18] 21.4607 
*END

*D_NET *81 0.00145874
*CONN
*P wbs_dat_o[19] O
*I *3808:X O *D sky130_fd_sc_hd__buf_12
*CAP
1 wbs_dat_o[19] 0.000365134
2 *3808:X 0.000365134
3 wbs_dat_o[19] *115:29 0.000307088
4 wbs_dat_o[19] *342:14 0.00010096
5 *3610:A wbs_dat_o[19] 0.000226867
6 *3613:A wbs_dat_o[19] 9.3552e-05
*RES
1 *3808:X wbs_dat_o[19] 22.425 
*END

*D_NET *82 0.000536881
*CONN
*P wbs_dat_o[1] O
*I *3809:X O *D sky130_fd_sc_hd__buf_12
*CAP
1 wbs_dat_o[1] 0.000169404
2 *3809:X 0.000169404
3 wbs_dat_o[1] *3730:A 9.90367e-05
4 wbs_dat_o[1] *3731:A 9.90367e-05
5 *3625:A wbs_dat_o[1] 0
*RES
1 *3809:X wbs_dat_o[1] 17.0857 
*END

*D_NET *83 0.0012037
*CONN
*P wbs_dat_o[20] O
*I *3810:X O *D sky130_fd_sc_hd__buf_12
*CAP
1 wbs_dat_o[20] 0.000353621
2 *3810:X 0.000353621
3 wbs_dat_o[20] *3652:A 0
4 wbs_dat_o[20] *3684:A 9.11286e-05
5 wbs_dat_o[20] *292:8 0.000270508
6 wbs_dat_o[20] *344:16 5.49544e-05
7 wbs_dat_o[20] *345:22 7.98659e-05
8 *3616:A wbs_dat_o[20] 0
*RES
1 *3810:X wbs_dat_o[20] 21.4607 
*END

*D_NET *84 0.00295159
*CONN
*P wbs_dat_o[21] O
*I *3811:X O *D sky130_fd_sc_hd__buf_12
*CAP
1 wbs_dat_o[21] 0.000487359
2 *3811:X 0.000487359
3 wbs_dat_o[21] *3688:A 0
4 wbs_dat_o[21] *270:28 0.000119821
5 wbs_dat_o[21] *292:8 0.00104651
6 wbs_dat_o[21] *345:22 0.000667682
7 *3614:A wbs_dat_o[21] 0
8 *3616:A wbs_dat_o[21] 0.000142856
*RES
1 *3811:X wbs_dat_o[21] 28.8536 
*END

*D_NET *85 0.00257252
*CONN
*P wbs_dat_o[22] O
*I *3812:X O *D sky130_fd_sc_hd__buf_12
*CAP
1 wbs_dat_o[22] 0.000666682
2 *3812:X 0.000666682
3 wbs_dat_o[22] *403:DIODE 7.85137e-05
4 wbs_dat_o[22] *3765:A 0.000249356
5 wbs_dat_o[22] *3812:A 9.83442e-05
6 wbs_dat_o[22] *3813:A 2.19306e-05
7 wbs_dat_o[22] *120:42 9.2924e-05
8 wbs_dat_o[22] *129:48 1.00332e-05
9 wbs_dat_o[22] *129:50 0.000124869
10 wbs_dat_o[22] *129:52 0.000292683
11 wbs_dat_o[22] *350:42 0.000270507
12 *3614:A wbs_dat_o[22] 0
13 *3618:A wbs_dat_o[22] 0
*RES
1 *3812:X wbs_dat_o[22] 29.2643 
*END

*D_NET *86 0.00103513
*CONN
*P wbs_dat_o[23] O
*I *3813:X O *D sky130_fd_sc_hd__buf_12
*CAP
1 wbs_dat_o[23] 0.000370058
2 *3813:X 0.000370058
3 wbs_dat_o[23] *3813:A 5.52302e-05
4 wbs_dat_o[23] *115:29 0.00023978
5 *3618:A wbs_dat_o[23] 0
6 *3619:A wbs_dat_o[23] 0
*RES
1 *3813:X wbs_dat_o[23] 20.7821 
*END

*D_NET *87 0.0030922
*CONN
*P wbs_dat_o[24] O
*I *3814:X O *D sky130_fd_sc_hd__buf_12
*CAP
1 wbs_dat_o[24] 0.000565364
2 *3814:X 0.000565364
3 wbs_dat_o[24] *3708:A 0.000389692
4 wbs_dat_o[24] *115:29 0.000428794
5 wbs_dat_o[24] *348:14 0.000188586
6 *3619:A wbs_dat_o[24] 0
7 *3623:A wbs_dat_o[24] 0.000954399
*RES
1 *3814:X wbs_dat_o[24] 29.4071 
*END

*D_NET *88 0.00173327
*CONN
*P wbs_dat_o[25] O
*I *3815:X O *D sky130_fd_sc_hd__buf_12
*CAP
1 wbs_dat_o[25] 0.000501968
2 *3815:X 0.000501968
3 wbs_dat_o[25] *3815:A 0.00014183
4 wbs_dat_o[25] *159:40 2.8266e-06
5 wbs_dat_o[25] *259:22 7.2754e-05
6 wbs_dat_o[25] *292:8 0.000476709
7 wbs_dat_o[25] *305:8 2.14658e-05
8 wbs_dat_o[25] *348:14 1.37492e-05
9 *3623:A wbs_dat_o[25] 0
10 *3627:A wbs_dat_o[25] 0
*RES
1 *3815:X wbs_dat_o[25] 23.925 
*END

*D_NET *89 0.00197413
*CONN
*P wbs_dat_o[26] O
*I *3816:X O *D sky130_fd_sc_hd__buf_12
*CAP
1 wbs_dat_o[26] 0.000770844
2 *3816:X 0.000770844
3 wbs_dat_o[26] *3710:A 5.72546e-05
4 wbs_dat_o[26] *3771:A 0.000123352
5 wbs_dat_o[26] *113:29 6.81786e-05
6 wbs_dat_o[26] *121:32 0.000136682
7 wbs_dat_o[26] *301:36 4.69775e-05
8 wbs_dat_o[26] *325:34 0
9 *3627:A wbs_dat_o[26] 0
*RES
1 *3816:X wbs_dat_o[26] 28.4429 
*END

*D_NET *90 0.00227806
*CONN
*P wbs_dat_o[27] O
*I *3817:X O *D sky130_fd_sc_hd__buf_12
*CAP
1 wbs_dat_o[27] 0.00066116
2 *3817:X 0.00066116
3 wbs_dat_o[27] *3704:A 0.000143142
4 wbs_dat_o[27] *3770:A 1.30665e-05
5 wbs_dat_o[27] *3817:A 0.000348594
6 wbs_dat_o[27] *134:43 0
7 wbs_dat_o[27] *302:6 0.000139907
8 *3626:A wbs_dat_o[27] 0
9 *3:17 wbs_dat_o[27] 0.000311035
*RES
1 *3817:X wbs_dat_o[27] 27.7286 
*END

*D_NET *91 0.00308523
*CONN
*P wbs_dat_o[28] O
*I *3818:X O *D sky130_fd_sc_hd__buf_12
*CAP
1 wbs_dat_o[28] 0.00119199
2 *3818:X 0.00119199
3 wbs_dat_o[28] *3611:A 0
4 wbs_dat_o[28] *3655:A 4.99132e-05
5 wbs_dat_o[28] *3770:A 0
6 wbs_dat_o[28] *3772:A 3.30352e-05
7 wbs_dat_o[28] *115:27 4.89167e-05
8 wbs_dat_o[28] *305:10 9.25014e-06
9 wbs_dat_o[28] *309:8 9.35794e-06
10 wbs_dat_o[28] *311:8 4.0342e-06
11 wbs_dat_o[28] *353:14 0.000139815
12 *3624:A wbs_dat_o[28] 6.05161e-06
13 *3626:A wbs_dat_o[28] 0
14 *3629:A wbs_dat_o[28] 0
15 *3630:A wbs_dat_o[28] 0.000400867
*RES
1 *3818:X wbs_dat_o[28] 31.0321 
*END

*D_NET *92 0.00259105
*CONN
*P wbs_dat_o[29] O
*I *3819:X O *D sky130_fd_sc_hd__buf_12
*CAP
1 wbs_dat_o[29] 0.000696291
2 *3819:X 0.000696291
3 wbs_dat_o[29] *456:DIODE 0
4 wbs_dat_o[29] *3819:A 0.00040279
5 wbs_dat_o[29] *121:32 0.000614033
6 wbs_dat_o[29] *137:44 0
7 wbs_dat_o[29] *137:46 0
8 wbs_dat_o[29] *307:8 9.40713e-05
9 wbs_dat_o[29] *310:8 8.75782e-05
10 *3630:A wbs_dat_o[29] 0
*RES
1 *3819:X wbs_dat_o[29] 29.6036 
*END

*D_NET *93 0.0011551
*CONN
*P wbs_dat_o[2] O
*I *3820:X O *D sky130_fd_sc_hd__buf_12
*CAP
1 wbs_dat_o[2] 0.000275011
2 *3820:X 0.000275011
3 wbs_dat_o[2] *3730:A 0
4 wbs_dat_o[2] *3788:A 0.000197984
5 wbs_dat_o[2] *3789:A 0.000173083
6 wbs_dat_o[2] *324:12 4.87953e-05
7 wbs_dat_o[2] *331:20 4.87953e-05
8 wbs_dat_o[2] *335:12 0.000136423
9 *3620:A wbs_dat_o[2] 0
10 *3641:A wbs_dat_o[2] 0
*RES
1 *3820:X wbs_dat_o[2] 20.4786 
*END

*D_NET *94 0.00118717
*CONN
*P wbs_dat_o[30] O
*I *3821:X O *D sky130_fd_sc_hd__buf_12
*CAP
1 wbs_dat_o[30] 0.00044572
2 *3821:X 0.00044572
3 wbs_dat_o[30] *356:18 5.49544e-05
4 *3629:A wbs_dat_o[30] 9.90431e-05
5 *3630:A wbs_dat_o[30] 0
6 *3631:A wbs_dat_o[30] 0.000141734
*RES
1 *3821:X wbs_dat_o[30] 22.2107 
*END

*D_NET *95 0.000928126
*CONN
*P wbs_dat_o[31] O
*I *3822:X O *D sky130_fd_sc_hd__buf_12
*CAP
1 wbs_dat_o[31] 0.000464063
2 *3822:X 0.000464063
3 wbs_dat_o[31] *356:18 0
*RES
1 *3822:X wbs_dat_o[31] 21.4607 
*END

*D_NET *96 0.00137159
*CONN
*P wbs_dat_o[3] O
*I *3823:X O *D sky130_fd_sc_hd__buf_12
*CAP
1 wbs_dat_o[3] 0.000391281
2 *3823:X 0.000391281
3 wbs_dat_o[3] *3820:A 0.000139907
4 wbs_dat_o[3] *331:20 7.32272e-05
5 *3621:A wbs_dat_o[3] 0.000375899
*RES
1 *3823:X wbs_dat_o[3] 20.2286 
*END

*D_NET *97 0.00137405
*CONN
*P wbs_dat_o[4] O
*I *3824:X O *D sky130_fd_sc_hd__buf_12
*CAP
1 wbs_dat_o[4] 0.000460289
2 *3824:X 0.000460289
3 wbs_dat_o[4] *3820:A 0.000259273
4 wbs_dat_o[4] *3824:A 0.000136682
5 wbs_dat_o[4] *323:16 3.63775e-05
6 wbs_dat_o[4] *326:14 2.11419e-05
7 *3609:A wbs_dat_o[4] 0
8 *3617:A wbs_dat_o[4] 0
9 *3638:A wbs_dat_o[4] 0
*RES
1 *3824:X wbs_dat_o[4] 21.4607 
*END

*D_NET *98 0.0013916
*CONN
*P wbs_dat_o[5] O
*I *3825:X O *D sky130_fd_sc_hd__buf_12
*CAP
1 wbs_dat_o[5] 0.000307549
2 *3825:X 0.000307549
3 wbs_dat_o[5] *115:41 1.56e-05
4 wbs_dat_o[5] *325:8 0.000356035
5 *3607:A wbs_dat_o[5] 0.000313241
6 *3609:A wbs_dat_o[5] 0
7 *3639:A wbs_dat_o[5] 9.16215e-05
*RES
1 *3825:X wbs_dat_o[5] 22.4964 
*END

*D_NET *99 0.00134547
*CONN
*P wbs_dat_o[6] O
*I *3826:X O *D sky130_fd_sc_hd__buf_12
*CAP
1 wbs_dat_o[6] 0.000493552
2 *3826:X 0.000493552
3 wbs_dat_o[6] *3827:A 6.7316e-05
4 wbs_dat_o[6] *336:38 6.54309e-05
5 *3607:A wbs_dat_o[6] 0
6 *3637:A wbs_dat_o[6] 0.000225616
7 *3639:A wbs_dat_o[6] 0
*RES
1 *3826:X wbs_dat_o[6] 22.8179 
*END

*D_NET *100 0.00123102
*CONN
*P wbs_dat_o[7] O
*I *3827:X O *D sky130_fd_sc_hd__buf_12
*CAP
1 wbs_dat_o[7] 0.000280547
2 *3827:X 0.000280547
3 wbs_dat_o[7] *115:41 8.18783e-05
4 wbs_dat_o[7] *325:8 0.000402086
5 *3606:A wbs_dat_o[7] 0
6 *3636:A wbs_dat_o[7] 0.000185964
*RES
1 *3827:X wbs_dat_o[7] 20.4964 
*END

*D_NET *101 0.00142151
*CONN
*P wbs_dat_o[8] O
*I *3828:X O *D sky130_fd_sc_hd__buf_12
*CAP
1 wbs_dat_o[8] 0.000246864
2 *3828:X 0.000246864
3 wbs_dat_o[8] *115:41 8.18783e-05
4 wbs_dat_o[8] *325:8 0.00053101
5 *3605:A wbs_dat_o[8] 0
6 *3635:A wbs_dat_o[8] 0.000314889
*RES
1 *3828:X wbs_dat_o[8] 21.1929 
*END

*D_NET *102 0.00268127
*CONN
*P wbs_dat_o[9] O
*I *3829:X O *D sky130_fd_sc_hd__buf_12
*CAP
1 wbs_dat_o[9] 0.000400585
2 *3829:X 0.000400585
3 wbs_dat_o[9] *3686:A 0.000271345
4 wbs_dat_o[9] *115:41 0.000130045
5 wbs_dat_o[9] *325:8 0.00107659
6 *3604:A wbs_dat_o[9] 0
7 *3635:A wbs_dat_o[9] 0.000402119
*RES
1 *3829:X wbs_dat_o[9] 26.5321 
*END

*D_NET *103 0.00228752
*CONN
*P wbs_sel_i[0] I
*I *3727:A I *D sky130_fd_sc_hd__dlygate4sd3_1
*CAP
1 wbs_sel_i[0] 0.000672544
2 *3727:A 0.000672544
3 *3727:A *3660:A 0.000139056
4 *3727:A *3724:A 6.05161e-06
5 *3727:A *3728:A 0.00029258
6 *3727:A *3733:A 0.00012501
7 *3727:A *3786:A 0.000299001
8 *3727:A *147:16 0
9 *3727:A *317:22 8.07313e-05
10 wbs_dat_o[0] *3727:A 0
11 *3625:A *3727:A 0
*RES
1 wbs_sel_i[0] *3727:A 28.7464 
*END

*D_NET *104 0.0035981
*CONN
*P wbs_sel_i[1] I
*I *3723:A I *D sky130_fd_sc_hd__dlygate4sd3_1
*CAP
1 wbs_sel_i[1] 0.00101784
2 *3723:A 0.00101784
3 *3723:A *3775:A 5.16862e-05
4 *3723:A *3787:A 0.000505788
5 *3723:A *3791:A 7.91743e-05
6 *3723:A *3809:A 0.000786561
7 *3723:A *312:14 0.00013921
8 *3625:A *3723:A 0
*RES
1 wbs_sel_i[1] *3723:A 34.0143 
*END

*D_NET *105 0.00403002
*CONN
*P wbs_sel_i[2] I
*I *3730:A I *D sky130_fd_sc_hd__dlygate4sd3_1
*CAP
1 wbs_sel_i[2] 0.00120307
2 *3730:A 0.00120307
3 *3730:A *3706:A 7.49387e-06
4 *3730:A *3728:A 0.000142856
5 *3730:A *3731:A 0.000498165
6 *3730:A *3788:A 5.52238e-05
7 *3730:A *3789:A 7.77652e-05
8 *3730:A *147:16 0.000743332
9 wbs_dat_o[1] *3730:A 9.90367e-05
10 wbs_dat_o[2] *3730:A 0
11 *3641:A *3730:A 0
*RES
1 wbs_sel_i[2] *3730:A 38.7464 
*END

*D_NET *106 0.00588697
*CONN
*P wbs_sel_i[3] I
*I *3733:A I *D sky130_fd_sc_hd__dlygate4sd3_1
*CAP
1 wbs_sel_i[3] 0.00188133
2 *3733:A 0.00188133
3 *3733:A *147:16 0
4 *3733:A *330:18 0.000659802
5 *3638:A *3733:A 0.00133949
6 *3727:A *3733:A 0.00012501
*RES
1 wbs_sel_i[3] *3733:A 49.925 
*END

*D_NET *107 0.00128209
*CONN
*P wbs_stb_i I
*I *3790:A I *D sky130_fd_sc_hd__buf_2
*CAP
1 wbs_stb_i 0.000571031
2 *3790:A 0.000571031
3 *3790:A *3763:A 0
4 *3790:A *3792:A 0
5 *3750:A *3790:A 0.000140032
*RES
1 wbs_stb_i *3790:A 24.5679 
*END

*D_NET *108 0.0020484
*CONN
*P wbs_we_i I
*I *3792:A I *D sky130_fd_sc_hd__buf_2
*CAP
1 wbs_we_i 0.000493335
2 *3792:A 0.000493335
3 *3792:A *170:14 0.000697676
4 *3792:A *330:18 3.97925e-05
5 *3625:A *3792:A 0.000138437
6 *3628:A *3792:A 0.000185824
7 *3790:A *3792:A 0
*RES
1 wbs_we_i *3792:A 26.5321 
*END

*D_NET *109 0.00501245
*CONN
*I *3588:RESET_B I *D sky130_fd_sc_hd__dfrtp_1
*I *3554:Y O *D sky130_fd_sc_hd__inv_2
*CAP
1 *3588:RESET_B 0.00110803
2 *3554:Y 0.00110803
3 *3588:RESET_B *460:DIODE 6.05161e-06
4 *3588:RESET_B *465:DIODE 0.000129942
5 *3588:RESET_B *3668:A 0.000237833
6 *3588:RESET_B *3714:A 0
7 *3588:RESET_B *3719:A 0.000440233
8 *3588:RESET_B *3794:A 0.000441315
9 *3588:RESET_B *115:49 5.09674e-05
10 *3588:RESET_B *187:14 5.62995e-05
11 *3588:RESET_B *329:20 0.000135467
12 *3588:RESET_B *330:10 6.42338e-05
13 *3588:RESET_B *333:24 0.000264685
14 *3588:RESET_B *365:24 1.70184e-05
15 *3641:A *3588:RESET_B 0.000952343
*RES
1 *3554:Y *3588:RESET_B 44.5946 
*END

*D_NET *110 0.0486179
*CONN
*I *3591:A I *D sky130_fd_sc_hd__clkbuf_16
*I *3590:A I *D sky130_fd_sc_hd__clkbuf_16
*I *3589:X O *D sky130_fd_sc_hd__clkbuf_16
*CAP
1 *3591:A 0.000968522
2 *3590:A 0.000358823
3 *3589:X 0.000678662
4 *110:14 0.00325353
5 *110:12 0.00289471
6 *110:10 0.00220657
7 *110:8 0.00385375
8 *3590:A *3671:A 2.38651e-06
9 *3590:A *315:42 7.44313e-05
10 *3590:A *318:16 0
11 *3590:A *321:22 0
12 *3590:A *329:61 7.5887e-05
13 *3591:A *3732:A 0.000538494
14 *3591:A *195:16 0.00147017
15 *3591:A *217:10 0.000124623
16 *3591:A *237:12 0.0018041
17 *110:10 *3732:A 0.0015013
18 *110:10 *133:21 2.72712e-05
19 *110:10 *133:23 0.00733255
20 *110:10 *195:16 0.000287063
21 *110:10 *325:36 0.00730836
22 *110:14 *114:19 0.00129095
23 *110:14 *144:15 0.00874851
24 *110:14 *149:14 0.00353518
25 *3:17 *3591:A 1.76135e-05
26 *3:17 *110:10 0.000264481
*RES
1 *3589:X *110:8 20.4964 
2 *110:8 *110:10 99.3929 
3 *110:10 *110:12 4.5 
4 *110:12 *110:14 83.0893 
5 *110:14 *3590:A 24.4027 
6 *110:8 *3591:A 47.4786 
*END

*D_NET *111 0.0115808
*CONN
*I *3592:A I *D sky130_fd_sc_hd__clkinv_16
*I *3588:CLK I *D sky130_fd_sc_hd__dfrtp_1
*I *3590:X O *D sky130_fd_sc_hd__clkbuf_16
*CAP
1 *3592:A 0.000200046
2 *3588:CLK 0
3 *3590:X 0
4 *111:14 0.0015991
5 *111:10 0.00225759
6 *111:6 0.000858536
7 *3592:A *318:16 0
8 *3592:A *327:51 0
9 *111:10 *3722:A 0
10 *111:10 *118:31 0
11 *111:10 *164:10 0
12 *111:10 *318:16 0
13 *111:10 *322:12 0
14 *111:14 *395:DIODE 5.33005e-05
15 *111:14 *3752:A 0.000181796
16 *111:14 *3753:A 8.85761e-05
17 *111:14 *3758:A 5.33005e-05
18 *111:14 *192:20 6.95486e-05
19 *111:14 *258:12 2.89016e-05
20 *111:14 *320:16 0.00198301
21 *111:14 *333:24 0.00173533
22 *111:14 *333:46 0.000378867
23 *111:14 *350:20 0.000105125
24 *111:14 *350:30 0.000186669
25 *111:14 *362:20 0.00103909
26 *111:14 *364:30 0.000534222
27 *111:14 *372:14 0.000227799
*RES
1 *3590:X *111:6 13.8 
2 *111:6 *111:10 13.125 
3 *111:10 *111:14 48.1964 
4 *111:14 *3588:CLK 9.3 
5 *111:6 *3592:A 7.66071 
*END

*D_NET *112 0.0148153
*CONN
*I *3737:CLKin I *D CF_SRAM_1024x32
*I *3591:X O *D sky130_fd_sc_hd__clkbuf_16
*CAP
1 *3737:CLKin 0.00121852
2 *3591:X 0
3 *112:8 0.00307569
4 *112:6 0.00185716
5 *3737:CLKin *3737:BEN[17] 0
6 *3737:CLKin *3737:TM 0
7 *3737:CLKin *3737:DI[17] 0
8 *112:8 *134:11 0.00103632
9 *112:8 *175:8 0.000176675
10 *112:8 *179:16 0.00219812
11 *112:8 *221:10 0.00178738
12 *112:8 *223:10 0.00346544
*RES
1 *3591:X *112:6 13.8 
2 *112:6 *112:8 77.5357 
3 *112:8 *3737:CLKin 22.4107 
*END

*D_NET *113 0.0790288
*CONN
*I *384:DIODE I *D sky130_fd_sc_hd__diode_2
*I *406:DIODE I *D sky130_fd_sc_hd__diode_2
*I *3582:D I *D sky130_fd_sc_hd__and4b_1
*I *395:DIODE I *D sky130_fd_sc_hd__diode_2
*I *3737:DO[0] O *D CF_SRAM_1024x32
*CAP
1 *384:DIODE 0
2 *406:DIODE 0.000269858
3 *3582:D 1.37245e-05
4 *395:DIODE 0.00029419
5 *3737:DO[0] 0.00196665
6 *113:57 0.000342747
7 *113:55 0.000452489
8 *113:43 0.00124484
9 *113:31 0.00272827
10 *113:29 0.00359544
11 *113:11 0.00616205
12 *113:9 0.00616449
13 *395:DIODE *3582:B 3.47641e-06
14 *395:DIODE *3583:A_N 1.89507e-06
15 *395:DIODE *3794:A 9.11048e-06
16 *395:DIODE *135:21 2.86121e-05
17 *395:DIODE *181:20 0.00017771
18 *395:DIODE *331:12 0.000157334
19 *395:DIODE *333:24 5.49544e-05
20 *406:DIODE *3582:B 3.95166e-05
21 *406:DIODE *135:21 1.25544e-05
22 *406:DIODE *327:43 2.36643e-05
23 *406:DIODE *328:16 2.30389e-05
24 *406:DIODE *329:53 5.49489e-05
25 *406:DIODE *332:26 9.25014e-06
26 *406:DIODE *337:18 0.000107442
27 *406:DIODE *367:25 5.34184e-05
28 *3582:D *118:49 6.67396e-05
29 *3582:D *366:151 6.67396e-05
30 *113:9 *3737:ScanInCC 0
31 *113:9 *3737:DI[0] 7.88803e-05
32 *113:11 *121:22 0
33 *113:11 *122:21 0.00283221
34 *113:11 *137:13 0.0126286
35 *113:11 *137:15 0.00020455
36 *113:11 *137:17 0.00020212
37 *113:11 *137:19 0.000201143
38 *113:11 *137:21 0.00020455
39 *113:11 *137:23 0.000282072
40 *113:11 *137:38 0.000104377
41 *113:11 *137:40 0.000195088
42 *113:11 *137:42 0.00020455
43 *113:11 *137:44 3.34366e-05
44 *113:11 *139:11 0.0107554
45 *113:11 *142:11 2.0362e-05
46 *113:11 *313:10 0
47 *113:11 *314:10 0
48 *113:29 *3611:A 0.000125863
49 *113:29 *3819:A 0.000655981
50 *113:29 *121:32 0.00053823
51 *113:29 *122:29 0.000505873
52 *113:29 *281:30 0.000172513
53 *113:29 *292:16 3.90098e-05
54 *113:29 *339:42 8.23597e-06
55 *113:29 *350:42 9.87983e-06
56 *113:29 *361:14 0.000984719
57 *113:31 *145:73 0.000121926
58 *113:31 *258:14 0.00947741
59 *113:31 *303:16 3.47797e-05
60 *113:31 *317:32 0.00818191
61 *113:31 *339:26 0.000117423
62 *113:31 *339:42 0.000924903
63 *113:31 *361:14 0.000677391
64 *113:43 *459:DIODE 0.000302728
65 *113:43 *118:49 3.9846e-05
66 *113:43 *142:19 0.000160191
67 *113:43 *145:22 0.000963256
68 *113:43 *148:12 6.54116e-05
69 *113:43 *181:30 0.00114255
70 *113:43 *187:14 5.52238e-05
71 *113:43 *317:32 1.64621e-05
72 *113:43 *319:12 0.000141451
73 *113:43 *367:52 0.00022616
74 *113:43 *369:35 0.000708701
75 *113:55 *459:DIODE 5.33005e-05
76 *113:55 *3582:B 1.90936e-05
77 *113:55 *118:49 1.02936e-05
78 *113:55 *366:151 0.000136951
79 *113:55 *369:35 0.000195775
80 *113:57 *3582:B 1.26641e-05
81 *113:57 *3583:A_N 6.90348e-06
82 *113:57 *367:25 1.89507e-06
83 wbs_dat_o[26] *113:29 6.81786e-05
84 *111:14 *395:DIODE 5.33005e-05
*RES
1 *3737:DO[0] *113:9 31.9375 
2 *113:9 *113:11 178.929 
3 *113:11 *113:29 49.3989 
4 *113:29 *113:31 91.7143 
5 *113:31 *113:43 35.4464 
6 *113:43 *113:55 8.04464 
7 *113:55 *113:57 0.580357 
8 *113:57 *395:DIODE 19.675 
9 *113:57 *3582:D 14.4473 
10 *113:55 *406:DIODE 18.6661 
11 *113:43 *384:DIODE 9.3 
*END

*D_NET *114 0.0687308
*CONN
*I *417:DIODE I *D sky130_fd_sc_hd__diode_2
*I *3560:D I *D sky130_fd_sc_hd__and4b_1
*I *3737:DO[10] O *D CF_SRAM_1024x32
*CAP
1 *417:DIODE 0
2 *3560:D 0.000220039
3 *3737:DO[10] 0.00277279
4 *114:19 0.010336
5 *114:11 0.0113433
6 *114:9 0.00400015
7 *3560:D *3560:A_N 9.54798e-06
8 *3560:D *117:21 0
9 *3560:D *143:27 1.69115e-05
10 *3560:D *143:31 5.62193e-05
11 *3560:D *327:43 3.31876e-05
12 *3560:D *328:16 0.000193277
13 *3560:D *369:12 3.31891e-05
14 *3560:D *369:28 0.000194669
15 *114:9 *3737:DI[10] 0
16 *114:11 *120:18 0.0053827
17 *114:11 *121:22 0.0053827
18 *114:19 *3720:A 0
19 *114:19 *116:15 0.00106541
20 *114:19 *117:15 0.00290618
21 *114:19 *117:21 0
22 *114:19 *119:15 0.000175894
23 *114:19 *138:19 0.015166
24 *114:19 *140:15 0.000689828
25 *114:19 *143:23 0.000152904
26 *114:19 *143:27 0.000106785
27 *114:19 *144:15 0.00256318
28 *114:19 *146:18 0.00305846
29 *114:19 *148:12 0
30 *114:19 *149:14 0.000386123
31 *114:19 *166:24 0.000988509
32 *114:19 *319:14 0.00020581
33 *114:19 *329:26 0
34 *114:19 *329:77 0
35 *114:19 *332:26 0
36 *110:14 *114:19 0.00129095
*RES
1 *3737:DO[10] *114:9 35.3482 
2 *114:9 *114:11 67.6696 
3 *114:11 *114:19 41.3429 
4 *114:19 *3560:D 19.1437 
5 *114:19 *417:DIODE 13.8 
*END

*D_NET *115 0.0512103
*CONN
*I *439:DIODE I *D sky130_fd_sc_hd__diode_2
*I *428:DIODE I *D sky130_fd_sc_hd__diode_2
*I *3561:D I *D sky130_fd_sc_hd__and4b_1
*I *3737:DO[11] O *D CF_SRAM_1024x32
*CAP
1 *439:DIODE 0
2 *428:DIODE 7.84888e-05
3 *3561:D 0.000202625
4 *3737:DO[11] 0.00137508
5 *115:49 0.00081287
6 *115:41 0.00332305
7 *115:39 0.00356493
8 *115:29 0.00278345
9 *115:27 0.00330658
10 *115:17 0.00214017
11 *115:13 0.00221849
12 *3561:D *465:DIODE 0
13 *3561:D *3561:A_N 5.59013e-05
14 *3561:D *3561:C 5.33005e-05
15 *3561:D *3778:A 0.000105268
16 *3561:D *3793:A 0.000112777
17 *3561:D *336:24 0.000119774
18 *115:13 *3720:A 0.000129366
19 *115:13 *3737:DI[11] 0.00056654
20 *115:13 *259:36 7.4826e-05
21 *115:13 *270:38 0.000745963
22 *115:13 *302:22 1.09232e-05
23 *115:17 *3713:A 0.000756611
24 *115:17 *186:20 7.39203e-06
25 *115:17 *186:26 0.00334148
26 *115:17 *270:38 1.09232e-05
27 *115:17 *302:20 2.43303e-05
28 *115:17 *302:22 0.00333339
29 *115:27 *442:DIODE 0
30 *115:27 *3579:D 2.04825e-05
31 *115:27 *3770:A 0
32 *115:27 *134:27 4.56498e-05
33 *115:27 *134:29 0.000113574
34 *115:27 *134:31 5.32743e-05
35 *115:27 *134:33 9.01035e-05
36 *115:27 *134:35 9.25053e-05
37 *115:27 *134:41 7.79944e-05
38 *115:27 *134:43 0
39 *115:27 *186:20 0.000623683
40 *115:27 *186:26 2.23987e-05
41 *115:27 *281:36 0.000463402
42 *115:27 *302:20 0.000254867
43 *115:27 *305:10 0.000357783
44 *115:29 *3670:A 0.000230482
45 *115:29 *3681:A 0.000608135
46 *115:29 *3684:A 0.000186247
47 *115:29 *3688:A 0.000655317
48 *115:29 *3708:A 0.000814117
49 *115:29 *3770:A 0.000117621
50 *115:29 *3806:A 0.000244038
51 *115:29 *3813:A 0.000247823
52 *115:29 *259:14 0.000102449
53 *115:29 *259:16 0.00571918
54 *115:29 *325:26 3.98559e-05
55 *115:29 *326:14 0.000375939
56 *115:29 *342:14 9.90431e-05
57 *115:29 *348:14 0.000186669
58 *115:39 *3646:A 0.000142053
59 *115:39 *3657:A 0.000299592
60 *115:39 *3756:A 0.00057215
61 *115:39 *259:14 8.43535e-06
62 *115:39 *325:26 0.000253017
63 *115:41 *3657:A 0.000166679
64 *115:41 *3664:A 0.00010096
65 *115:41 *3686:A 0.000282771
66 *115:41 *3701:A 0.00031848
67 *115:41 *3789:A 0.000517759
68 *115:41 *3827:A 7.79062e-05
69 *115:41 *325:8 0.000332435
70 *115:41 *325:26 3.20262e-05
71 *115:41 *326:14 0.000111084
72 *115:41 *336:36 0.00144941
73 *115:41 *360:20 0.000125105
74 *115:49 *3706:A 0.000119247
75 wbs_dat_o[13] *115:39 0.000129036
76 wbs_dat_o[15] *115:39 0.000617395
77 wbs_dat_o[17] *115:29 0.000234142
78 wbs_dat_o[19] *115:29 0.000307088
79 wbs_dat_o[23] *115:29 0.00023978
80 wbs_dat_o[24] *115:29 0.000428794
81 wbs_dat_o[28] *115:27 4.89167e-05
82 wbs_dat_o[5] *115:41 1.56e-05
83 wbs_dat_o[7] *115:41 8.18783e-05
84 wbs_dat_o[8] *115:41 8.18783e-05
85 wbs_dat_o[9] *115:41 0.000130045
86 *3588:RESET_B *115:49 5.09674e-05
87 *3601:A *115:39 0.000819903
88 *3601:A *115:41 0.000273807
89 *3607:A *115:41 0.000235593
90 *3608:A *115:29 9.02047e-05
91 *3610:A *115:29 0.000125023
92 *3623:A *115:29 9.40156e-05
93 *3626:A *115:29 0.000142856
94 *3634:A *115:41 0.000113043
95 *3635:A *115:41 0.000455042
96 *3636:A *115:41 0.000331931
97 *3640:A *115:41 6.62783e-05
98 *3641:A *428:DIODE 3.06307e-05
99 *3641:A *3561:D 0
100 *3641:A *115:49 6.02251e-05
*RES
1 *3737:DO[11] *115:13 29.2321 
2 *115:13 *115:17 43.1607 
3 *115:17 *115:27 34.1161 
4 *115:27 *115:29 73.2321 
5 *115:29 *115:39 24.3304 
6 *115:39 *115:41 61.9375 
7 *115:41 *115:49 16.1786 
8 *115:49 *3561:D 23.1259 
9 *115:49 *428:DIODE 10.2464 
10 *115:49 *439:DIODE 9.3 
*END

*D_NET *116 0.0462879
*CONN
*I *450:DIODE I *D sky130_fd_sc_hd__diode_2
*I *3562:D I *D sky130_fd_sc_hd__and4b_2
*I *461:DIODE I *D sky130_fd_sc_hd__diode_2
*I *3737:DO[12] O *D CF_SRAM_1024x32
*CAP
1 *450:DIODE 1.68537e-05
2 *3562:D 0.000306447
3 *461:DIODE 0.000316826
4 *3737:DO[12] 0.00063297
5 *116:21 0.000643021
6 *116:19 0.000481741
7 *116:15 0.00365908
8 *116:13 0.00321394
9 *116:11 0.00097764
10 *116:9 0.00161061
11 *450:DIODE *3564:D 9.71197e-05
12 *461:DIODE *3699:A 4.70078e-05
13 *461:DIODE *3778:A 5.17614e-05
14 *461:DIODE *117:21 5.45686e-05
15 *461:DIODE *329:20 0.000204351
16 *461:DIODE *329:26 1.721e-05
17 *461:DIODE *335:12 4.78056e-05
18 *461:DIODE *336:24 1.90936e-05
19 *3562:D *3558:A_N 0
20 *3562:D *3564:D 2.42662e-05
21 *3562:D *366:43 9.6087e-05
22 *3562:D *366:103 0
23 *116:9 *3737:DI[12] 1.05901e-05
24 *116:11 *3737:DI[12] 0.0016149
25 *116:11 *3737:DI[15] 5.01012e-05
26 *116:11 *3737:DI[13] 0.000167075
27 *116:11 *131:25 0.00137125
28 *116:11 *177:24 0.00171654
29 *116:11 *241:106 5.65295e-05
30 *116:11 *244:32 0.000106619
31 *116:11 *244:34 0.00175233
32 *116:15 *119:15 0.000288644
33 *116:15 *123:29 0.000358079
34 *116:15 *128:19 0.00301951
35 *116:15 *138:19 0.000555439
36 *116:15 *140:15 0.00274272
37 *116:15 *143:21 0.000241666
38 *116:15 *143:23 0.0155251
39 *116:15 *188:12 0.00205782
40 *116:19 *3565:D 0.000620607
41 *116:19 *117:21 7.48066e-05
42 *116:19 *312:14 0
43 *116:19 *327:20 1.02969e-05
44 *116:19 *329:26 4.52872e-05
45 *116:19 *370:8 0.000148352
46 *116:19 *370:12 0.000114854
47 *116:21 *117:21 2.7728e-05
48 *116:21 *329:26 2.72545e-05
49 *114:19 *116:15 0.00106541
*RES
1 *3737:DO[12] *116:9 13.5446 
2 *116:9 *116:11 46.875 
3 *116:11 *116:13 4.5 
4 *116:13 *116:15 156.607 
5 *116:15 *116:19 15.5536 
6 *116:19 *116:21 0.732143 
7 *116:21 *461:DIODE 19.4429 
8 *116:21 *3562:D 17.9429 
9 *116:19 *450:DIODE 14.7464 
*END

*D_NET *117 0.0539166
*CONN
*I *469:DIODE I *D sky130_fd_sc_hd__diode_2
*I *3563:D I *D sky130_fd_sc_hd__and4b_2
*I *3737:DO[13] O *D CF_SRAM_1024x32
*CAP
1 *469:DIODE 8.21614e-06
2 *3563:D 3.68777e-05
3 *3737:DO[13] 0.00116719
4 *117:21 0.000575185
5 *117:15 0.00301777
6 *117:13 0.00330596
7 *117:9 0.00198546
8 *469:DIODE *3563:A_N 4.38128e-05
9 *469:DIODE *317:22 5.52302e-05
10 *3563:D *3563:A_N 9.85067e-05
11 *3563:D *317:22 0.000137983
12 *117:9 *3737:DI[13] 0
13 *117:13 *3720:A 0.000503943
14 *117:13 *134:23 0.000183378
15 *117:13 *134:25 5.59013e-05
16 *117:13 *186:20 7.02062e-05
17 *117:13 *186:26 0.00261185
18 *117:13 *219:40 1.84531e-05
19 *117:13 *219:42 7.46379e-05
20 *117:13 *270:38 0.00259819
21 *117:13 *302:20 9.44259e-05
22 *117:15 *119:15 0.0158776
23 *117:15 *143:21 0.00102352
24 *117:15 *143:23 5.97398e-05
25 *117:15 *144:15 0.0163633
26 *117:21 *3565:D 0.000595713
27 *117:21 *3699:A 0.000108803
28 *117:21 *327:43 0
29 *117:21 *337:18 2.21972e-05
30 *117:21 *366:32 0.000159341
31 *117:21 *369:12 0
32 *461:DIODE *117:21 5.45686e-05
33 *3560:D *117:21 0
34 *114:19 *117:15 0.00290618
35 *114:19 *117:21 0
36 *116:19 *117:21 7.48066e-05
37 *116:21 *117:21 2.7728e-05
*RES
1 *3737:DO[13] *117:9 18.8661 
2 *117:9 *117:13 42.5714 
3 *117:13 *117:15 161.125 
4 *117:15 *117:21 21.2679 
5 *117:21 *3563:D 10.6571 
6 *117:21 *469:DIODE 9.83571 
*END

*D_NET *118 0.0516495
*CONN
*I *3564:D I *D sky130_fd_sc_hd__and4b_2
*I *3737:DO[14] O *D CF_SRAM_1024x32
*CAP
1 *3564:D 0.000274954
2 *3737:DO[14] 0.00138542
3 *118:49 0.00194009
4 *118:31 0.00227468
5 *118:21 0.00154651
6 *118:19 0.00306362
7 *118:11 0.00351207
8 *3564:D *463:DIODE 0.000563315
9 *3564:D *3558:B 5.52302e-05
10 *3564:D *3558:D 4.18895e-05
11 *3564:D *3560:B 3.47641e-06
12 *3564:D *3564:B 5.33005e-05
13 *3564:D *334:28 1.55885e-05
14 *3564:D *336:24 2.79421e-05
15 *3564:D *366:43 0.000180777
16 *3564:D *366:90 2.89114e-05
17 *3564:D *366:103 2.28499e-05
18 *3564:D *368:67 7.69776e-06
19 *3564:D *370:16 0.000124521
20 *3564:D *370:38 1.54142e-05
21 *3564:D *370:52 7.69776e-06
22 *118:11 *3737:DI[14] 7.30109e-05
23 *118:11 *3737:vpwrpc 0.000331525
24 *118:11 *219:42 0.00198503
25 *118:11 *241:84 5.33005e-05
26 *118:11 *258:30 0.00198503
27 *118:11 *350:58 1.33425e-05
28 *118:19 *393:DIODE 0
29 *118:19 *3720:A 0.00174127
30 *118:19 *3737:vpwrpc 0.000129372
31 *118:19 *3813:A 0
32 *118:19 *126:27 0.000660415
33 *118:19 *128:19 0
34 *118:19 *162:12 0.000506693
35 *118:19 *162:24 0.00291753
36 *118:19 *171:12 0.000496669
37 *118:19 *171:16 0.000396286
38 *118:19 *177:12 7.58516e-05
39 *118:19 *177:16 0.000378587
40 *118:19 *317:38 0.000292738
41 *118:21 *317:32 0.00582024
42 *118:21 *339:26 0.00582408
43 *118:21 *361:14 0.000499401
44 *118:31 *3722:A 6.23315e-05
45 *118:31 *142:19 0.000213364
46 *118:31 *145:22 0
47 *118:31 *318:8 4.61034e-05
48 *118:31 *318:16 0.00240482
49 *118:31 *367:56 2.14658e-05
50 *118:31 *371:51 0.00247011
51 *118:49 *459:DIODE 0.000357952
52 *118:49 *3557:B 6.60028e-05
53 *118:49 *3557:D 2.3541e-05
54 *118:49 *3582:B 5.71472e-05
55 *118:49 *3583:A_N 5.49544e-05
56 *118:49 *3583:D 0.000190372
57 *118:49 *3585:D 2.524e-05
58 *118:49 *3587:D 0.000132867
59 *118:49 *3823:A 5.52238e-05
60 *118:49 *142:19 0.000254735
61 *118:49 *145:22 0.0016603
62 *118:49 *318:8 0.00213715
63 *118:49 *331:12 5.49489e-05
64 *118:49 *339:20 0
65 *118:49 *343:24 0.000260574
66 *118:49 *363:28 0.000306317
67 *118:49 *364:30 0.00010629
68 *118:49 *366:116 0.000220333
69 *118:49 *366:136 0.000206737
70 *118:49 *366:151 0.000232614
71 *118:49 *368:88 0.000314112
72 *118:49 *369:35 6.00726e-05
73 *118:49 *369:44 7.92229e-06
74 *118:49 *371:51 1.59373e-05
75 *450:DIODE *3564:D 9.71197e-05
76 *3562:D *3564:D 2.42662e-05
77 *3582:D *118:49 6.67396e-05
78 *3621:A *118:49 6.53397e-05
79 *111:10 *118:31 0
80 *113:43 *118:49 3.9846e-05
81 *113:55 *118:49 1.02936e-05
*RES
1 *3737:DO[14] *118:11 45.4636 
2 *118:11 *118:19 30.2325 
3 *118:19 *118:21 55.5714 
4 *118:21 *118:31 36.125 
5 *118:31 *118:49 49.3288 
6 *118:49 *3564:D 25.4154 
*END

*D_NET *119 0.0441462
*CONN
*I *3565:D I *D sky130_fd_sc_hd__and4b_2
*I *3737:DO[15] O *D CF_SRAM_1024x32
*CAP
1 *3565:D 0.000195826
2 *3737:DO[15] 0.000710271
3 *119:15 0.00231701
4 *119:13 0.00283146
5 *119:13 *3737:DI[15] 0
6 *119:13 *124:11 0.00100841
7 *119:13 *126:21 0.000197779
8 *119:13 *131:31 0
9 *119:13 *146:26 6.94038e-05
10 *119:13 *151:40 6.05161e-06
11 *119:13 *199:22 0.00127204
12 *119:13 *339:42 0.000161068
13 *119:15 *138:19 0.00242184
14 *119:15 *143:23 0.0153966
15 *114:19 *119:15 0.000175894
16 *116:15 *119:15 0.000288644
17 *116:19 *3565:D 0.000620607
18 *117:15 *119:15 0.0158776
19 *117:21 *3565:D 0.000595713
*RES
1 *3737:DO[15] *119:13 30.5804 
2 *119:13 *119:15 150.446 
3 *119:15 *3565:D 26.3179 
*END

*D_NET *120 0.0589598
*CONN
*I *3566:D I *D sky130_fd_sc_hd__and4b_1
*I *472:DIODE I *D sky130_fd_sc_hd__diode_2
*I *3737:DO[16] O *D CF_SRAM_1024x32
*CAP
1 *3566:D 0.000131415
2 *472:DIODE 0
3 *3737:DO[16] 0.00177142
4 *120:46 0.000387858
5 *120:42 0.0018076
6 *120:40 0.001872
7 *120:30 0.00299907
8 *120:18 0.0108294
9 *120:16 0.00991745
10 *120:4 5.12883e-06
11 *3566:D *367:68 0.000104521
12 *3566:D *369:51 2.02681e-05
13 *3566:D *371:51 4.60153e-05
14 *3566:D *371:69 5.49544e-05
15 *120:16 *3737:ScanInDR 0.000594395
16 *120:16 *3737:DI[16] 0.000503458
17 *120:18 *121:22 0.00596841
18 *120:18 *356:18 0
19 *120:30 *3577:A_N 0.000435839
20 *120:30 *3577:B 2.13481e-06
21 *120:30 *3577:D 1.21258e-05
22 *120:30 *3815:A 0.000392026
23 *120:30 *3817:A 0.000857943
24 *120:30 *131:56 8.6229e-06
25 *120:30 *131:58 0.000115935
26 *120:30 *131:60 0.000127004
27 *120:30 *139:29 0.000300693
28 *120:30 *159:40 0.000102882
29 *120:30 *281:30 0.000311957
30 *120:40 *304:10 8.42734e-05
31 *120:40 *306:14 0.000824238
32 *120:40 *361:14 0.000807746
33 *120:42 *3812:A 0.00127372
34 *120:42 *121:40 0.00243733
35 *120:42 *320:16 0.00187726
36 *120:42 *341:20 0.00090369
37 *120:42 *350:30 0.00435788
38 *120:42 *350:42 0.000359669
39 *120:42 *372:14 0.000555946
40 *120:46 *321:22 0.000321926
41 *120:46 *337:40 0
42 wbs_dat_o[22] *120:42 9.2924e-05
43 *114:11 *120:18 0.0053827
*RES
1 *3737:DO[16] *120:4 0.142857 
2 *3737:DO[16] *120:16 35.9821 
3 *120:16 *120:18 207.464 
4 *120:18 *120:30 46.9732 
5 *120:30 *120:40 13.8517 
6 *120:40 *120:42 64.1964 
7 *120:42 *120:46 8.875 
8 *120:46 *472:DIODE 13.8 
9 *120:46 *3566:D 16.6259 
*END

*D_NET *121 0.0642963
*CONN
*I *3567:D I *D sky130_fd_sc_hd__and4b_1
*I *385:DIODE I *D sky130_fd_sc_hd__diode_2
*I *386:DIODE I *D sky130_fd_sc_hd__diode_2
*I *3737:DO[17] O *D CF_SRAM_1024x32
*CAP
1 *3567:D 7.45317e-05
2 *385:DIODE 6.59684e-05
3 *386:DIODE 0
4 *3737:DO[17] 0.00171502
5 *121:55 0.000321158
6 *121:46 0.00125079
7 *121:40 0.00306577
8 *121:32 0.00407326
9 *121:22 0.00780956
10 *121:20 0.00743857
11 *121:4 8.39453e-06
12 *385:DIODE *338:16 9.90367e-05
13 *3567:D *145:51 0.000198574
14 *3567:D *192:20 0
15 *3567:D *338:16 0.000198574
16 *3567:D *367:68 7.98428e-06
17 *3567:D *367:84 8.6229e-06
18 *121:20 *3737:WLBI 0.000700799
19 *121:20 *3737:TM 0.000958174
20 *121:20 *3737:DI[17] 3.30237e-05
21 *121:22 *137:13 0
22 *121:22 *311:10 0.0133358
23 *121:22 *314:10 0.000404901
24 *121:22 *356:18 0
25 *121:32 *410:DIODE 4.68186e-05
26 *121:32 *3611:A 0.000230053
27 *121:32 *3710:A 5.33005e-05
28 *121:32 *3773:A 0.000183477
29 *121:32 *3819:A 0.000153773
30 *121:32 *303:16 0.000406249
31 *121:40 *3647:A 1.89023e-05
32 *121:40 *3649:A 1.6557e-05
33 *121:40 *3692:A 7.72783e-05
34 *121:40 *3767:A 5.62995e-05
35 *121:40 *303:16 2.13481e-06
36 *121:40 *350:42 2.99593e-05
37 *121:40 *372:14 0.000345474
38 *121:46 *192:20 0
39 *121:46 *203:8 2.12005e-05
40 *121:46 *322:18 0.00204114
41 *121:46 *340:16 0
42 *121:46 *350:30 0.00349055
43 *121:46 *372:14 0.000274338
44 *121:55 *340:16 0
45 *121:55 *367:68 2.8266e-06
46 wbs_dat_o[26] *121:32 0.000136682
47 wbs_dat_o[29] *121:32 0.000614033
48 *113:11 *121:22 0
49 *113:29 *121:32 0.00053823
50 *114:11 *121:22 0.0053827
51 *120:18 *121:22 0.00596841
52 *120:42 *121:40 0.00243733
*RES
1 *3737:DO[17] *121:4 0.160714 
2 *3737:DO[17] *121:20 35.7143 
3 *121:20 *121:22 222.036 
4 *121:22 *121:32 41.9464 
5 *121:32 *121:40 37.6786 
6 *121:40 *121:46 39.8393 
7 *121:46 *386:DIODE 13.8 
8 *121:46 *121:55 2.55357 
9 *121:55 *385:DIODE 14.7464 
10 *121:55 *3567:D 16.4116 
*END

*D_NET *122 0.0741857
*CONN
*I *3568:D I *D sky130_fd_sc_hd__and4b_1
*I *387:DIODE I *D sky130_fd_sc_hd__diode_2
*I *3737:DO[18] O *D CF_SRAM_1024x32
*CAP
1 *3568:D 0.000266187
2 *387:DIODE 0
3 *3737:DO[18] 0.00288825
4 *122:29 0.00479402
5 *122:21 0.0175868
6 *122:17 0.0159472
7 *3568:D *338:16 0.000226867
8 *3568:D *369:65 1.61783e-05
9 *122:17 *3737:DI[18] 9.90367e-05
10 *122:17 *248:39 1.94879e-05
11 *122:21 *137:13 0.00408119
12 *122:21 *139:11 0.00205244
13 *122:21 *142:11 0.000997457
14 *122:21 *144:11 0.00118245
15 *122:21 *145:79 0.00192277
16 *122:21 *182:16 0.00148149
17 *122:21 *188:16 0.00119489
18 *122:21 *313:10 0.00160117
19 *122:21 *314:10 0.00154041
20 *122:29 *142:19 0.00921611
21 *122:29 *145:73 0.00153033
22 *122:29 *192:20 0
23 *122:29 *306:14 1.4179e-05
24 *122:29 *361:14 0.00196503
25 *122:29 *367:146 0.000104716
26 *122:29 *367:172 0.000118855
27 *122:29 *372:14 0
28 *113:11 *122:21 0.00283221
29 *113:29 *122:29 0.000505873
*RES
1 *3737:DO[18] *122:17 17.9145 
2 *122:17 *122:21 43.3005 
3 *122:21 *122:29 23.4038 
4 *122:29 *387:DIODE 9.3 
5 *122:29 *3568:D 13.5902 
*END

*D_NET *123 0.0635637
*CONN
*I *3569:D I *D sky130_fd_sc_hd__and4b_1
*I *388:DIODE I *D sky130_fd_sc_hd__diode_2
*I *3737:DO[19] O *D CF_SRAM_1024x32
*CAP
1 *3569:D 1.99247e-05
2 *388:DIODE 5.78817e-05
3 *3737:DO[19] 0.0004856
4 *123:29 0.0026678
5 *123:21 0.011261
6 *123:17 0.0091566
7 *388:DIODE *367:103 5.71472e-05
8 *388:DIODE *367:113 0.000147436
9 *388:DIODE *371:88 0.000169205
10 *388:DIODE *371:99 1.69961e-05
11 *3569:D *367:113 2.6869e-05
12 *3569:D *371:99 6.44047e-05
13 *123:17 *3737:DI[19] 2.72859e-05
14 *123:17 *248:51 1.94879e-05
15 *123:21 *3737:DI[8] 0.00026857
16 *123:21 *125:21 0.0190711
17 *123:21 *130:19 4.53109e-06
18 *123:21 *138:11 0.00195824
19 *123:21 *155:10 0.00130236
20 *123:21 *162:24 0.00131321
21 *123:21 *173:18 0.00104578
22 *123:21 *201:10 0.00195392
23 *123:29 *3720:A 1.71876e-05
24 *123:29 *125:29 0.00531697
25 *123:29 *128:19 0.000386123
26 *123:29 *138:19 0.00622004
27 *123:29 *139:39 1.0562e-05
28 *123:29 *173:12 0
29 *123:29 *182:10 0
30 *123:29 *184:10 5.75645e-05
31 *123:29 *188:12 0.000101825
32 *116:15 *123:29 0.000358079
*RES
1 *3737:DO[19] *123:17 14.0064 
2 *123:17 *123:21 42.7678 
3 *123:21 *123:29 28.3923 
4 *123:29 *388:DIODE 12.4607 
5 *123:29 *3569:D 9.94732 
*END

*D_NET *124 0.0671949
*CONN
*I *389:DIODE I *D sky130_fd_sc_hd__diode_2
*I *3583:D I *D sky130_fd_sc_hd__and4b_1
*I *3737:DO[1] O *D CF_SRAM_1024x32
*CAP
1 *389:DIODE 0
2 *3583:D 0.000343755
3 *3737:DO[1] 0.000223361
4 *124:23 0.00164547
5 *124:15 0.00309611
6 *124:13 0.0017944
7 *124:11 0.00228508
8 *124:9 0.00250844
9 *3583:D *457:DIODE 4.62055e-05
10 *3583:D *138:19 1.89507e-06
11 *3583:D *360:20 0.000177815
12 *3583:D *366:136 9.41642e-05
13 *3583:D *366:151 0.000111487
14 *124:9 *3737:DI[1] 0
15 *124:11 *127:21 0.00234665
16 *124:11 *132:11 8.13599e-05
17 *124:11 *146:26 1.95625e-05
18 *124:11 *146:28 2.14474e-05
19 *124:11 *151:42 0.01012
20 *124:11 *157:16 0.0118195
21 *124:11 *195:26 0.000801008
22 *124:11 *199:22 2.14474e-05
23 *124:15 *127:27 0.000770545
24 *124:15 *135:13 0.0132425
25 *124:15 *141:15 0.0138012
26 *124:15 *157:12 0.000104516
27 *124:15 *173:14 6.34436e-05
28 *124:23 *3583:B 0.000228377
29 *124:23 *3824:A 4.76642e-05
30 *124:23 *138:19 0
31 *124:23 *145:22 8.6229e-06
32 *124:23 *360:20 8.33813e-05
33 *124:23 *371:23 8.67459e-05
34 *118:49 *3583:D 0.000190372
35 *119:13 *124:11 0.00100841
*RES
1 *3737:DO[1] *124:9 8.09821 
2 *124:9 *124:11 148.875 
3 *124:11 *124:13 4.5 
4 *124:13 *124:15 131.143 
5 *124:15 *124:23 27.6786 
6 *124:23 *3583:D 23.7777 
7 *124:23 *389:DIODE 9.3 
*END

*D_NET *125 0.0714351
*CONN
*I *3570:D I *D sky130_fd_sc_hd__and4b_1
*I *390:DIODE I *D sky130_fd_sc_hd__diode_2
*I *3737:DO[20] O *D CF_SRAM_1024x32
*CAP
1 *3570:D 1.16681e-05
2 *390:DIODE 5.60873e-05
3 *3737:DO[20] 0.00043325
4 *125:29 0.00213788
5 *125:21 0.0058828
6 *125:17 0.00424593
7 *390:DIODE *367:128 0.000228791
8 *390:DIODE *369:72 0.000230155
9 *390:DIODE *371:99 2.2351e-05
10 *3570:D *367:128 1.19057e-05
11 *125:17 *3737:DI[20] 0
12 *125:17 *248:63 1.94879e-05
13 *125:21 *126:21 0.000150289
14 *125:21 *127:21 0.0195054
15 *125:21 *130:19 1.49122e-05
16 *125:21 *132:11 0.00331748
17 *125:21 *133:11 0.00222855
18 *125:21 *146:26 0.000280169
19 *125:21 *184:16 0.00166079
20 *125:29 *3667:A 0
21 *125:29 *3720:A 5.60535e-05
22 *125:29 *126:27 0.00434364
23 *125:29 *140:15 0.000912729
24 *125:29 *182:12 0.000157397
25 *125:29 *188:12 0.000838652
26 *125:29 *199:12 0.000136825
27 *125:29 *241:24 5.05163e-05
28 *125:29 *369:86 0.00011333
29 *123:21 *125:21 0.0190711
30 *123:29 *125:29 0.00531697
*RES
1 *3737:DO[20] *125:17 14.4872 
2 *125:17 *125:21 44.2593 
3 *125:21 *125:29 27.2546 
4 *125:29 *390:DIODE 11.8893 
5 *125:29 *3570:D 9.53661 
*END

*D_NET *126 0.0692697
*CONN
*I *3571:D I *D sky130_fd_sc_hd__and4b_1
*I *391:DIODE I *D sky130_fd_sc_hd__diode_2
*I *3737:DO[21] O *D CF_SRAM_1024x32
*CAP
1 *3571:D 9.02879e-06
2 *391:DIODE 0.000307713
3 *3737:DO[21] 0.000277257
4 *126:27 0.00270729
5 *126:21 0.00627753
6 *126:17 0.00416424
7 *391:DIODE *339:26 0.000186662
8 *391:DIODE *342:14 0.000183348
9 *3571:D *367:137 2.3541e-05
10 *3571:D *371:125 1.14548e-05
11 *126:17 *3737:DI[21] 0
12 *126:17 *248:75 1.94879e-05
13 *126:21 *127:21 0.0203369
14 *126:21 *130:19 0.0206125
15 *126:21 *146:28 0.00299378
16 *126:21 *151:42 0.00222144
17 *126:21 *195:26 0.0012529
18 *126:21 *199:22 0.000176806
19 *126:27 *3652:A 0
20 *126:27 *3720:A 0.000344975
21 *126:27 *127:27 0
22 *126:27 *162:24 9.77021e-06
23 *126:27 *170:63 3.2534e-05
24 *126:27 *182:12 0.00069567
25 *126:27 *199:12 0.000750155
26 *126:27 *317:42 0.000209244
27 *126:27 *369:86 0.00011333
28 *118:19 *126:27 0.000660415
29 *119:13 *126:21 0.000197779
30 *125:21 *126:21 0.000150289
31 *125:29 *126:27 0.00434364
*RES
1 *3737:DO[21] *126:17 14.2168 
2 *126:17 *126:21 45.8573 
3 *126:21 *126:27 22.4554 
4 *126:27 *391:DIODE 18.7286 
5 *126:27 *3571:D 14.0366 
*END

*D_NET *127 0.0667767
*CONN
*I *3572:D I *D sky130_fd_sc_hd__and4b_1
*I *392:DIODE I *D sky130_fd_sc_hd__diode_2
*I *3737:DO[22] O *D CF_SRAM_1024x32
*CAP
1 *3572:D 1.56337e-05
2 *392:DIODE 0.000210828
3 *3737:DO[22] 0.000334663
4 *127:27 0.00259487
5 *127:21 0.00652154
6 *127:17 0.0044878
7 *392:DIODE *3812:A 1.89507e-06
8 *392:DIODE *367:137 5.49489e-05
9 *392:DIODE *367:146 0.000171041
10 *3572:D *367:146 6.71359e-05
11 *3572:D *371:132 3.55505e-05
12 *127:17 *3737:BEN[22] 1.94879e-05
13 *127:17 *3737:DI[22] 0
14 *127:21 *130:19 0.00044748
15 *127:21 *157:16 0.00259231
16 *127:27 *3649:A 0
17 *127:27 *3737:vpwrpc 0.00213217
18 *127:27 *3737:vpwrac 9.67558e-05
19 *127:27 *135:13 0.000287823
20 *127:27 *141:15 0.000706795
21 *127:27 *149:10 0
22 *127:27 *157:12 0.000250204
23 *127:27 *162:24 0.000514688
24 *127:27 *173:14 0.000350335
25 *127:27 *184:12 0.000192251
26 *127:27 *241:48 0.00173096
27 *124:11 *127:21 0.00234665
28 *124:15 *127:27 0.000770545
29 *125:21 *127:21 0.0195054
30 *126:21 *127:21 0.0203369
31 *126:27 *127:27 0
*RES
1 *3737:DO[22] *127:17 14.3788 
2 *127:17 *127:21 46.9226 
3 *127:21 *127:27 25.0894 
4 *127:27 *392:DIODE 16.7107 
5 *127:27 *3572:D 14.4473 
*END

*D_NET *128 0.0580667
*CONN
*I *3573:D I *D sky130_fd_sc_hd__and4b_1
*I *393:DIODE I *D sky130_fd_sc_hd__diode_2
*I *3737:DO[23] O *D CF_SRAM_1024x32
*CAP
1 *3573:D 4.19175e-05
2 *393:DIODE 0.000312952
3 *3737:DO[23] 0.000429532
4 *128:19 0.00160853
5 *128:11 0.00610819
6 *128:9 0.00528406
7 *393:DIODE *3813:A 0
8 *393:DIODE *145:73 4.60513e-05
9 *393:DIODE *339:26 0.00014285
10 *3573:D *367:159 2.524e-05
11 *3573:D *371:139 1.40749e-05
12 *128:9 *3737:BEN[23] 0
13 *128:9 *3737:DI[23] 0
14 *128:11 *3737:DI[8] 4.96531e-05
15 *128:11 *129:11 1.98218e-05
16 *128:11 *131:11 0.0189273
17 *128:11 *132:19 0.00144393
18 *128:11 *132:25 0.000322184
19 *128:11 *151:40 0.00142421
20 *128:11 *155:10 0.00205237
21 *128:11 *162:26 0.0044293
22 *128:11 *173:18 1.4396e-05
23 *128:11 *201:10 0.00129618
24 *128:11 *226:10 0.00742541
25 *128:19 *145:73 1.0945e-05
26 *128:19 *149:10 0
27 *128:19 *177:12 0.000214484
28 *128:19 *188:12 0.00301744
29 *116:15 *128:19 0.00301951
30 *118:19 *393:DIODE 0
31 *118:19 *128:19 0
32 *123:29 *128:19 0.000386123
*RES
1 *3737:DO[23] *128:9 11.8571 
2 *128:9 *128:11 262.107 
3 *128:11 *128:19 49.2321 
4 *128:19 *393:DIODE 18.3179 
5 *128:19 *3573:D 14.5723 
*END

*D_NET *129 0.0605942
*CONN
*I *402:DIODE I *D sky130_fd_sc_hd__diode_2
*I *404:DIODE I *D sky130_fd_sc_hd__diode_2
*I *400:DIODE I *D sky130_fd_sc_hd__diode_2
*I *398:DIODE I *D sky130_fd_sc_hd__diode_2
*I *396:DIODE I *D sky130_fd_sc_hd__diode_2
*I *394:DIODE I *D sky130_fd_sc_hd__diode_2
*I *397:DIODE I *D sky130_fd_sc_hd__diode_2
*I *399:DIODE I *D sky130_fd_sc_hd__diode_2
*I *401:DIODE I *D sky130_fd_sc_hd__diode_2
*I *403:DIODE I *D sky130_fd_sc_hd__diode_2
*I *3574:D I *D sky130_fd_sc_hd__and4b_1
*I *3737:DO[24] O *D CF_SRAM_1024x32
*CAP
1 *402:DIODE 0
2 *404:DIODE 0
3 *400:DIODE 4.39543e-05
4 *398:DIODE 0
5 *396:DIODE 0
6 *394:DIODE 0
7 *397:DIODE 0
8 *399:DIODE 0
9 *401:DIODE 0
10 *403:DIODE 3.28401e-05
11 *3574:D 0.000246271
12 *3737:DO[24] 0.000329878
13 *129:105 8.08909e-05
14 *129:52 0.000206101
15 *129:50 0.000223958
16 *129:48 0.000260431
17 *129:42 0.000482259
18 *129:40 0.000429426
19 *129:36 0.000245897
20 *129:21 0.000517842
21 *129:19 0.000305742
22 *129:15 0.00189676
23 *129:11 0.00797015
24 *129:9 0.00648949
25 *400:DIODE *153:8 9.74665e-05
26 *403:DIODE *3813:A 3.84349e-05
27 *3574:D *241:48 0
28 *3574:D *339:42 0
29 *3574:D *369:113 3.23542e-05
30 *3574:D *371:153 2.53281e-05
31 *129:9 *3737:DI[24] 0.000255094
32 *129:11 *3737:BEN[8] 0.000744764
33 *129:11 *3737:DI[14] 1.94945e-05
34 *129:11 *3737:DI[15] 0.00136719
35 *129:11 *3737:DI[13] 4.08956e-05
36 *129:11 *131:11 0.0197738
37 *129:11 *132:19 0.00145467
38 *129:11 *132:25 0.000543781
39 *129:11 *197:10 0.00183341
40 *129:11 *204:10 0.000268094
41 *129:11 *212:10 0
42 *129:11 *234:10 0.00802334
43 *129:11 *241:84 0.000595601
44 *129:11 *241:94 0.000811903
45 *129:11 *241:106 0.00077259
46 *129:11 *241:134 5.39655e-05
47 *129:11 *241:146 0.000670487
48 *129:11 *244:34 0
49 *129:11 *350:58 0.000810783
50 *129:15 *409:DIODE 4.96113e-05
51 *129:15 *131:31 0.000180986
52 *129:15 *131:33 5.62995e-05
53 *129:15 *131:35 4.87953e-05
54 *129:15 *132:25 0.00016968
55 *129:15 *132:27 5.33334e-05
56 *129:15 *132:29 5.33433e-05
57 *129:15 *146:18 0.000203224
58 *129:15 *186:10 0.000541912
59 *129:15 *292:16 1.59373e-05
60 *129:19 *166:24 3.47641e-06
61 *129:19 *241:48 0
62 *129:19 *317:38 0
63 *129:21 *151:32 3.37593e-05
64 *129:21 *170:77 0
65 *129:21 *241:48 0
66 *129:36 *170:85 0.0001839
67 *129:40 *317:38 0
68 *129:40 *329:77 1.89507e-06
69 *129:40 *371:153 4.6025e-06
70 *129:42 *3813:A 2.53281e-05
71 *129:42 *317:38 0
72 *129:42 *339:42 7.14196e-06
73 *129:42 *369:113 7.65336e-06
74 *129:42 *371:153 4.02873e-05
75 *129:48 *3766:A 0
76 *129:48 *3813:A 5.85978e-05
77 *129:48 *339:42 1.60978e-05
78 *129:50 *3813:A 5.52302e-05
79 *129:52 *3813:A 8.75372e-05
80 *129:52 *281:20 7.54868e-05
81 *129:105 *153:8 9.87617e-05
82 wbs_dat_o[22] *403:DIODE 7.85137e-05
83 wbs_dat_o[22] *129:48 1.00332e-05
84 wbs_dat_o[22] *129:50 0.000124869
85 wbs_dat_o[22] *129:52 0.000292683
86 *128:11 *129:11 1.98218e-05
*RES
1 *3737:DO[24] *129:9 11.7857 
2 *129:9 *129:11 275.768 
3 *129:11 *129:15 28.0357 
4 *129:15 *129:19 5.53571 
5 *129:19 *129:21 2.85714 
6 *129:21 *3574:D 18.108 
7 *129:21 *129:36 6.26786 
8 *129:36 *129:40 7.35714 
9 *129:40 *129:42 4.07143 
10 *129:42 *129:48 3.51786 
11 *129:48 *129:50 1.64286 
12 *129:50 *129:52 4.07143 
13 *129:52 *403:DIODE 14.8357 
14 *129:52 *401:DIODE 13.8 
15 *129:50 *399:DIODE 13.8 
16 *129:48 *397:DIODE 13.8 
17 *129:42 *394:DIODE 13.8 
18 *129:40 *396:DIODE 13.8 
19 *129:36 *398:DIODE 9.3 
20 *129:19 *129:105 5.44643 
21 *129:105 *400:DIODE 10.2464 
22 *129:105 *404:DIODE 9.3 
23 *129:15 *402:DIODE 9.3 
*END

*D_NET *130 0.0598631
*CONN
*I *3575:D I *D sky130_fd_sc_hd__and4b_1
*I *3737:DO[25] O *D CF_SRAM_1024x32
*CAP
1 *3575:D 0.0011603
2 *3737:DO[25] 0.000204982
3 *130:19 0.0132323
4 *130:17 0.0122769
5 *3575:D *3576:A_N 0.00017827
6 *3575:D *3577:A_N 2.3541e-05
7 *3575:D *139:29 6.21521e-06
8 *3575:D *146:18 0.00124297
9 *3575:D *219:28 0
10 *3575:D *329:77 0.000295151
11 *3575:D *348:14 1.40749e-05
12 *3575:D *350:42 0
13 *130:17 *3737:BEN[24] 0
14 *130:17 *3737:BEN[25] 1.94879e-05
15 *130:17 *3737:DI[25] 0
16 *130:19 *3737:BEN[23] 0.000269784
17 *130:19 *3737:BEN[0] 0.000280835
18 *130:19 *3737:BEN[1] 0.000200343
19 *130:19 *135:9 0.00388336
20 *130:19 *141:11 0.00173316
21 *130:19 *166:24 0.000351606
22 *130:19 *199:24 0.00138297
23 *130:19 *241:48 0.000681354
24 *130:19 *241:134 0.000418105
25 *130:19 *244:106 0.000200343
26 *130:19 *248:51 0.000206726
27 *130:19 *350:58 0.000520839
28 *123:21 *130:19 4.53109e-06
29 *125:21 *130:19 1.49122e-05
30 *126:21 *130:19 0.0206125
31 *127:21 *130:19 0.00044748
*RES
1 *3737:DO[25] *130:17 14.1441 
2 *130:17 *130:19 50.1177 
3 *130:19 *3575:D 30.1444 
*END

*D_NET *131 0.0658586
*CONN
*I *411:DIODE I *D sky130_fd_sc_hd__diode_2
*I *413:DIODE I *D sky130_fd_sc_hd__diode_2
*I *415:DIODE I *D sky130_fd_sc_hd__diode_2
*I *409:DIODE I *D sky130_fd_sc_hd__diode_2
*I *407:DIODE I *D sky130_fd_sc_hd__diode_2
*I *405:DIODE I *D sky130_fd_sc_hd__diode_2
*I *408:DIODE I *D sky130_fd_sc_hd__diode_2
*I *410:DIODE I *D sky130_fd_sc_hd__diode_2
*I *412:DIODE I *D sky130_fd_sc_hd__diode_2
*I *414:DIODE I *D sky130_fd_sc_hd__diode_2
*I *416:DIODE I *D sky130_fd_sc_hd__diode_2
*I *3576:D I *D sky130_fd_sc_hd__and4b_1
*I *3737:DO[26] O *D CF_SRAM_1024x32
*CAP
1 *411:DIODE 0
2 *413:DIODE 0
3 *415:DIODE 0
4 *409:DIODE 2.73394e-05
5 *407:DIODE 2.26156e-05
6 *405:DIODE 3.31238e-05
7 *408:DIODE 0.000125074
8 *410:DIODE 0.000140365
9 *412:DIODE 0.000178539
10 *414:DIODE 0.000197305
11 *416:DIODE 0.000324985
12 *3576:D 0
13 *3737:DO[26] 0.000453183
14 *131:68 0.000636048
15 *131:66 0.000546636
16 *131:60 0.000549117
17 *131:58 0.000371319
18 *131:56 0.000295801
19 *131:45 0.000373779
20 *131:39 0.000353719
21 *131:35 0.00018324
22 *131:33 4.05481e-05
23 *131:31 0.000752328
24 *131:25 0.00156403
25 *131:11 0.0064763
26 *131:9 0.00610496
27 *405:DIODE *3577:A_N 0.0001839
28 *405:DIODE *3815:A 0.0001839
29 *407:DIODE *151:32 9.66977e-05
30 *407:DIODE *327:61 9.66977e-05
31 *408:DIODE *258:28 0.0001839
32 *409:DIODE *186:10 9.66977e-05
33 *412:DIODE *302:6 0.000271526
34 *414:DIODE *270:28 0.000140029
35 *416:DIODE *3768:A 3.10819e-05
36 *416:DIODE *159:40 7.46461e-05
37 *416:DIODE *259:16 0.000273449
38 *131:9 *3737:DI[26] 0
39 *131:9 *251:41 1.05901e-05
40 *131:11 *155:10 0
41 *131:25 *3737:DI[13] 0.00137125
42 *131:25 *132:19 6.05161e-06
43 *131:25 *177:24 3.69047e-06
44 *131:25 *184:12 0.000382744
45 *131:25 *241:84 2.59355e-05
46 *131:25 *303:34 0.00011163
47 *131:31 *132:33 3.47641e-06
48 *131:31 *135:9 7.25338e-05
49 *131:31 *141:11 9.20464e-06
50 *131:31 *186:10 0.000338297
51 *131:31 *199:22 0
52 *131:31 *259:22 0.000229159
53 *131:31 *339:42 0
54 *131:33 *186:10 8.76257e-05
55 *131:35 *186:10 8.36572e-05
56 *131:39 *328:32 0.000162962
57 *131:45 *164:12 2.6869e-05
58 *131:45 *219:40 0.000108811
59 *131:45 *328:32 0.000238623
60 *131:56 *159:40 4.52775e-05
61 *131:56 *369:137 9.23883e-05
62 *131:60 *159:40 1.15058e-05
63 *131:66 *159:40 9.83389e-05
64 *131:68 *3768:A 6.2824e-05
65 *131:68 *159:40 0.000185763
66 *116:11 *131:25 0.00137125
67 *119:13 *131:31 0
68 *120:30 *131:56 8.6229e-06
69 *120:30 *131:58 0.000115935
70 *120:30 *131:60 0.000127004
71 *121:32 *410:DIODE 4.68186e-05
72 *128:11 *131:11 0.0189273
73 *129:11 *131:11 0.0197738
74 *129:15 *409:DIODE 4.96113e-05
75 *129:15 *131:31 0.000180986
76 *129:15 *131:33 5.62995e-05
77 *129:15 *131:35 4.87953e-05
*RES
1 *3737:DO[26] *131:9 12.3214 
2 *131:9 *131:11 268.179 
3 *131:11 *131:25 44.4107 
4 *131:25 *131:31 17.75 
5 *131:31 *131:33 0.946429 
6 *131:33 *131:35 0.946429 
7 *131:35 *131:39 6.75 
8 *131:39 *131:45 8.41518 
9 *131:45 *3576:D 9.3 
10 *131:45 *131:56 7.35714 
11 *131:56 *131:58 1.64286 
12 *131:58 *131:60 2.55357 
13 *131:60 *131:66 3.625 
14 *131:66 *131:68 2.55357 
15 *131:68 *416:DIODE 18.9429 
16 *131:68 *414:DIODE 16.3893 
17 *131:66 *412:DIODE 16.3893 
18 *131:60 *410:DIODE 15.5679 
19 *131:58 *408:DIODE 15.5679 
20 *131:56 *405:DIODE 15.5679 
21 *131:39 *407:DIODE 14.7464 
22 *131:35 *409:DIODE 10.2464 
23 *131:35 *415:DIODE 9.3 
24 *131:33 *413:DIODE 9.3 
25 *131:31 *411:DIODE 9.3 
*END

*D_NET *132 0.0628563
*CONN
*I *429:DIODE I *D sky130_fd_sc_hd__diode_2
*I *425:DIODE I *D sky130_fd_sc_hd__diode_2
*I *427:DIODE I *D sky130_fd_sc_hd__diode_2
*I *423:DIODE I *D sky130_fd_sc_hd__diode_2
*I *421:DIODE I *D sky130_fd_sc_hd__diode_2
*I *419:DIODE I *D sky130_fd_sc_hd__diode_2
*I *3577:D I *D sky130_fd_sc_hd__and4b_1
*I *418:DIODE I *D sky130_fd_sc_hd__diode_2
*I *420:DIODE I *D sky130_fd_sc_hd__diode_2
*I *422:DIODE I *D sky130_fd_sc_hd__diode_2
*I *424:DIODE I *D sky130_fd_sc_hd__diode_2
*I *426:DIODE I *D sky130_fd_sc_hd__diode_2
*I *3737:DO[27] O *D CF_SRAM_1024x32
*CAP
1 *429:DIODE 0.000244708
2 *425:DIODE 0
3 *427:DIODE 0
4 *423:DIODE 0
5 *421:DIODE 0
6 *419:DIODE 0
7 *3577:D 7.05019e-05
8 *418:DIODE 0
9 *420:DIODE 0
10 *422:DIODE 0
11 *424:DIODE 0
12 *426:DIODE 0.000108013
13 *3737:DO[27] 0.000297257
14 *132:49 0.000203413
15 *132:47 0.000206842
16 *132:41 0.000210772
17 *132:39 0.000171423
18 *132:37 0.000325515
19 *132:35 0.000310228
20 *132:33 0.000312141
21 *132:29 0.00020742
22 *132:27 4.49571e-05
23 *132:25 0.00042645
24 *132:19 0.00114422
25 *132:11 0.00692128
26 *132:9 0.0067231
27 *426:DIODE *3708:A 5.77425e-05
28 *426:DIODE *3815:A 5.42764e-05
29 *426:DIODE *348:14 6.74318e-05
30 *429:DIODE *270:36 0.000464471
31 *429:DIODE *303:34 9.66152e-05
32 *3577:D *3577:B 5.33433e-05
33 *3577:D *281:30 0.000152037
34 *132:9 *3737:DI[27] 0
35 *132:11 *3737:BEN[22] 0
36 *132:11 *3737:BEN[23] 0
37 *132:11 *3737:BEN[25] 0
38 *132:11 *3737:BEN[27] 0
39 *132:11 *133:11 0.0162294
40 *132:11 *138:11 1.91414e-05
41 *132:11 *157:16 0.0104453
42 *132:11 *184:16 0.00621008
43 *132:11 *195:26 0.00157874
44 *132:11 *248:27 0
45 *132:11 *248:39 0
46 *132:11 *248:51 0
47 *132:11 *248:63 0
48 *132:11 *248:75 0
49 *132:11 *251:41 0
50 *132:19 *146:26 6.05161e-06
51 *132:19 *241:84 4.95506e-05
52 *132:25 *151:32 0.000110779
53 *132:25 *151:40 7.5324e-05
54 *132:25 *186:20 1.38323e-05
55 *132:25 *292:16 0.000300137
56 *132:25 *301:36 2.38651e-06
57 *132:27 *186:20 4.58976e-05
58 *132:29 *186:10 1.24368e-05
59 *132:29 *186:20 4.72917e-05
60 *132:33 *164:26 4.1331e-06
61 *132:33 *259:22 0
62 *132:33 *339:42 0
63 *132:35 *164:26 5.18029e-05
64 *132:35 *259:22 0
65 *132:37 *3577:C 1.5702e-05
66 *132:37 *164:26 9.71123e-06
67 *132:37 *259:22 0
68 *132:37 *339:42 0
69 *132:37 *351:24 0.000187828
70 *132:39 *281:30 0.000121421
71 *132:39 *351:24 0.000130458
72 *132:41 *3815:A 3.6683e-05
73 *132:41 *281:30 0.000183538
74 *132:41 *351:24 9.51899e-05
75 *132:47 *3815:A 0.000119163
76 *132:47 *281:30 0.00017382
77 *132:49 *3708:A 3.48755e-05
78 *132:49 *3815:A 0.00018164
79 *132:49 *281:30 2.84494e-05
80 *3627:A *132:49 0
81 *120:30 *3577:D 1.21258e-05
82 *124:11 *132:11 8.13599e-05
83 *125:21 *132:11 0.00331748
84 *128:11 *132:19 0.00144393
85 *128:11 *132:25 0.000322184
86 *129:11 *132:19 0.00145467
87 *129:11 *132:25 0.000543781
88 *129:15 *132:25 0.00016968
89 *129:15 *132:27 5.33334e-05
90 *129:15 *132:29 5.33433e-05
91 *131:25 *132:19 6.05161e-06
92 *131:31 *132:33 3.47641e-06
*RES
1 *3737:DO[27] *132:9 9.875 
2 *132:9 *132:11 278.5 
3 *132:11 *132:19 29.9286 
4 *132:19 *132:25 15.9286 
5 *132:25 *132:27 0.946429 
6 *132:27 *132:29 0.946429 
7 *132:29 *132:33 6.75 
8 *132:33 *132:35 2.25 
9 *132:35 *132:37 3.16071 
10 *132:37 *132:39 1.94643 
11 *132:39 *132:41 2.55357 
12 *132:41 *132:47 3.21429 
13 *132:47 *132:49 2.55357 
14 *132:49 *426:DIODE 16.3536 
15 *132:49 *424:DIODE 13.8 
16 *132:47 *422:DIODE 13.8 
17 *132:41 *420:DIODE 13.8 
18 *132:39 *418:DIODE 13.8 
19 *132:37 *3577:D 15.6795 
20 *132:35 *419:DIODE 13.8 
21 *132:33 *421:DIODE 13.8 
22 *132:29 *423:DIODE 9.3 
23 *132:27 *427:DIODE 9.3 
24 *132:25 *425:DIODE 9.3 
25 *132:19 *429:DIODE 18.4429 
*END

*D_NET *133 0.0647979
*CONN
*I *3578:D I *D sky130_fd_sc_hd__and4b_1
*I *430:DIODE I *D sky130_fd_sc_hd__diode_2
*I *3737:DO[28] O *D CF_SRAM_1024x32
*CAP
1 *3578:D 0.000122582
2 *430:DIODE 0.000131559
3 *3737:DO[28] 0.000320924
4 *133:23 0.00254153
5 *133:21 0.00291687
6 *133:11 0.00409797
7 *133:9 0.00378941
8 *430:DIODE *139:29 5.65955e-05
9 *430:DIODE *244:32 3.10885e-05
10 *430:DIODE *325:36 5.11018e-05
11 *3578:D *170:92 0.000105268
12 *3578:D *219:40 1.30665e-05
13 *3578:D *329:84 0.000229259
14 *133:9 *3737:BEN[28] 1.36589e-05
15 *133:9 *3737:DI[28] 0
16 *133:11 *3737:BEN[27] 0
17 *133:11 *3737:BEN[28] 0
18 *133:11 *138:11 0.00273078
19 *133:11 *155:10 0.0130078
20 *133:11 *201:10 0.000402225
21 *133:21 *3737:BEN[6] 2.45503e-05
22 *133:21 *3737:DI[6] 1.32056e-05
23 *133:21 *195:16 0.000515317
24 *133:23 *244:32 0.00258376
25 *133:23 *244:34 0.000291108
26 *133:23 *317:52 0.0044145
27 *133:23 *317:67 0.000247212
28 *133:23 *325:36 0.000171427
29 *133:23 *329:77 0.000157321
30 *110:10 *133:21 2.72712e-05
31 *110:10 *133:23 0.00733255
32 *125:21 *133:11 0.00222855
33 *132:11 *133:11 0.0162294
*RES
1 *3737:DO[28] *133:9 10.3036 
2 *133:9 *133:11 210.5 
3 *133:11 *133:21 21.8482 
4 *133:21 *133:23 101.973 
5 *133:23 *430:DIODE 15.9786 
6 *133:23 *3578:D 16.5009 
*END

*D_NET *134 0.0551327
*CONN
*I *441:DIODE I *D sky130_fd_sc_hd__diode_2
*I *438:DIODE I *D sky130_fd_sc_hd__diode_2
*I *436:DIODE I *D sky130_fd_sc_hd__diode_2
*I *434:DIODE I *D sky130_fd_sc_hd__diode_2
*I *432:DIODE I *D sky130_fd_sc_hd__diode_2
*I *3579:D I *D sky130_fd_sc_hd__and4b_1
*I *431:DIODE I *D sky130_fd_sc_hd__diode_2
*I *433:DIODE I *D sky130_fd_sc_hd__diode_2
*I *435:DIODE I *D sky130_fd_sc_hd__diode_2
*I *437:DIODE I *D sky130_fd_sc_hd__diode_2
*I *440:DIODE I *D sky130_fd_sc_hd__diode_2
*I *442:DIODE I *D sky130_fd_sc_hd__diode_2
*I *3737:DO[29] O *D CF_SRAM_1024x32
*CAP
1 *441:DIODE 0.000292725
2 *438:DIODE 0
3 *436:DIODE 0
4 *434:DIODE 0
5 *432:DIODE 0
6 *3579:D 9.73598e-05
7 *431:DIODE 0
8 *433:DIODE 0
9 *435:DIODE 0
10 *437:DIODE 0
11 *440:DIODE 0
12 *442:DIODE 0.000143214
13 *3737:DO[29] 0.00111554
14 *134:43 0.000296632
15 *134:41 0.000304659
16 *134:35 0.000258854
17 *134:33 0.000222038
18 *134:31 0.000245144
19 *134:29 0.00033303
20 *134:27 0.000195566
21 *134:25 0.00016932
22 *134:23 0.000196012
23 *134:17 0.000469494
24 *134:11 0.0127102
25 *134:9 0.0131809
26 *441:DIODE *159:44 4.15328e-05
27 *441:DIODE *259:26 0.000105471
28 *442:DIODE *3770:A 4.66233e-05
29 *442:DIODE *3772:A 2.22674e-05
30 *3579:D *327:87 0.00019187
31 *3579:D *329:88 0.000192534
32 *134:9 *3737:DI[29] 0.000414547
33 *134:9 *251:85 0
34 *134:11 *3702:A 0.00114885
35 *134:11 *136:13 0
36 *134:11 *179:16 0
37 *134:11 *190:10 0
38 *134:11 *215:14 0.00132547
39 *134:11 *221:10 0.00754961
40 *134:11 *301:38 0.00574024
41 *134:11 *305:10 0.0030706
42 *134:11 *308:10 0.00194118
43 *134:17 *182:12 8.42191e-05
44 *134:17 *301:38 0.000198698
45 *134:17 *302:20 3.97677e-05
46 *134:17 *305:10 0.000104236
47 *134:23 *186:20 0.000193118
48 *134:23 *302:20 2.59355e-05
49 *134:25 *186:20 0.000196413
50 *134:25 *302:20 4.02251e-05
51 *134:27 *186:20 0.00010326
52 *134:27 *302:20 6.1272e-05
53 *134:29 *302:20 7.56645e-05
54 *134:31 *302:20 3.55659e-05
55 *134:33 *302:20 5.22628e-05
56 *134:35 *302:20 5.58347e-05
57 *134:41 *302:20 4.75028e-05
58 *134:43 *3772:A 2.80052e-05
59 *134:43 *302:20 0
60 wbs_dat_o[27] *134:43 0
61 *112:8 *134:11 0.00103632
62 *115:27 *442:DIODE 0
63 *115:27 *3579:D 2.04825e-05
64 *115:27 *134:27 4.56498e-05
65 *115:27 *134:29 0.000113574
66 *115:27 *134:31 5.32743e-05
67 *115:27 *134:33 9.01035e-05
68 *115:27 *134:35 9.25053e-05
69 *115:27 *134:41 7.79944e-05
70 *115:27 *134:43 0
71 *117:13 *134:23 0.000183378
72 *117:13 *134:25 5.59013e-05
*RES
1 *3737:DO[29] *134:9 23.2679 
2 *134:9 *134:11 316.75 
3 *134:11 *134:17 10.4643 
4 *134:17 *134:23 7.58929 
5 *134:23 *134:25 2.55357 
6 *134:25 *134:27 2.55357 
7 *134:27 *134:29 3.00893 
8 *134:29 *134:31 2.09821 
9 *134:31 *134:33 2.55357 
10 *134:33 *134:35 2.55357 
11 *134:35 *134:41 3.21429 
12 *134:41 *134:43 2.55357 
13 *134:43 *442:DIODE 16.3536 
14 *134:43 *440:DIODE 13.8 
15 *134:41 *437:DIODE 13.8 
16 *134:35 *435:DIODE 13.8 
17 *134:33 *433:DIODE 13.8 
18 *134:31 *431:DIODE 13.8 
19 *134:29 *3579:D 16.492 
20 *134:27 *432:DIODE 13.8 
21 *134:25 *434:DIODE 13.8 
22 *134:23 *436:DIODE 13.8 
23 *134:17 *438:DIODE 9.3 
24 *134:11 *441:DIODE 17.2107 
*END

*D_NET *135 0.0574984
*CONN
*I *443:DIODE I *D sky130_fd_sc_hd__diode_2
*I *3584:D I *D sky130_fd_sc_hd__and4b_1
*I *3737:DO[2] O *D CF_SRAM_1024x32
*CAP
1 *443:DIODE 0
2 *3584:D 0.000274828
3 *3737:DO[2] 4.08905e-05
4 *135:21 0.00126432
5 *135:13 0.00337253
6 *135:11 0.00238303
7 *135:9 0.00580593
8 *135:7 0.00584683
9 *3584:D *3584:A_N 4.82865e-05
10 *3584:D *317:30 9.0765e-05
11 *3584:D *317:32 2.18985e-05
12 *135:7 *3737:BEN[1] 0
13 *135:7 *3737:DI[2] 2.66045e-05
14 *135:9 *3737:BEN[14] 0.000710804
15 *135:9 *3737:BEN[1] 0.000314664
16 *135:9 *141:11 0.00030378
17 *135:9 *199:24 0.00814375
18 *135:9 *241:48 0.000126368
19 *135:9 *244:94 0.000224407
20 *135:9 *244:106 0.00044152
21 *135:13 *3737:vpwrpc 0.000376948
22 *135:13 *157:12 0.00891438
23 *135:21 *3582:B 0.000220646
24 *135:21 *3584:A_N 0.000252788
25 *135:21 *3586:A_N 0.000146589
26 *135:21 *140:19 0.000216796
27 *135:21 *181:20 4.53269e-05
28 *135:21 *312:22 0.000285413
29 *135:21 *315:20 1.53212e-05
30 *135:21 *332:26 4.22132e-05
31 *135:21 *337:18 1.33776e-05
32 *395:DIODE *135:21 2.86121e-05
33 *406:DIODE *135:21 1.25544e-05
34 *124:15 *135:13 0.0132425
35 *127:27 *135:13 0.000287823
36 *130:19 *135:9 0.00388336
37 *131:31 *135:9 7.25338e-05
*RES
1 *3737:DO[2] *135:7 5.38393 
2 *135:7 *135:9 139.375 
3 *135:9 *135:11 4.5 
4 *135:11 *135:13 124.571 
5 *135:13 *135:21 29.5 
6 *135:21 *3584:D 12.9652 
7 *135:21 *443:DIODE 9.3 
*END

*D_NET *136 0.0526024
*CONN
*I *3580:D I *D sky130_fd_sc_hd__and4b_1
*I *444:DIODE I *D sky130_fd_sc_hd__diode_2
*I *3737:DO[30] O *D CF_SRAM_1024x32
*CAP
1 *3580:D 0.000148022
2 *444:DIODE 8.95988e-05
3 *3737:DO[30] 0.000870913
4 *136:13 0.0134681
5 *136:11 0.0141014
6 *444:DIODE *3581:A_N 9.81721e-06
7 *444:DIODE *3819:A 7.29646e-05
8 *444:DIODE *353:14 0.000149868
9 *3580:D *3580:C 6.44047e-05
10 *3580:D *3581:A_N 7.48733e-05
11 *3580:D *170:103 2.04703e-05
12 *3580:D *327:87 0.000142719
13 *136:11 *3737:DI[30] 0.00158457
14 *136:13 *3581:A_N 5.02137e-05
15 *136:13 *143:13 0.00124667
16 *136:13 *143:15 0.000198432
17 *136:13 *153:18 0.00535161
18 *136:13 *159:46 0.00568723
19 *136:13 *164:28 0.00373073
20 *136:13 *179:14 0.000455935
21 *136:13 *179:16 0
22 *136:13 *190:10 0.00469493
23 *136:13 *304:16 0.000355761
24 *136:13 *353:14 3.31882e-05
25 *134:11 *136:13 0
*RES
1 *3737:DO[30] *136:11 25.2143 
2 *136:11 *136:13 340.277 
3 *136:13 *444:DIODE 15.8982 
4 *136:13 *3580:D 17.5991 
*END

*D_NET *137 0.0609246
*CONN
*I *455:DIODE I *D sky130_fd_sc_hd__diode_2
*I *453:DIODE I *D sky130_fd_sc_hd__diode_2
*I *451:DIODE I *D sky130_fd_sc_hd__diode_2
*I *448:DIODE I *D sky130_fd_sc_hd__diode_2
*I *446:DIODE I *D sky130_fd_sc_hd__diode_2
*I *445:DIODE I *D sky130_fd_sc_hd__diode_2
*I *447:DIODE I *D sky130_fd_sc_hd__diode_2
*I *449:DIODE I *D sky130_fd_sc_hd__diode_2
*I *452:DIODE I *D sky130_fd_sc_hd__diode_2
*I *454:DIODE I *D sky130_fd_sc_hd__diode_2
*I *456:DIODE I *D sky130_fd_sc_hd__diode_2
*I *3581:D I *D sky130_fd_sc_hd__and4b_1
*I *3737:DO[31] O *D CF_SRAM_1024x32
*CAP
1 *455:DIODE 0
2 *453:DIODE 0
3 *451:DIODE 0
4 *448:DIODE 0
5 *446:DIODE 0
6 *445:DIODE 0
7 *447:DIODE 0
8 *449:DIODE 0
9 *452:DIODE 0
10 *454:DIODE 0
11 *456:DIODE 0.000140124
12 *3581:D 0.000170665
13 *3737:DO[31] 0.00123539
14 *137:46 0.000270997
15 *137:44 0.000283061
16 *137:42 0.000243321
17 *137:40 0.000207676
18 *137:38 0.000194719
19 *137:23 0.000367396
20 *137:21 0.000205856
21 *137:19 0.000166451
22 *137:17 0.000127426
23 *137:15 9.04303e-05
24 *137:13 0.014266
25 *137:11 0.0154593
26 *456:DIODE *3648:A 2.61133e-05
27 *3581:D *3581:A_N 5.33005e-05
28 *3581:D *3581:B 6.15737e-05
29 *3581:D *3581:C 0.000220306
30 *3581:D *356:18 2.84816e-05
31 *137:11 *3737:BEN[30] 0
32 *137:11 *3737:DI[31] 0.00167363
33 *137:13 *144:11 0.00568834
34 *137:13 *145:79 0
35 *137:13 *182:16 0.000774848
36 *137:15 *144:11 0.000194299
37 *137:17 *144:11 0.00019187
38 *137:19 *144:11 8.21535e-05
39 *137:19 *145:79 0
40 *137:21 *145:79 0
41 *137:23 *3581:A_N 7.10813e-05
42 *137:23 *145:79 0
43 *137:40 *145:79 0
44 *137:42 *145:79 0
45 *137:44 *313:10 0
46 *137:46 *3648:A 3.80391e-05
47 *137:46 *313:10 0
48 wbs_dat_o[29] *456:DIODE 0
49 wbs_dat_o[29] *137:44 0
50 wbs_dat_o[29] *137:46 0
51 *3630:A *456:DIODE 5.01117e-05
52 *113:11 *137:13 0.0126286
53 *113:11 *137:15 0.00020455
54 *113:11 *137:17 0.00020212
55 *113:11 *137:19 0.000201143
56 *113:11 *137:21 0.00020455
57 *113:11 *137:23 0.000282072
58 *113:11 *137:38 0.000104377
59 *113:11 *137:40 0.000195088
60 *113:11 *137:42 0.00020455
61 *113:11 *137:44 3.34366e-05
62 *121:22 *137:13 0
63 *122:21 *137:13 0.00408119
*RES
1 *3737:DO[31] *137:11 31.3571 
2 *137:11 *137:13 337.393 
3 *137:13 *137:15 2.55357 
4 *137:15 *137:17 2.55357 
5 *137:17 *137:19 2.55357 
6 *137:19 *137:21 2.55357 
7 *137:21 *137:23 3.61607 
8 *137:23 *3581:D 17.3134 
9 *137:23 *137:38 1.49107 
10 *137:38 *137:40 2.55357 
11 *137:40 *137:42 2.55357 
12 *137:42 *137:44 2.55357 
13 *137:44 *137:46 2.55357 
14 *137:46 *456:DIODE 16.3536 
15 *137:46 *454:DIODE 13.8 
16 *137:44 *452:DIODE 13.8 
17 *137:42 *449:DIODE 13.8 
18 *137:40 *447:DIODE 13.8 
19 *137:38 *445:DIODE 13.8 
20 *137:21 *446:DIODE 13.8 
21 *137:19 *448:DIODE 13.8 
22 *137:17 *451:DIODE 13.8 
23 *137:15 *453:DIODE 13.8 
24 *137:13 *455:DIODE 13.8 
*END

*D_NET *138 0.0678164
*CONN
*I *3585:D I *D sky130_fd_sc_hd__and4b_1
*I *457:DIODE I *D sky130_fd_sc_hd__diode_2
*I *3737:DO[3] O *D CF_SRAM_1024x32
*CAP
1 *3585:D 5.13392e-06
2 *457:DIODE 0.000289752
3 *3737:DO[3] 0.000372041
4 *138:19 0.00598123
5 *138:11 0.00799787
6 *138:9 0.00268356
7 *457:DIODE *3587:D 7.69776e-06
8 *457:DIODE *3823:A 1.26641e-05
9 *457:DIODE *343:24 0.000146858
10 *457:DIODE *362:20 0.000109039
11 *3585:D *366:136 2.3541e-05
12 *138:9 *3737:DI[3] 0
13 *138:11 *3737:DI[8] 0.00104573
14 *138:11 *146:26 0.000146435
15 *138:11 *151:40 0.000178996
16 *138:11 *162:26 0.000114885
17 *138:11 *173:18 0.00510305
18 *138:11 *184:16 0.00756507
19 *138:11 *201:10 0.00361656
20 *138:11 *226:10 0.000257939
21 *138:11 *303:28 0.000165932
22 *138:19 *3556:C 0
23 *138:19 *3720:A 4.85689e-06
24 *138:19 *141:23 0
25 *138:19 *143:23 0.00271311
26 *138:19 *316:18 0
27 *138:19 *368:133 9.39125e-05
28 *138:19 *370:133 3.57718e-05
29 *3583:D *457:DIODE 4.62055e-05
30 *3583:D *138:19 1.89507e-06
31 *114:19 *138:19 0.015166
32 *116:15 *138:19 0.000555439
33 *118:49 *3585:D 2.524e-05
34 *119:15 *138:19 0.00242184
35 *123:21 *138:11 0.00195824
36 *123:29 *138:19 0.00622004
37 *124:23 *138:19 0
38 *132:11 *138:11 1.91414e-05
39 *133:11 *138:11 0.00273078
*RES
1 *3737:DO[3] *138:9 10.0089 
2 *138:9 *138:11 135.062 
3 *138:11 *138:19 41.0878 
4 *138:19 *457:DIODE 18.5679 
5 *138:19 *3585:D 14.0366 
*END

*D_NET *139 0.0674145
*CONN
*I *458:DIODE I *D sky130_fd_sc_hd__diode_2
*I *3586:D I *D sky130_fd_sc_hd__and4b_1
*I *3737:DO[4] O *D CF_SRAM_1024x32
*CAP
1 *458:DIODE 0
2 *3586:D 7.70795e-05
3 *3737:DO[4] 0.00188874
4 *139:43 0.00148028
5 *139:41 0.0014032
6 *139:39 0.000980971
7 *139:29 0.00374767
8 *139:11 0.00546959
9 *139:9 0.00459164
10 *3586:D *3582:B 0.000209378
11 *3586:D *3586:A_N 9.55638e-05
12 *3586:D *328:16 0.000191121
13 *3586:D *328:18 9.37606e-06
14 *3586:D *370:133 0.000110129
15 *139:9 *3698:A 0.000349336
16 *139:9 *3737:BEN[3] 0
17 *139:9 *3737:DI[4] 0
18 *139:9 *217:8 5.06672e-05
19 *139:11 *142:11 0.000437432
20 *139:11 *188:16 0.00898613
21 *139:11 *313:10 0.000319924
22 *139:29 *3576:A_N 3.30638e-05
23 *139:29 *3581:B 0.000264153
24 *139:29 *142:19 0.00189395
25 *139:29 *281:30 0.000550886
26 *139:29 *371:153 7.29646e-05
27 *139:39 *148:12 0.000166636
28 *139:39 *164:12 0.000629394
29 *139:39 *241:24 0.000723547
30 *139:39 *241:30 0.00311751
31 *139:39 *244:24 0.000254143
32 *139:39 *328:18 1.02937e-05
33 *139:39 *328:32 0.00227398
34 *139:39 *369:86 0.000730713
35 *139:43 *3582:B 5.33005e-05
36 *139:43 *3586:A_N 0.000122591
37 *139:43 *3722:A 0.000525639
38 *139:43 *3725:A 0.00116004
39 *139:43 *148:12 0.000623469
40 *139:43 *164:12 0.000380091
41 *139:43 *241:24 0.0012708
42 *139:43 *244:12 0.00147379
43 *139:43 *244:24 7.98559e-05
44 *139:43 *312:24 0.00541554
45 *139:43 *337:20 0.00197275
46 *139:43 *371:42 3.53079e-05
47 *430:DIODE *139:29 5.65955e-05
48 *3575:D *139:29 6.21521e-06
49 *113:11 *139:11 0.0107554
50 *120:30 *139:29 0.000300693
51 *122:21 *139:11 0.00205244
52 *123:29 *139:39 1.0562e-05
*RES
1 *3737:DO[4] *139:9 31.9196 
2 *139:9 *139:11 135.821 
3 *139:11 *139:29 47.5545 
4 *139:29 *139:39 47.1964 
5 *139:39 *139:41 4.5 
6 *139:41 *139:43 71.1786 
7 *139:43 *3586:D 12.4116 
8 *139:43 *458:DIODE 9.3 
*END

*D_NET *140 0.061019
*CONN
*I *459:DIODE I *D sky130_fd_sc_hd__diode_2
*I *3587:D I *D sky130_fd_sc_hd__and4b_1
*I *3737:DO[5] O *D CF_SRAM_1024x32
*CAP
1 *459:DIODE 5.9049e-05
2 *3587:D 0.000706638
3 *3737:DO[5] 0.00183293
4 *140:19 0.00129238
5 *140:15 0.0043027
6 *140:13 0.003776
7 *140:11 0.00245446
8 *140:9 0.00428739
9 *3587:D *3556:C 0
10 *3587:D *3584:A_N 2.06178e-05
11 *3587:D *315:20 1.90936e-05
12 *3587:D *363:28 0.00106007
13 *3587:D *366:136 0.000130944
14 *3587:D *367:52 0.000382173
15 *140:9 *3737:DI[5] 0.000169251
16 *140:9 *208:8 3.75198e-05
17 *140:11 *164:28 0.00887126
18 *140:11 *309:10 0.00887126
19 *140:15 *182:12 0.00790934
20 *140:15 *188:12 0.00812502
21 *140:15 *199:12 0.000404664
22 *140:19 *3584:A_N 2.15339e-05
23 *140:19 *3586:A_N 0.000155212
24 *140:19 *312:22 0.000283698
25 *140:19 *315:20 0.000429165
26 *457:DIODE *3587:D 7.69776e-06
27 *113:43 *459:DIODE 0.000302728
28 *113:55 *459:DIODE 5.33005e-05
29 *114:19 *140:15 0.000689828
30 *116:15 *140:15 0.00274272
31 *118:49 *459:DIODE 0.000357952
32 *118:49 *3587:D 0.000132867
33 *125:29 *140:15 0.000912729
34 *135:21 *140:19 0.000216796
*RES
1 *3737:DO[5] *140:9 26.8125 
2 *140:9 *140:11 113.964 
3 *140:11 *140:13 4.5 
4 *140:13 *140:15 144.286 
5 *140:15 *140:19 16.4643 
6 *140:19 *3587:D 24.1957 
7 *140:19 *459:DIODE 17.2107 
*END

*D_NET *141 0.0518245
*CONN
*I *3556:D I *D sky130_fd_sc_hd__and4b_1
*I *460:DIODE I *D sky130_fd_sc_hd__diode_2
*I *3737:DO[6] O *D CF_SRAM_1024x32
*CAP
1 *3556:D 0.000131706
2 *460:DIODE 0.000114753
3 *3737:DO[6] 0.000128941
4 *141:23 0.00130893
5 *141:15 0.00464628
6 *141:13 0.0035838
7 *141:11 0.00163629
8 *141:9 0.00176523
9 *460:DIODE *333:24 1.55885e-05
10 *460:DIODE *365:24 1.5702e-05
11 *460:DIODE *370:90 9.54798e-06
12 *3556:D *3556:B 2.89114e-05
13 *3556:D *317:30 3.91722e-05
14 *3556:D *362:20 1.73088e-05
15 *141:9 *3737:BEN[5] 0
16 *141:9 *3737:DI[6] 0
17 *141:11 *3737:BEN[14] 0.000719427
18 *141:11 *146:28 0.00673042
19 *141:11 *151:42 2.14474e-05
20 *141:11 *199:22 0.00135055
21 *141:11 *199:24 0.0067785
22 *141:11 *241:48 1.94879e-05
23 *141:15 *173:14 0.00542113
24 *141:23 *3556:C 0.000101695
25 *141:23 *316:18 0.000370049
26 *141:23 *365:24 1.14483e-05
27 *141:23 *368:116 3.29363e-05
28 *141:23 *370:90 4.47218e-05
29 *141:23 *370:103 0.000220328
30 *3588:RESET_B *460:DIODE 6.05161e-06
31 *124:15 *141:15 0.0138012
32 *127:27 *141:15 0.000706795
33 *130:19 *141:11 0.00173316
34 *131:31 *141:11 9.20464e-06
35 *135:9 *141:11 0.00030378
36 *138:19 *141:23 0
*RES
1 *3737:DO[6] *141:9 6.47321 
2 *141:9 *141:11 100.911 
3 *141:11 *141:13 4.5 
4 *141:13 *141:15 136.482 
5 *141:15 *141:23 24.1071 
6 *141:23 *460:DIODE 15.3714 
7 *141:23 *3556:D 15.8223 
*END

*D_NET *142 0.0717494
*CONN
*I *3557:D I *D sky130_fd_sc_hd__and4b_1
*I *462:DIODE I *D sky130_fd_sc_hd__diode_2
*I *3737:DO[7] O *D CF_SRAM_1024x32
*CAP
1 *3557:D 7.56842e-05
2 *462:DIODE 0.000251525
3 *3737:DO[7] 0.0019764
4 *142:19 0.0093053
5 *142:11 0.0110419
6 *142:9 0.00404018
7 *462:DIODE *343:24 6.39929e-05
8 *462:DIODE *364:30 7.7488e-05
9 *462:DIODE *368:88 7.30885e-05
10 *462:DIODE *368:103 1.74032e-05
11 *3557:D *3556:A_N 1.77247e-05
12 *3557:D *3557:B 2.3541e-05
13 *3557:D *364:30 0.000106319
14 *3557:D *366:129 1.37292e-05
15 *142:9 *3672:A 0.000175892
16 *142:9 *3737:DI[7] 0.000204731
17 *142:9 *190:8 0.000147453
18 *142:11 *188:16 0.00755663
19 *142:11 *313:10 0.00847011
20 *142:19 *3645:A 0.000111763
21 *142:19 *145:51 0.00640599
22 *142:19 *145:73 0.000111763
23 *142:19 *181:30 0.000172737
24 *142:19 *318:8 0.000314754
25 *142:19 *318:16 0.000103646
26 *142:19 *361:14 0.001799
27 *142:19 *363:28 0.00124561
28 *142:19 *364:30 0.0029356
29 *142:19 *367:52 0.000423776
30 *142:19 *367:56 0.000103646
31 *142:19 *367:84 0.000767995
32 *142:19 *368:103 0.000121251
33 *142:19 *369:124 0.000145807
34 *3621:A *462:DIODE 0.000129884
35 *113:11 *142:11 2.0362e-05
36 *113:43 *142:19 0.000160191
37 *118:31 *142:19 0.000213364
38 *118:49 *3557:D 2.3541e-05
39 *118:49 *142:19 0.000254735
40 *122:21 *142:11 0.000997457
41 *122:29 *142:19 0.00921611
42 *139:11 *142:11 0.000437432
43 *139:29 *142:19 0.00189395
*RES
1 *3737:DO[7] *142:9 33.0446 
2 *142:9 *142:11 106.83 
3 *142:11 *142:19 32.7349 
4 *142:19 *462:DIODE 19.3399 
5 *142:19 *3557:D 18.9377 
*END

*D_NET *143 0.0648722
*CONN
*I *464:DIODE I *D sky130_fd_sc_hd__diode_2
*I *3558:D I *D sky130_fd_sc_hd__and4b_1
*I *463:DIODE I *D sky130_fd_sc_hd__diode_2
*I *3737:DO[8] O *D CF_SRAM_1024x32
*CAP
1 *464:DIODE 0
2 *3558:D 0.000124309
3 *463:DIODE 0.00013425
4 *3737:DO[8] 0.00223269
5 *143:31 0.000526928
6 *143:27 0.000548902
7 *143:23 0.00234012
8 *143:21 0.00284072
9 *143:15 0.00232051
10 *143:13 0.00377207
11 *463:DIODE *3562:B 4.08637e-05
12 *463:DIODE *368:63 0.000268396
13 *463:DIODE *370:38 0.000219711
14 *3558:D *3558:A_N 0
15 *3558:D *3558:B 2.44318e-05
16 *3558:D *364:30 3.08382e-06
17 *3558:D *366:103 8.23109e-05
18 *3558:D *368:63 0.000137983
19 *143:13 *3737:DI[8] 0
20 *143:13 *301:52 0.000402298
21 *143:13 *304:16 0.000418922
22 *143:15 *153:18 0.00506849
23 *143:15 *304:16 0.0054721
24 *143:21 *144:15 0.000297588
25 *143:21 *188:12 2.36119e-05
26 *143:27 *144:19 0
27 *143:27 *371:23 3.34295e-05
28 *143:31 *3560:B 9.39125e-05
29 *143:31 *3560:C 1.3807e-05
30 *143:31 *144:19 0
31 *143:31 *170:28 1.34436e-05
32 *143:31 *332:26 1.30932e-05
33 *143:31 *368:67 6.4974e-06
34 *143:31 *371:23 5.48248e-05
35 *3560:D *143:27 1.69115e-05
36 *3560:D *143:31 5.62193e-05
37 *3564:D *463:DIODE 0.000563315
38 *3564:D *3558:D 4.18895e-05
39 *114:19 *143:23 0.000152904
40 *114:19 *143:27 0.000106785
41 *116:15 *143:21 0.000241666
42 *116:15 *143:23 0.0155251
43 *117:15 *143:21 0.00102352
44 *117:15 *143:23 5.97398e-05
45 *119:15 *143:23 0.0153966
46 *136:13 *143:13 0.00124667
47 *136:13 *143:15 0.000198432
48 *138:19 *143:23 0.00271311
*RES
1 *3737:DO[8] *143:13 41.8036 
2 *143:13 *143:15 70.3125 
3 *143:15 *143:21 20.6607 
4 *143:21 *143:23 146.75 
5 *143:23 *143:27 10.0893 
6 *143:27 *143:31 9.17857 
7 *143:31 *463:DIODE 14.7643 
8 *143:31 *3558:D 12.7688 
9 *143:27 *464:DIODE 13.8 
*END

*D_NET *144 0.0614715
*CONN
*I *3559:D I *D sky130_fd_sc_hd__and4b_1
*I *465:DIODE I *D sky130_fd_sc_hd__diode_2
*I *3737:DO[9] O *D CF_SRAM_1024x32
*CAP
1 *3559:D 9.02879e-06
2 *465:DIODE 0.000399668
3 *3737:DO[9] 0.0018837
4 *144:19 0.00122986
5 *144:15 0.00574537
6 *144:13 0.00492421
7 *144:11 0.00148136
8 *144:9 0.00336506
9 *465:DIODE *334:28 6.54786e-05
10 *465:DIODE *343:24 1.90936e-05
11 *3559:D *317:22 1.14548e-05
12 *3559:D *370:90 2.3541e-05
13 *144:9 *3713:A 0.000218679
14 *144:9 *3737:BEN[8] 0
15 *144:9 *3737:DI[9] 0
16 *144:9 *221:8 5.2064e-05
17 *144:9 *226:8 8.91163e-05
18 *144:9 *232:8 1.32552e-05
19 *144:9 *301:52 6.81786e-05
20 *144:11 *145:79 0
21 *144:11 *182:16 0.00596586
22 *144:19 *3559:C 7.53786e-05
23 *144:19 *3560:C 7.14469e-05
24 *144:19 *332:26 0.000162405
25 *144:19 *343:24 6.93867e-05
26 *144:19 *368:67 8.6281e-05
27 *3561:D *465:DIODE 0
28 *3588:RESET_B *465:DIODE 0.000129942
29 *110:14 *144:15 0.00874851
30 *114:19 *144:15 0.00256318
31 *117:15 *144:15 0.0163633
32 *122:21 *144:11 0.00118245
33 *137:13 *144:11 0.00568834
34 *137:15 *144:11 0.000194299
35 *137:17 *144:11 0.00019187
36 *137:19 *144:11 8.21535e-05
37 *143:21 *144:15 0.000297588
38 *143:27 *144:19 0
39 *143:31 *144:19 0
*RES
1 *3737:DO[9] *144:9 30.9554 
2 *144:9 *144:11 77.5357 
3 *144:11 *144:13 4.5 
4 *144:13 *144:15 167.286 
5 *144:15 *144:19 16.7679 
6 *144:19 *465:DIODE 19.6393 
7 *144:19 *3559:D 14.0366 
*END

*D_NET *145 0.069972
*CONN
*I *3737:EN I *D CF_SRAM_1024x32
*I *3588:D I *D sky130_fd_sc_hd__dfrtp_1
*I *3555:X O *D sky130_fd_sc_hd__and2_4
*CAP
1 *3737:EN 0.00164499
2 *3588:D 0
3 *3555:X 0
4 *145:79 0.0109987
5 *145:77 0.0120132
6 *145:73 0.00360459
7 *145:51 0.00648794
8 *145:22 0.00121934
9 *145:4 0.0067622
10 *3737:EN *3737:WLOFF 8.25976e-05
11 *3737:EN *3737:R_WB 0
12 *145:22 *3820:A 9.63317e-05
13 *145:22 *3824:A 0.000208428
14 *145:22 *181:30 0.000610071
15 *145:22 *187:14 0
16 *145:22 *317:32 7.72758e-05
17 *145:22 *360:20 0.000175892
18 *145:22 *367:52 0.000182899
19 *145:22 *369:35 0.000271831
20 *145:51 *3568:B 4.17433e-05
21 *145:51 *332:42 6.27272e-06
22 *145:51 *338:16 0.000502756
23 *145:51 *367:68 9.71197e-05
24 *145:51 *367:103 0.000168497
25 *145:51 *369:51 2.12087e-05
26 *145:51 *369:58 1.98839e-05
27 *145:51 *371:51 0.000103646
28 *145:51 *371:69 0.000557013
29 *145:51 *371:76 0.000693999
30 *145:51 *371:88 0.000109812
31 *145:73 *258:14 0.000179039
32 *145:73 *304:10 2.70591e-05
33 *145:73 *350:42 0
34 *145:73 *361:14 0.000839982
35 *145:73 *367:146 0.000251754
36 *145:73 *367:159 5.33334e-05
37 *145:73 *371:132 0.000535248
38 *145:77 *304:14 0.00132501
39 *145:77 *351:24 0.000510629
40 *145:79 *3581:A_N 0
41 *145:79 *3581:B 0.000141498
42 *145:79 *164:28 0
43 *145:79 *179:14 0
44 *145:79 *182:16 0
45 *145:79 *310:8 0.00636965
46 *393:DIODE *145:73 4.60513e-05
47 *3567:D *145:51 0.000198574
48 *113:31 *145:73 0.000121926
49 *113:43 *145:22 0.000963256
50 *118:31 *145:22 0
51 *118:49 *145:22 0.0016603
52 *122:21 *145:79 0.00192277
53 *122:29 *145:73 0.00153033
54 *124:23 *145:22 8.6229e-06
55 *128:19 *145:73 1.0945e-05
56 *137:13 *145:79 0
57 *137:19 *145:79 0
58 *137:21 *145:79 0
59 *137:23 *145:79 0
60 *137:40 *145:79 0
61 *137:42 *145:79 0
62 *142:19 *145:51 0.00640599
63 *142:19 *145:73 0.000111763
64 *144:11 *145:79 0
*RES
1 *3555:X *145:4 9.3 
2 *145:4 *145:22 47.8214 
3 *145:22 *3588:D 9.3 
4 *145:4 *145:51 48.3215 
5 *145:51 *145:73 35.0748 
6 *145:73 *145:77 38.3036 
7 *145:77 *145:79 202.911 
8 *145:79 *3737:EN 28.2455 
*END

*D_NET *146 0.0598548
*CONN
*I *3737:R_WB I *D CF_SRAM_1024x32
*I *3553:Y O *D sky130_fd_sc_hd__clkinv_4
*CAP
1 *3737:R_WB 0.000119866
2 *3553:Y 0.00585611
3 *146:28 0.00331721
4 *146:26 0.00398685
5 *146:18 0.00664561
6 *3737:R_WB *3737:AD[0] 0
7 *3737:R_WB *3737:WLOFF 0
8 *146:18 *3669:A 0.000317145
9 *146:18 *3693:A 0.000215174
10 *146:18 *148:12 0
11 *146:18 *153:8 0.000141343
12 *146:18 *153:16 0.000101825
13 *146:18 *162:12 0.00014208
14 *146:18 *166:24 0.0018137
15 *146:18 *170:53 0.000479915
16 *146:18 *171:12 0.000144856
17 *146:18 *186:10 0.000253106
18 *146:18 *300:12 0.00014587
19 *146:18 *316:20 0.000427085
20 *146:18 *319:14 0.000790804
21 *146:18 *321:22 0.000316341
22 *146:18 *329:77 0.000232492
23 *146:18 *339:42 9.94618e-05
24 *146:26 *151:40 0
25 *146:26 *157:16 0.0013354
26 *146:26 *184:16 0.00131446
27 *146:26 *199:22 6.05161e-06
28 *146:26 *303:28 0.000167586
29 *146:26 *339:42 0.000108171
30 *146:28 *3737:BEN[0] 0.000244274
31 *146:28 *3737:BEN[1] 0.000801008
32 *146:28 *151:42 0.00979876
33 *146:28 *195:26 0.0033564
34 *146:28 *199:24 0.000256978
35 *146:28 *244:82 0.000610779
36 *146:28 *244:94 0.000737624
37 *146:28 *244:106 0.000798586
38 *3575:D *146:18 0.00124297
39 *3737:EN *3737:R_WB 0
40 *114:19 *146:18 0.00305846
41 *119:13 *146:26 6.94038e-05
42 *124:11 *146:26 1.95625e-05
43 *124:11 *146:28 2.14474e-05
44 *125:21 *146:26 0.000280169
45 *126:21 *146:28 0.00299378
46 *129:15 *146:18 0.000203224
47 *132:19 *146:26 6.05161e-06
48 *138:11 *146:26 0.000146435
49 *141:11 *146:28 0.00673042
*RES
1 *3553:Y *146:18 39.5383 
2 *146:18 *146:26 35.0268 
3 *146:26 *146:28 163.75 
4 *146:28 *3737:R_WB 6.67857 
*END

*D_NET *147 0.00522173
*CONN
*I *3554:A I *D sky130_fd_sc_hd__inv_2
*I *3747:X O *D sky130_fd_sc_hd__buf_1
*CAP
1 *3554:A 0
2 *3747:X 0.00191532
3 *147:16 0.00191532
4 *147:16 *3717:A 2.72545e-05
5 *147:16 *3775:A 0.000274294
6 *147:16 *329:20 0.00026444
7 *147:16 *331:20 0
8 wbs_ack_o *147:16 8.17663e-05
9 *3625:A *147:16 0
10 *3727:A *147:16 0
11 *3730:A *147:16 0.000743332
12 *3733:A *147:16 0
*RES
1 *3747:X *147:16 45.4071 
2 *147:16 *3554:A 9.3 
*END

*D_NET *148 0.0513344
*CONN
*I *3702:A I *D sky130_fd_sc_hd__dlygate4sd3_1
*I *3748:X O *D sky130_fd_sc_hd__buf_4
*CAP
1 *3702:A 0.00333731
2 *3748:X 0.014109
3 *148:12 0.0174463
4 *3702:A *3705:A 0.00709317
5 *3702:A *301:38 0.00143052
6 *3702:A *305:10 6.74867e-05
7 *148:12 *3748:A 1.59145e-05
8 *148:12 *3828:A 0
9 *148:12 *151:18 0.000277719
10 *148:12 *164:12 0.000706713
11 *148:12 *170:39 0.000120369
12 *148:12 *170:53 0.000670511
13 *148:12 *177:12 0.000112254
14 *148:12 *241:24 0.000152412
15 *148:12 *241:30 0.000182899
16 *148:12 *312:24 0.000375961
17 *148:12 *315:24 0.000120369
18 *148:12 *319:12 6.39601e-05
19 *148:12 *327:51 0.000123565
20 *148:12 *329:53 0.000205062
21 *148:12 *329:61 0.000134008
22 *148:12 *329:63 0.000144856
23 *148:12 *329:77 0.00130612
24 *148:12 *332:42 0.000155767
25 *148:12 *350:42 0.000786875
26 *148:12 *364:30 4.02032e-05
27 *148:12 *371:42 0.000150767
28 *113:43 *148:12 6.54116e-05
29 *114:19 *148:12 0
30 *134:11 *3702:A 0.00114885
31 *139:39 *148:12 0.000166636
32 *139:43 *148:12 0.000623469
33 *146:18 *148:12 0
*RES
1 *3748:X *148:12 47.8907 
2 *148:12 *3702:A 39.639 
*END

*D_NET *149 0.013546
*CONN
*I *3737:DI[15] I *D CF_SRAM_1024x32
*I *3649:X O *D sky130_fd_sc_hd__dlygate4sd3_1
*CAP
1 *3737:DI[15] 0.00106832
2 *3649:X 0.000137076
3 *149:14 0.00343914
4 *149:10 0.0025079
5 *3737:DI[15] *3737:DI[13] 0.00105493
6 *3737:DI[15] *244:32 0
7 *110:14 *149:14 0.00353518
8 *114:19 *149:14 0.000386123
9 *116:11 *3737:DI[15] 5.01012e-05
10 *119:13 *3737:DI[15] 0
11 *127:27 *149:10 0
12 *128:19 *149:10 0
13 *129:11 *3737:DI[15] 0.00136719
*RES
1 *3649:X *149:10 20.2464 
2 *149:10 *149:14 38.3036 
3 *149:14 *3737:DI[15] 30.6875 
*END

*D_NET *150 0.00262306
*CONN
*I *3775:A I *D sky130_fd_sc_hd__buf_4
*I *3660:X O *D sky130_fd_sc_hd__dlygate4sd3_1
*CAP
1 *3775:A 0.000814557
2 *3660:X 0.000814557
3 *3775:A *3660:A 0.000353079
4 *3775:A *3717:A 1.39726e-05
5 *3775:A *3751:A 0.00010096
6 *3775:A *3780:A 0.000181368
7 *3775:A *3787:A 0
8 *3775:A *3791:A 0
9 *3775:A *329:20 1.21258e-05
10 *3642:A *3775:A 6.45847e-06
11 *3723:A *3775:A 5.16862e-05
12 *147:16 *3775:A 0.000274294
*RES
1 *3660:X *3775:A 43.8321 
*END

*D_NET *151 0.0504299
*CONN
*I *3737:DI[2] I *D CF_SRAM_1024x32
*I *3671:X O *D sky130_fd_sc_hd__dlygate4sd3_1
*CAP
1 *3737:DI[2] 0.000153895
2 *3671:X 0.000158415
3 *151:42 0.00207862
4 *151:40 0.002654
5 *151:32 0.00304124
6 *151:18 0.00529827
7 *151:12 0.00314473
8 *3737:DI[2] *195:24 6.05161e-06
9 *151:12 *467:DIODE 0.000230475
10 *151:12 *170:63 0.000665661
11 *151:12 *192:20 0
12 *151:12 *219:16 0.000325994
13 *151:12 *315:42 5.71472e-05
14 *151:12 *327:59 9.25014e-06
15 *151:12 *329:63 3.98559e-05
16 *151:18 *170:77 2.16315e-05
17 *151:18 *317:38 0.000226284
18 *151:18 *329:63 0.00435754
19 *151:18 *329:77 2.05695e-05
20 *151:32 *164:26 0.000341
21 *151:32 *170:77 4.13122e-06
22 *151:32 *219:28 0.00118441
23 *151:32 *327:61 0.000450211
24 *151:40 *162:24 0.000176806
25 *151:40 *173:18 0.0011096
26 *151:42 *199:22 0.000282368
27 *407:DIODE *151:32 9.66977e-05
28 *119:13 *151:40 6.05161e-06
29 *124:11 *151:42 0.01012
30 *126:21 *151:42 0.00222144
31 *128:11 *151:40 0.00142421
32 *129:21 *151:32 3.37593e-05
33 *132:25 *151:32 0.000110779
34 *132:25 *151:40 7.5324e-05
35 *135:7 *3737:DI[2] 2.66045e-05
36 *138:11 *151:40 0.000178996
37 *141:11 *151:42 2.14474e-05
38 *146:26 *151:40 0
39 *146:28 *151:42 0.00979876
40 *148:12 *151:18 0.000277719
*RES
1 *3671:X *151:12 25.6214 
2 *151:12 *151:18 49.1161 
3 *151:18 *151:32 40.4643 
4 *151:32 *151:40 32.3125 
5 *151:40 *151:42 125.5 
6 *151:42 *3737:DI[2] 7.02679 
*END

*D_NET *152 0.000661723
*CONN
*I *3752:A I *D sky130_fd_sc_hd__clkbuf_4
*I *3682:X O *D sky130_fd_sc_hd__dlygate4sd3_1
*CAP
1 *3752:A 0.000163448
2 *3682:X 0.000163448
3 *3752:A *3682:A 0
4 *3752:A *3725:A 0
5 *3752:A *192:20 3.82242e-05
6 *3603:A *3752:A 0.000114807
7 *111:14 *3752:A 0.000181796
*RES
1 *3682:X *3752:A 31.3143 
*END

*D_NET *153 0.0301604
*CONN
*I *3737:DI[10] I *D CF_SRAM_1024x32
*I *3693:X O *D sky130_fd_sc_hd__dlygate4sd3_1
*CAP
1 *3737:DI[10] 0.00153477
2 *3693:X 0.000667048
3 *153:18 0.00303111
4 *153:16 0.00383209
5 *153:8 0.0030028
6 *3737:DI[10] *3737:BEN[10] 0
7 *153:8 *3647:A 0.000228514
8 *153:8 *3649:A 0.000313897
9 *153:8 *3667:A 5.71472e-05
10 *153:8 *162:12 0.000797503
11 *153:8 *171:12 2.60984e-05
12 *153:8 *186:10 0.00233433
13 *153:16 *186:10 0.00179989
14 *153:16 *186:20 0.00137045
15 *153:16 *292:16 8.73847e-05
16 *153:16 *301:36 7.68701e-05
17 *153:18 *304:16 0.000140986
18 *400:DIODE *153:8 9.74665e-05
19 *114:9 *3737:DI[10] 0
20 *129:105 *153:8 9.87617e-05
21 *136:13 *153:18 0.00535161
22 *143:15 *153:18 0.00506849
23 *146:18 *153:8 0.000141343
24 *146:18 *153:16 0.000101825
*RES
1 *3693:X *153:8 35.2107 
2 *153:8 *153:16 41.3214 
3 *153:16 *153:18 68.7321 
4 *153:18 *3737:DI[10] 25.7768 
*END

*D_NET *154 0.00123786
*CONN
*I *3772:A I *D sky130_fd_sc_hd__buf_4
*I *3704:X O *D sky130_fd_sc_hd__dlygate4sd3_1
*CAP
1 *3772:A 0.000250094
2 *3704:X 0.000250094
3 *3772:A *3704:A 0.000138584
4 *3772:A *3770:A 0.000116964
5 wbs_dat_o[28] *3772:A 3.30352e-05
6 *442:DIODE *3772:A 2.22674e-05
7 *3624:A *3772:A 0.000398815
8 *134:43 *3772:A 2.80052e-05
*RES
1 *3704:X *3772:A 33.8857 
*END

*D_NET *155 0.0292689
*CONN
*I *3737:DI[27] I *D CF_SRAM_1024x32
*I *3715:X O *D sky130_fd_sc_hd__dlygate4sd3_1
*CAP
1 *3737:DI[27] 0.000287488
2 *3715:X 0.000474526
3 *155:10 0.00378508
4 *155:8 0.00397211
5 *3737:DI[27] *3737:BEN[27] 0
6 *155:8 *195:24 9.62286e-05
7 *155:10 *201:10 0.00429096
8 *123:21 *155:10 0.00130236
9 *128:11 *155:10 0.00205237
10 *131:11 *155:10 0
11 *132:9 *3737:DI[27] 0
12 *133:11 *155:10 0.0130078
*RES
1 *3715:X *155:8 20.0857 
2 *155:8 *155:10 161.018 
3 *155:10 *3737:DI[27] 9.32143 
*END

*D_NET *156 0.000872603
*CONN
*I *3763:A I *D sky130_fd_sc_hd__buf_4
*I *3726:X O *D sky130_fd_sc_hd__dlygate4sd3_1
*CAP
1 *3763:A 0.000365246
2 *3726:X 0.000365246
3 *3763:A *3644:A 0
4 *3763:A *3724:A 0
5 *3763:A *170:14 0.00014211
6 *3790:A *3763:A 0
*RES
1 *3726:X *3763:A 33.3321 
*END

*D_NET *157 0.0514754
*CONN
*I *3737:DI[1] I *D CF_SRAM_1024x32
*I *3600:X O *D sky130_fd_sc_hd__dlygate4sd3_1
*CAP
1 *3737:DI[1] 0.000290947
2 *3600:X 0.000538709
3 *157:16 0.00251227
4 *157:14 0.00222132
5 *157:12 0.00174912
6 *157:10 0.00228783
7 *3737:DI[1] *3737:BEN[0] 0
8 *157:12 *3737:vpwrpc 0.00040647
9 *157:12 *173:14 1.13883e-05
10 *157:12 *184:12 0.00597431
11 *157:16 *184:16 2.14474e-05
12 *124:9 *3737:DI[1] 0
13 *124:11 *157:16 0.0118195
14 *124:15 *157:12 0.000104516
15 *127:21 *157:16 0.00259231
16 *127:27 *157:12 0.000250204
17 *132:11 *157:16 0.0104453
18 *135:13 *157:12 0.00891438
19 *146:26 *157:16 0.0013354
*RES
1 *3600:X *157:10 27.2286 
2 *157:10 *157:12 86.375 
3 *157:12 *157:14 4.5 
4 *157:14 *157:16 146.446 
5 *157:16 *3737:DI[1] 9.20536 
*END

*D_NET *158 0.000746283
*CONN
*I *3773:A I *D sky130_fd_sc_hd__buf_4
*I *3611:X O *D sky130_fd_sc_hd__dlygate4sd3_1
*CAP
1 *3773:A 0.000206355
2 *3611:X 0.000206355
3 *3773:A *309:10 0.000150096
4 *121:32 *3773:A 0.000183477
*RES
1 *3611:X *3773:A 31.3143 
*END

*D_NET *159 0.044932
*CONN
*I *3696:A I *D sky130_fd_sc_hd__dlygate4sd3_1
*I *3749:X O *D sky130_fd_sc_hd__buf_4
*CAP
1 *3696:A 0
2 *3749:X 0.000947903
3 *159:46 0.00155603
4 *159:44 0.00260082
5 *159:40 0.00236908
6 *159:32 0.00290432
7 *159:10 0.00321203
8 *159:8 0.0025799
9 *159:8 *3633:A 0.000185118
10 *159:8 *3673:A 5.65955e-05
11 *159:8 *3686:A 0.000186662
12 *159:8 *3749:A 5.52238e-05
13 *159:8 *323:22 0.00127622
14 *159:8 *324:14 0.00040876
15 *159:8 *333:46 0.000328666
16 *159:10 *3599:A 5.52302e-05
17 *159:10 *3646:A 1.75642e-05
18 *159:10 *3651:A 0.000226264
19 *159:10 *3675:A 0.000432877
20 *159:10 *3677:A 0.000135028
21 *159:10 *3754:A 5.71472e-05
22 *159:10 *3757:A 5.71472e-05
23 *159:10 *3761:A 4.58194e-05
24 *159:10 *3764:A 5.62995e-05
25 *159:10 *214:12 0.00239317
26 *159:10 *247:8 0.000546301
27 *159:10 *270:20 0.000728736
28 *159:10 *281:20 0.00154777
29 *159:10 *301:26 0.000318101
30 *159:10 *302:6 5.52238e-05
31 *159:10 *324:14 0.000429556
32 *159:32 *3765:A 7.14469e-05
33 *159:32 *270:20 7.29646e-05
34 *159:32 *270:28 0.000604496
35 *159:32 *301:26 0.00110351
36 *159:40 *259:22 0
37 *159:40 *270:28 0.000454865
38 *159:40 *270:36 0.000148398
39 *159:40 *292:8 0.000479423
40 *159:40 *303:28 0.00143422
41 *159:40 *328:32 0
42 *159:44 *173:14 2.95726e-05
43 *159:44 *177:16 0.000155986
44 *159:44 *259:26 0.00171608
45 *159:44 *270:36 6.7224e-05
46 *159:44 *303:28 0.000646476
47 *159:44 *317:42 4.54442e-06
48 *159:46 *164:28 0.00568723
49 wbs_dat_o[25] *159:40 2.8266e-06
50 *416:DIODE *159:40 7.46461e-05
51 *441:DIODE *159:44 4.15328e-05
52 *3614:A *159:32 0
53 *3619:A *159:32 0
54 *3632:A *159:8 0.000180777
55 *3735:A *159:10 5.52302e-05
56 *120:30 *159:40 0.000102882
57 *131:56 *159:40 4.52775e-05
58 *131:60 *159:40 1.15058e-05
59 *131:66 *159:40 9.83389e-05
60 *131:68 *159:40 0.000185763
61 *136:13 *159:46 0.00568723
*RES
1 *3749:X *159:8 33.3625 
2 *159:8 *159:10 56.1875 
3 *159:10 *159:32 48.6071 
4 *159:32 *159:40 38.0536 
5 *159:40 *159:44 27.625 
6 *159:44 *159:46 72.9821 
7 *159:46 *3696:A 13.8 
*END

*D_NET *160 0.0237493
*CONN
*I *3737:DI[28] I *D CF_SRAM_1024x32
*I *3622:X O *D sky130_fd_sc_hd__dlygate4sd3_1
*CAP
1 *3737:DI[28] 0.000854432
2 *3622:X 0.000209272
3 *160:16 0.00499533
4 *160:14 0.00416711
5 *160:12 0.00229057
6 *160:10 0.00247363
7 *3737:DI[28] *3737:BEN[28] 0.000398452
8 *160:10 *3737:vpwrac 0.000145456
9 *160:10 *237:14 0.000646138
10 *160:10 *239:8 0.00034638
11 *160:12 *3737:vpwrac 0.000331509
12 *160:12 *217:10 0.000931179
13 *160:12 *230:10 0
14 *160:12 *237:14 0.00114529
15 *160:12 *239:8 0.00211559
16 *160:12 *380:14 2.11419e-05
17 *160:16 *168:10 0
18 *160:16 *217:10 0.00243392
19 *160:16 *228:10 0.000243926
20 *160:16 *230:10 0
21 *133:9 *3737:DI[28] 0
*RES
1 *3622:X *160:10 22.4518 
2 *160:10 *160:12 61.7321 
3 *160:12 *160:14 0.535714 
4 *160:14 *160:16 91.7232 
5 *160:16 *3737:DI[28] 28.9464 
*END

*D_NET *161 0.000683287
*CONN
*I *3785:A I *D sky130_fd_sc_hd__clkbuf_4
*I *3633:X O *D sky130_fd_sc_hd__dlygate4sd3_1
*CAP
1 *3785:A 0.000174613
2 *3633:X 0.000174613
3 *3785:A *3758:A 0.000148492
4 *3785:A *258:12 0.000165027
5 *3785:A *350:20 2.05413e-05
*RES
1 *3633:X *3785:A 31.3679 
*END

*D_NET *162 0.0281842
*CONN
*I *3737:DI[9] I *D CF_SRAM_1024x32
*I *3643:X O *D sky130_fd_sc_hd__dlygate4sd3_1
*CAP
1 *3737:DI[9] 0.000489807
2 *3643:X 0.0010292
3 *162:26 0.00139988
4 *162:24 0.00268054
5 *162:12 0.00279967
6 *3737:DI[9] *226:8 2.51343e-06
7 *162:12 *3647:A 0.000228514
8 *162:12 *3649:A 0.000313897
9 *162:12 *3667:A 0.000404432
10 *162:12 *170:63 0.000178847
11 *162:12 *171:12 0.00122636
12 *162:12 *177:12 0.000494954
13 *162:24 *3737:vpwrpc 6.94174e-05
14 *162:24 *241:48 0.00172882
15 *162:24 *350:58 6.90381e-06
16 *162:26 *3737:DI[8] 0.000242975
17 *162:26 *173:18 0.00396501
18 *118:19 *162:12 0.000506693
19 *118:19 *162:24 0.00291753
20 *123:21 *162:24 0.00131321
21 *126:27 *162:24 9.77021e-06
22 *127:27 *162:24 0.000514688
23 *128:11 *162:26 0.0044293
24 *138:11 *162:26 0.000114885
25 *144:9 *3737:DI[9] 0
26 *146:18 *162:12 0.00014208
27 *151:40 *162:24 0.000176806
28 *153:8 *162:12 0.000797503
*RES
1 *3643:X *162:12 47.8975 
2 *162:12 *162:24 17.7907 
3 *162:24 *162:26 55.2232 
4 *162:26 *3737:DI[9] 11.7232 
*END

*D_NET *163 0.00184564
*CONN
*I *3751:A I *D sky130_fd_sc_hd__buf_4
*I *3644:X O *D sky130_fd_sc_hd__dlygate4sd3_1
*CAP
1 *3751:A 0.000613724
2 *3644:X 0.000613724
3 *3751:A *3644:A 0.000215982
4 *3751:A *3660:A 0.000143789
5 *3751:A *3717:A 6.8445e-06
6 *3751:A *3728:A 0.000150618
7 *3775:A *3751:A 0.00010096
*RES
1 *3644:X *3751:A 37.0643 
*END

*D_NET *164 0.0563115
*CONN
*I *3737:DI[0] I *D CF_SRAM_1024x32
*I *3645:X O *D sky130_fd_sc_hd__dlygate4sd3_1
*CAP
1 *3737:DI[0] 0.00141733
2 *3645:X 7.21947e-05
3 *164:28 0.00596927
4 *164:26 0.00588006
5 *164:12 0.00706606
6 *164:10 0.00581013
7 *3737:DI[0] *3737:ScanInDL 0.000551937
8 *164:10 *3645:A 0
9 *164:12 *219:40 4.50456e-05
10 *164:12 *241:24 0.00132389
11 *164:12 *241:30 0.00311393
12 *164:12 *312:24 0.000919693
13 *164:12 *328:32 0.000741187
14 *164:12 *351:24 0.000306311
15 *164:26 *3581:A_N 2.51343e-06
16 *164:26 *219:40 9.33734e-05
17 *164:26 *327:61 0.000934625
18 *164:26 *339:42 0.000189698
19 *164:28 *179:14 3.27461e-05
20 *164:28 *309:10 0.00132369
21 *111:10 *164:10 0
22 *113:9 *3737:DI[0] 7.88803e-05
23 *131:45 *164:12 2.6869e-05
24 *132:33 *164:26 4.1331e-06
25 *132:35 *164:26 5.18029e-05
26 *132:37 *164:26 9.71123e-06
27 *136:13 *164:28 0.00373073
28 *139:39 *164:12 0.000629394
29 *139:43 *164:12 0.000380091
30 *140:11 *164:28 0.00887126
31 *145:79 *164:28 0
32 *148:12 *164:12 0.000706713
33 *151:32 *164:26 0.000341
34 *159:46 *164:28 0.00568723
*RES
1 *3645:X *164:10 19.3357 
2 *164:10 *164:12 81.4464 
3 *164:12 *164:26 36.8571 
4 *164:26 *164:28 167.696 
5 *164:28 *3737:DI[0] 26.5804 
*END

*D_NET *165 0.0017684
*CONN
*I *3756:A I *D sky130_fd_sc_hd__buf_2
*I *3646:X O *D sky130_fd_sc_hd__dlygate4sd3_1
*CAP
1 *3756:A 0.000217952
2 *3646:X 0.000217952
3 *3756:A *3646:A 0.000229456
4 *3756:A *3802:A 2.83284e-06
5 *3756:A *325:26 1.69961e-05
6 wbs_dat_o[13] *3756:A 0.000314139
7 wbs_dat_o[14] *3756:A 0.000196927
8 *3735:A *3756:A 0
9 *115:39 *3756:A 0.00057215
*RES
1 *3646:X *3756:A 35.9214 
*END

*D_NET *166 0.0146848
*CONN
*I *3737:DI[14] I *D CF_SRAM_1024x32
*I *3647:X O *D sky130_fd_sc_hd__dlygate4sd3_1
*CAP
1 *3737:DI[14] 0.000541422
2 *3647:X 0.00367362
3 *166:24 0.00421505
4 *3737:DI[14] *3737:DI[13] 1.94945e-05
5 *3737:DI[14] *241:84 0.000103753
6 *166:24 *186:10 0.00130428
7 *166:24 *350:58 0.00157736
8 *114:19 *166:24 0.000988509
9 *118:11 *3737:DI[14] 7.30109e-05
10 *129:11 *3737:DI[14] 1.94945e-05
11 *129:19 *166:24 3.47641e-06
12 *130:19 *166:24 0.000351606
13 *146:18 *166:24 0.0018137
*RES
1 *3647:X *166:24 49.8483 
2 *166:24 *3737:DI[14] 13.1964 
*END

*D_NET *167 0.00120731
*CONN
*I *3774:A I *D sky130_fd_sc_hd__buf_4
*I *3648:X O *D sky130_fd_sc_hd__dlygate4sd3_1
*CAP
1 *3774:A 0.000386619
2 *3648:X 0.000386619
3 *3774:A *3655:A 2.88045e-05
4 *3774:A *313:8 0.000394478
5 *3774:A *356:18 1.0792e-05
*RES
1 *3648:X *3774:A 33.0643 
*END

*D_NET *168 0.0248853
*CONN
*I *3737:DI[29] I *D CF_SRAM_1024x32
*I *3650:X O *D sky130_fd_sc_hd__dlygate4sd3_1
*CAP
1 *3737:DI[29] 0.000646562
2 *3650:X 5.2299e-05
3 *168:10 0.00617181
4 *168:8 0.00557755
5 *168:10 *3737:vpwrpc 0.000450528
6 *168:10 *175:8 0
7 *168:10 *193:14 0.00122749
8 *168:10 *215:16 0.00145745
9 *168:10 *230:10 0.00521097
10 *168:10 *248:10 0.00139959
11 *168:10 *251:8 0.00227652
12 *134:9 *3737:DI[29] 0.000414547
13 *160:16 *168:10 0
*RES
1 *3650:X *168:8 14.3357 
2 *168:8 *168:10 169.821 
3 *168:10 *3737:DI[29] 19.0714 
*END

*D_NET *169 0.000333538
*CONN
*I *3755:A I *D sky130_fd_sc_hd__buf_2
*I *3651:X O *D sky130_fd_sc_hd__dlygate4sd3_1
*CAP
1 *3755:A 7.02807e-05
2 *3651:X 7.02807e-05
3 *3755:A *3651:A 7.44888e-05
4 *3755:A *337:40 0.000118488
*RES
1 *3651:X *3755:A 29.2429 
*END

*D_NET *170 0.0485259
*CONN
*I *3580:B I *D sky130_fd_sc_hd__and4b_1
*I *3581:B I *D sky130_fd_sc_hd__and4b_1
*I *3579:B I *D sky130_fd_sc_hd__and4b_1
*I *3578:B I *D sky130_fd_sc_hd__and4b_1
*I *3598:A I *D sky130_fd_sc_hd__clkbuf_4
*I *3750:X O *D sky130_fd_sc_hd__buf_2
*CAP
1 *3580:B 0
2 *3581:B 0.000468594
3 *3579:B 0
4 *3578:B 0
5 *3598:A 0
6 *3750:X 0.00103731
7 *170:103 0.000711084
8 *170:92 0.000364571
9 *170:85 0.00154134
10 *170:77 0.00261797
11 *170:63 0.00197821
12 *170:53 0.00218052
13 *170:39 0.00278345
14 *170:37 0.0014836
15 *170:28 0.00116001
16 *170:14 0.00209615
17 *3581:B *3581:A_N 9.41642e-05
18 *3581:B *3581:C 5.74581e-05
19 *3581:B *3819:A 3.07021e-05
20 *3581:B *309:10 7.14469e-05
21 *3581:B *356:18 0.000393527
22 *170:14 *3726:A 0.000173921
23 *170:14 *323:16 0.000196794
24 *170:14 *329:20 0.000266853
25 *170:14 *331:20 0.000371836
26 *170:28 *3563:B 0.000220441
27 *170:28 *3564:C 7.29646e-05
28 *170:28 *3593:A 0.000136682
29 *170:28 *3719:A 0.000123295
30 *170:28 *3731:A 1.12566e-05
31 *170:28 *312:14 0.000136492
32 *170:28 *327:20 0.000189152
33 *170:28 *329:26 0.000783677
34 *170:28 *332:26 0.000178823
35 *170:28 *337:18 0.000580082
36 *170:28 *371:23 5.33072e-05
37 *170:37 *3593:A 0.000250242
38 *170:37 *332:26 0.000263447
39 *170:37 *367:25 5.68722e-05
40 *170:39 *315:24 0.00357433
41 *170:39 *327:43 0.000932245
42 *170:39 *327:51 0.00228992
43 *170:39 *367:25 0.000612184
44 *170:53 *315:42 1.18491e-05
45 *170:63 *3652:A 9.91086e-05
46 *170:63 *3671:A 7.43578e-06
47 *170:63 *219:16 0.00260399
48 *170:63 *315:42 0.00015872
49 *170:63 *327:59 0.00101425
50 *170:63 *327:61 0.00263136
51 *170:77 *3647:A 7.6644e-05
52 *170:77 *219:28 0.00165161
53 *170:85 *327:61 0.00311688
54 *170:85 *327:65 0.000137333
55 *170:85 *327:69 7.5779e-05
56 *170:85 *329:77 0.000103646
57 *170:92 *3579:C 0.000390212
58 *170:92 *329:84 9.67876e-05
59 *170:92 *329:88 0.000138584
60 *170:103 *3579:C 4.1611e-05
61 *170:103 *3581:A_N 8.5275e-05
62 *170:103 *3819:A 0.0003888
63 *170:103 *329:88 0.000517085
64 *3578:D *170:92 0.000105268
65 *3580:D *170:103 2.04703e-05
66 *3581:D *3581:B 6.15737e-05
67 *3620:A *170:28 0.000136381
68 *3625:A *170:14 0.000323914
69 *3642:A *170:28 6.12683e-05
70 *3750:A *170:14 9.41642e-05
71 *3763:A *170:14 0.00014211
72 *3792:A *170:14 0.000697676
73 *3:17 *170:85 0.000214629
74 *126:27 *170:63 3.2534e-05
75 *129:21 *170:77 0
76 *129:36 *170:85 0.0001839
77 *139:29 *3581:B 0.000264153
78 *143:31 *170:28 1.34436e-05
79 *145:79 *3581:B 0.000141498
80 *146:18 *170:53 0.000479915
81 *148:12 *170:39 0.000120369
82 *148:12 *170:53 0.000670511
83 *151:12 *170:63 0.000665661
84 *151:18 *170:77 2.16315e-05
85 *151:32 *170:77 4.13122e-06
86 *162:12 *170:63 0.000178847
*RES
1 *3750:X *170:14 38.6214 
2 *170:14 *170:28 29.2905 
3 *170:28 *3598:A 9.3 
4 *170:28 *170:37 3.42857 
5 *170:37 *170:39 49.4107 
6 *170:39 *170:53 19.5915 
7 *170:53 *170:63 46.7321 
8 *170:63 *170:77 35.8036 
9 *170:77 *170:85 41.9643 
10 *170:85 *3578:B 9.3 
11 *170:85 *170:92 4.23214 
12 *170:92 *3579:B 9.3 
13 *170:92 *170:103 6.83929 
14 *170:103 *3581:B 36.6929 
15 *170:103 *3580:B 9.3 
*END

*D_NET *171 0.019543
*CONN
*I *3737:DI[13] I *D CF_SRAM_1024x32
*I *3652:X O *D sky130_fd_sc_hd__dlygate4sd3_1
*CAP
1 *3737:DI[13] 0.0013559
2 *3652:X 0.00110013
3 *171:16 0.0018568
4 *171:12 0.00160103
5 *3737:DI[13] *3737:BEN[13] 0
6 *3737:DI[13] *3737:DI[12] 0.000864139
7 *3737:DI[13] *241:84 0.000369987
8 *3737:DI[13] *241:94 0.00024603
9 *3737:DI[13] *350:58 0.000811509
10 *171:12 *317:38 0.000471775
11 *171:16 *177:16 0.00297572
12 *171:16 *199:12 1.21258e-05
13 *171:16 *317:42 0.00293399
14 *3737:DI[14] *3737:DI[13] 1.94945e-05
15 *3737:DI[15] *3737:DI[13] 0.00105493
16 *116:11 *3737:DI[13] 0.000167075
17 *117:9 *3737:DI[13] 0
18 *118:19 *171:12 0.000496669
19 *118:19 *171:16 0.000396286
20 *129:11 *3737:DI[13] 4.08956e-05
21 *131:25 *3737:DI[13] 0.00137125
22 *146:18 *171:12 0.000144856
23 *153:8 *171:12 2.60984e-05
24 *162:12 *171:12 0.00122636
*RES
1 *3652:X *171:12 37.55 
2 *171:12 *171:16 32.9643 
3 *171:16 *3737:DI[13] 46.3125 
*END

*D_NET *172 0.000188146
*CONN
*I *3784:A I *D sky130_fd_sc_hd__clkbuf_4
*I *3653:X O *D sky130_fd_sc_hd__dlygate4sd3_1
*CAP
1 *3784:A 2.22713e-05
2 *3653:X 2.22713e-05
3 *3784:A *321:8 1.55885e-05
4 *3784:A *336:38 9.91033e-05
5 *3605:A *3784:A 2.89114e-05
*RES
1 *3653:X *3784:A 19.5464 
*END

*D_NET *173 0.0290444
*CONN
*I *3737:DI[8] I *D CF_SRAM_1024x32
*I *3654:X O *D sky130_fd_sc_hd__dlygate4sd3_1
*CAP
1 *3737:DI[8] 0.000982832
2 *3654:X 0.000512702
3 *173:18 0.00198531
4 *173:16 0.00100248
5 *173:14 0.00173886
6 *173:12 0.00225156
7 *3737:DI[8] *226:10 0.000712084
8 *173:12 *3693:A 2.89114e-05
9 *173:12 *184:10 0
10 *173:14 *177:16 0
11 *173:14 *184:12 5.61182e-06
12 *173:14 *199:12 0
13 *173:14 *241:48 0.000384378
14 *173:14 *270:36 0.00069109
15 *173:14 *303:34 2.79421e-05
16 *123:21 *3737:DI[8] 0.00026857
17 *123:21 *173:18 0.00104578
18 *123:29 *173:12 0
19 *124:15 *173:14 6.34436e-05
20 *127:27 *173:14 0.000350335
21 *128:11 *3737:DI[8] 4.96531e-05
22 *128:11 *173:18 1.4396e-05
23 *138:11 *3737:DI[8] 0.00104573
24 *138:11 *173:18 0.00510305
25 *141:15 *173:14 0.00542113
26 *143:13 *3737:DI[8] 0
27 *151:40 *173:18 0.0011096
28 *157:12 *173:14 1.13883e-05
29 *159:44 *173:14 2.95726e-05
30 *162:26 *3737:DI[8] 0.000242975
31 *162:26 *173:18 0.00396501
*RES
1 *3654:X *173:12 26.2464 
2 *173:12 *173:14 54.3393 
3 *173:14 *173:16 4.5 
4 *173:16 *173:18 63.4196 
5 *173:18 *3737:DI[8] 38.4393 
*END

*D_NET *174 0.000134259
*CONN
*I *3776:A I *D sky130_fd_sc_hd__buf_4
*I *3655:X O *D sky130_fd_sc_hd__dlygate4sd3_1
*CAP
1 *3776:A 1.21804e-05
2 *3655:X 1.21804e-05
3 *3776:A *313:8 5.49489e-05
4 *3776:A *314:8 5.49489e-05
*RES
1 *3655:X *3776:A 19.1357 
*END

*D_NET *175 0.029848
*CONN
*I *3737:DI[30] I *D CF_SRAM_1024x32
*I *3656:X O *D sky130_fd_sc_hd__dlygate4sd3_1
*CAP
1 *3737:DI[30] 0.000741988
2 *3656:X 0
3 *175:8 0.00562773
4 *175:6 0.00488574
5 *175:8 *179:16 0.00650495
6 *175:8 *223:10 0.000698376
7 *175:8 *251:8 0.00962793
8 *112:8 *175:8 0.000176675
9 *136:11 *3737:DI[30] 0.00158457
10 *168:10 *175:8 0
*RES
1 *3656:X *175:6 13.8 
2 *175:6 *175:8 174.982 
3 *175:8 *3737:DI[30] 20.4286 
*END

*D_NET *176 9.83585e-05
*CONN
*I *3754:A I *D sky130_fd_sc_hd__buf_2
*I *3657:X O *D sky130_fd_sc_hd__dlygate4sd3_1
*CAP
1 *3754:A 2.06056e-05
2 *3657:X 2.06056e-05
3 *159:10 *3754:A 5.71472e-05
*RES
1 *3657:X *3754:A 19.1357 
*END

*D_NET *177 0.0208735
*CONN
*I *3737:DI[12] I *D CF_SRAM_1024x32
*I *3658:X O *D sky130_fd_sc_hd__dlygate4sd3_1
*CAP
1 *3737:DI[12] 0.00109619
2 *3658:X 0.00064174
3 *177:24 0.00155952
4 *177:16 0.00150711
5 *177:12 0.00168552
6 *3737:DI[12] *3737:BEN[12] 0
7 *3737:DI[12] *241:94 0.000299255
8 *3737:DI[12] *241:106 9.24529e-05
9 *177:12 *327:61 0.00161247
10 *177:12 *329:63 0.0016144
11 *177:16 *199:12 2.47753e-05
12 *177:16 *303:28 0.000338608
13 *177:16 *317:42 6.7224e-05
14 *177:24 *244:32 0.00171654
15 *3737:DI[13] *3737:DI[12] 0.000864139
16 *116:9 *3737:DI[12] 1.05901e-05
17 *116:11 *3737:DI[12] 0.0016149
18 *116:11 *177:24 0.00171654
19 *118:19 *177:12 7.58516e-05
20 *118:19 *177:16 0.000378587
21 *128:19 *177:12 0.000214484
22 *131:25 *177:24 3.69047e-06
23 *148:12 *177:12 0.000112254
24 *159:44 *177:16 0.000155986
25 *162:12 *177:12 0.000494954
26 *171:16 *177:16 0.00297572
27 *173:14 *177:16 0
*RES
1 *3658:X *177:12 42.55 
2 *177:12 *177:16 35.4286 
3 *177:16 *177:24 31.625 
4 *177:24 *3737:DI[12] 34.8482 
*END

*D_NET *178 0.0011702
*CONN
*I *3777:A I *D sky130_fd_sc_hd__buf_4
*I *3659:X O *D sky130_fd_sc_hd__dlygate4sd3_1
*CAP
1 *3777:A 0.000468899
2 *3659:X 0.000468899
3 *3777:A *3659:A 0.000232399
*RES
1 *3659:X *3777:A 35.8857 
*END

*D_NET *179 0.0273875
*CONN
*I *3737:DI[31] I *D CF_SRAM_1024x32
*I *3661:X O *D sky130_fd_sc_hd__dlygate4sd3_1
*CAP
1 *3737:DI[31] 0.000796261
2 *3661:X 0.00128653
3 *179:16 0.00697454
4 *179:14 0.00746482
5 *112:8 *179:16 0.00219812
6 *134:11 *179:16 0
7 *136:13 *179:14 0.000455935
8 *136:13 *179:16 0
9 *137:11 *3737:DI[31] 0.00167363
10 *145:79 *179:14 0
11 *164:28 *179:14 3.27461e-05
12 *175:8 *179:16 0.00650495
*RES
1 *3661:X *179:14 47.2107 
2 *179:14 *179:16 161.625 
3 *179:16 *3737:DI[31] 21.2679 
*END

*D_NET *180 0.000622566
*CONN
*I *3783:A I *D sky130_fd_sc_hd__clkbuf_4
*I *3662:X O *D sky130_fd_sc_hd__dlygate4sd3_1
*CAP
1 *3783:A 0.000109502
2 *3662:X 0.000109502
3 *3783:A *320:12 0.000185118
4 *3783:A *339:24 0.000185118
5 *3783:A *364:30 2.47023e-05
6 *3783:A *367:52 8.6229e-06
*RES
1 *3662:X *3783:A 30.7071 
*END

*D_NET *181 0.0198703
*CONN
*I *3645:A I *D sky130_fd_sc_hd__dlygate4sd3_1
*I *3751:X O *D sky130_fd_sc_hd__buf_4
*CAP
1 *3645:A 0.00158352
2 *3751:X 0.00234548
3 *181:30 0.00208325
4 *181:20 0.00284521
5 *3645:A *318:16 4.35597e-05
6 *3645:A *367:56 0.00155127
7 *181:20 *3561:A_N 9.80173e-05
8 *181:20 *3561:B 9.60939e-05
9 *181:20 *3699:A 0.00031119
10 *181:20 *3728:A 0.000288576
11 *181:20 *3778:A 7.83078e-05
12 *181:20 *3786:A 5.33005e-05
13 *181:20 *3788:A 0.000687723
14 *181:20 *3793:A 0.000507479
15 *181:20 *3794:A 4.32309e-05
16 *181:20 *315:20 0.000832246
17 *181:20 *327:20 0.000229661
18 *181:20 *334:28 8.23597e-06
19 *181:20 *339:20 0.000141176
20 *181:20 *363:28 0
21 *181:30 *317:32 0.0026947
22 *181:30 *319:12 0.000880496
23 *181:30 *332:42 0
24 *181:30 *364:30 0.000166337
25 *181:30 *367:52 4.11112e-05
26 *395:DIODE *181:20 0.00017771
27 *113:43 *181:30 0.00114255
28 *135:21 *181:20 4.53269e-05
29 *142:19 *3645:A 0.000111763
30 *142:19 *181:30 0.000172737
31 *145:22 *181:30 0.000610071
32 *164:10 *3645:A 0
*RES
1 *3751:X *181:20 46.1964 
2 *181:20 *181:30 40.4286 
3 *181:30 *3645:A 39.6214 
*END

*D_NET *182 0.0408813
*CONN
*I *3737:DI[7] I *D CF_SRAM_1024x32
*I *3663:X O *D sky130_fd_sc_hd__dlygate4sd3_1
*CAP
1 *3737:DI[7] 0.00209635
2 *3663:X 0.000483052
3 *182:16 0.00561881
4 *182:14 0.00352245
5 *182:12 0.00165891
6 *182:10 0.00214196
7 *3737:DI[7] *195:8 0.000137561
8 *3737:DI[7] *215:14 0.000502801
9 *182:10 *3663:A 0
10 *182:10 *184:10 9.16375e-05
11 *182:10 *188:10 0
12 *182:12 *188:12 0.00022538
13 *182:12 *199:12 0.00595368
14 *182:12 *302:20 0.000262228
15 *182:12 *317:42 2.18902e-05
16 *182:12 *339:52 0.000891069
17 *122:21 *182:16 0.00148149
18 *123:29 *182:10 0
19 *125:29 *182:12 0.000157397
20 *126:27 *182:12 0.00069567
21 *134:17 *182:12 8.42191e-05
22 *137:13 *182:16 0.000774848
23 *140:15 *182:12 0.00790934
24 *142:9 *3737:DI[7] 0.000204731
25 *144:11 *182:16 0.00596586
26 *145:79 *182:16 0
*RES
1 *3663:X *182:10 25.7107 
2 *182:10 *182:12 79.8036 
3 *182:12 *182:14 4.5 
4 *182:14 *182:16 93.3214 
5 *182:16 *3737:DI[7] 31.0804 
*END

*D_NET *183 0.00122915
*CONN
*I *3782:A I *D sky130_fd_sc_hd__clkbuf_4
*I *3664:X O *D sky130_fd_sc_hd__dlygate4sd3_1
*CAP
1 *3782:A 0.000465674
2 *3664:X 0.000465674
3 *3782:A *3703:A 0
4 *3782:A *3795:A 0.000111886
5 *3782:A *3827:A 0
6 *3782:A *187:14 0
7 *3782:A *336:38 0.00014211
8 *3782:A *339:20 4.38058e-05
9 *3639:A *3782:A 0
*RES
1 *3664:X *3782:A 35.1536 
*END

*D_NET *184 0.0326744
*CONN
*I *3737:DI[6] I *D CF_SRAM_1024x32
*I *3665:X O *D sky130_fd_sc_hd__dlygate4sd3_1
*CAP
1 *3737:DI[6] 0.000561859
2 *3665:X 0.000490865
3 *184:16 0.00203366
4 *184:14 0.00147181
5 *184:12 0.00187122
6 *184:10 0.00236209
7 *3737:DI[6] *3737:BEN[6] 1.07719e-05
8 *184:12 *3737:vpwrac 0.000376948
9 *184:12 *303:34 6.05161e-06
10 *123:29 *184:10 5.75645e-05
11 *125:21 *184:16 0.00166079
12 *127:27 *184:12 0.000192251
13 *131:25 *184:12 0.000382744
14 *132:11 *184:16 0.00621008
15 *133:21 *3737:DI[6] 1.32056e-05
16 *138:11 *184:16 0.00756507
17 *141:9 *3737:DI[6] 0
18 *146:26 *184:16 0.00131446
19 *157:12 *184:12 0.00597431
20 *157:16 *184:16 2.14474e-05
21 *173:12 *184:10 0
22 *173:14 *184:12 5.61182e-06
23 *182:10 *184:10 9.16375e-05
*RES
1 *3665:X *184:10 27.2286 
2 *184:10 *184:12 57.2143 
3 *184:12 *184:14 4.5 
4 *184:14 *184:16 93.9286 
5 *184:16 *3737:DI[6] 14.2054 
*END

*D_NET *185 0.000661377
*CONN
*I *3753:A I *D sky130_fd_sc_hd__buf_2
*I *3666:X O *D sky130_fd_sc_hd__dlygate4sd3_1
*CAP
1 *3753:A 0.0002864
2 *3666:X 0.0002864
3 *111:14 *3753:A 8.85761e-05
*RES
1 *3666:X *3753:A 22.6357 
*END

*D_NET *186 0.0267662
*CONN
*I *3737:DI[11] I *D CF_SRAM_1024x32
*I *3667:X O *D sky130_fd_sc_hd__dlygate4sd3_1
*CAP
1 *3737:DI[11] 0.00123445
2 *3667:X 0.00105123
3 *186:26 0.00213761
4 *186:20 0.00149949
5 *186:10 0.00164757
6 *3737:DI[11] *3720:A 0.000138531
7 *3737:DI[11] *3737:BEN[11] 0
8 *3737:DI[11] *259:36 0.000541646
9 *3737:DI[11] *302:22 1.41029e-05
10 *186:20 *3713:A 0.000106352
11 *186:20 *292:16 0.00114527
12 *186:26 *3720:A 0.000759702
13 *186:26 *270:38 0.000424243
14 *409:DIODE *186:10 9.66977e-05
15 *115:13 *3737:DI[11] 0.00056654
16 *115:17 *186:20 7.39203e-06
17 *115:17 *186:26 0.00334148
18 *115:27 *186:20 0.000623683
19 *115:27 *186:26 2.23987e-05
20 *117:13 *186:20 7.02062e-05
21 *117:13 *186:26 0.00261185
22 *129:15 *186:10 0.000541912
23 *131:31 *186:10 0.000338297
24 *131:33 *186:10 8.76257e-05
25 *131:35 *186:10 8.36572e-05
26 *132:25 *186:20 1.38323e-05
27 *132:27 *186:20 4.58976e-05
28 *132:29 *186:10 1.24368e-05
29 *132:29 *186:20 4.72917e-05
30 *134:23 *186:20 0.000193118
31 *134:25 *186:20 0.000196413
32 *134:27 *186:20 0.00010326
33 *146:18 *186:10 0.000253106
34 *153:8 *186:10 0.00233433
35 *153:16 *186:10 0.00179989
36 *153:16 *186:20 0.00137045
37 *166:24 *186:10 0.00130428
*RES
1 *3667:X *186:10 49.7107 
2 *186:10 *186:20 26.9018 
3 *186:20 *186:26 48.3125 
4 *186:26 *3737:DI[11] 31.6161 
*END

*D_NET *187 0.00447213
*CONN
*I *3781:A I *D sky130_fd_sc_hd__clkbuf_4
*I *3668:X O *D sky130_fd_sc_hd__dlygate4sd3_1
*CAP
1 *3781:A 0
2 *3668:X 0.000946814
3 *187:14 0.000946814
4 *187:14 *3668:A 0.00101389
5 *187:14 *3679:A 5.33005e-05
6 *187:14 *3712:A 2.89016e-05
7 *187:14 *3794:A 7.88512e-05
8 *187:14 *3795:A 0.000146151
9 *187:14 *315:20 2.86562e-05
10 *187:14 *323:22 0.000138576
11 *187:14 *324:14 0.000177541
12 *187:14 *361:14 2.11419e-05
13 *187:14 *363:28 0.000197604
14 *187:14 *369:35 5.52238e-05
15 *3588:RESET_B *187:14 5.62995e-05
16 *3609:A *187:14 0.000311787
17 *3617:A *187:14 0.000132957
18 *3639:A *187:14 8.24047e-05
19 *3782:A *187:14 0
20 *113:43 *187:14 5.52238e-05
21 *145:22 *187:14 0
*RES
1 *3668:X *187:14 42.0679 
2 *187:14 *3781:A 9.3 
*END

*D_NET *188 0.0474462
*CONN
*I *3737:DI[5] I *D CF_SRAM_1024x32
*I *3669:X O *D sky130_fd_sc_hd__dlygate4sd3_1
*CAP
1 *3737:DI[5] 0.00199076
2 *3669:X 0.000272034
3 *188:16 0.00411302
4 *188:14 0.00212226
5 *188:12 0.00263384
6 *188:10 0.00290587
7 *3737:DI[5] *3689:A 6.57032e-05
8 *3737:DI[5] *208:8 0.0002676
9 *3737:DI[5] *244:82 0
10 *188:16 *313:10 0.000778494
11 *116:15 *188:12 0.00205782
12 *122:21 *188:16 0.00119489
13 *123:29 *188:12 0.000101825
14 *125:29 *188:12 0.000838652
15 *128:19 *188:12 0.00301744
16 *139:11 *188:16 0.00898613
17 *140:9 *3737:DI[5] 0.000169251
18 *140:15 *188:12 0.00812502
19 *142:11 *188:16 0.00755663
20 *143:21 *188:12 2.36119e-05
21 *182:10 *188:10 0
22 *182:12 *188:12 0.00022538
*RES
1 *3669:X *188:10 22.0679 
2 *188:10 *188:12 83.9107 
3 *188:12 *188:14 4.5 
4 *188:14 *188:16 113.054 
5 *188:16 *3737:DI[5] 33.0625 
*END

*D_NET *189 0.000212214
*CONN
*I *3761:A I *D sky130_fd_sc_hd__clkbuf_4
*I *3670:X O *D sky130_fd_sc_hd__dlygate4sd3_1
*CAP
1 *3761:A 3.61152e-05
2 *3670:X 3.61152e-05
3 *3761:A *270:20 9.41642e-05
4 *159:10 *3761:A 4.58194e-05
*RES
1 *3670:X *3761:A 19.5464 
*END

*D_NET *190 0.0214244
*CONN
*I *3737:DI[18] I *D CF_SRAM_1024x32
*I *3672:X O *D sky130_fd_sc_hd__dlygate4sd3_1
*CAP
1 *3737:DI[18] 0.00155274
2 *3672:X 0.000804346
3 *190:10 0.00604829
4 *190:8 0.00529989
5 *190:8 *3672:A 5.21937e-05
6 *190:10 *304:16 0.00201316
7 *190:10 *308:10 0.000712386
8 *122:17 *3737:DI[18] 9.90367e-05
9 *134:11 *190:10 0
10 *136:13 *190:10 0.00469493
11 *142:9 *190:8 0.000147453
*RES
1 *3672:X *190:8 22.55 
2 *190:8 *190:10 119.125 
3 *190:10 *3737:DI[18] 24.3214 
*END

*D_NET *191 0.000437911
*CONN
*I *3769:A I *D sky130_fd_sc_hd__buf_4
*I *3673:X O *D sky130_fd_sc_hd__dlygate4sd3_1
*CAP
1 *3769:A 0.000186484
2 *3673:X 0.000186484
3 *3769:A *306:14 9.71259e-06
4 *3769:A *324:14 5.52302e-05
*RES
1 *3673:X *3769:A 30.0821 
*END

*D_NET *192 0.0133965
*CONN
*I *3693:A I *D sky130_fd_sc_hd__dlygate4sd3_1
*I *3752:X O *D sky130_fd_sc_hd__clkbuf_4
*CAP
1 *3693:A 0.000774138
2 *3752:X 0.0035705
3 *192:20 0.00434464
4 *3693:A *3665:A 1.00733e-05
5 *3693:A *3667:A 0.000313647
6 *3693:A *3669:A 0.000491391
7 *3693:A *319:14 0.00013447
8 *3693:A *321:22 0.000766528
9 *192:20 *3682:A 1.90936e-05
10 *192:20 *203:8 0.000281802
11 *192:20 *214:12 0.000109494
12 *192:20 *241:24 0
13 *192:20 *322:18 0.000106699
14 *192:20 *324:14 0.000118278
15 *192:20 *340:16 8.87048e-05
16 *192:20 *350:20 0.00116602
17 *192:20 *367:84 0
18 *192:20 *372:14 0.000720196
19 *3567:D *192:20 0
20 *3603:A *192:20 2.89114e-05
21 *3752:A *192:20 3.82242e-05
22 *111:14 *192:20 6.95486e-05
23 *121:46 *192:20 0
24 *122:29 *192:20 0
25 *146:18 *3693:A 0.000215174
26 *151:12 *192:20 0
27 *173:12 *3693:A 2.89114e-05
*RES
1 *3752:X *192:20 46.204 
2 *192:20 *3693:A 33.7821 
*END

*D_NET *193 0.0209721
*CONN
*I *3737:AD[9] I *D CF_SRAM_1024x32
*I *3674:X O *D sky130_fd_sc_hd__dlygate4sd3_1
*CAP
1 *3737:AD[9] 0.00113582
2 *3674:X 4.73777e-05
3 *193:14 0.00237082
4 *193:12 0.00205454
5 *193:8 0.000866923
6 *3737:AD[9] *3737:AD[3] 5.01938e-05
7 *3737:AD[9] *3737:AD[7] 0
8 *3737:AD[9] *3737:AD[8] 9.13731e-05
9 *193:12 *3685:A 0.00207178
10 *193:12 *3720:A 0.000437624
11 *193:12 *3737:vpwrpc 0.000493734
12 *193:12 *215:16 0.00148513
13 *193:12 *219:42 2.23987e-05
14 *193:12 *248:10 0.000195469
15 *193:12 *259:36 4.67458e-05
16 *193:12 *270:38 0.00146138
17 *193:14 *3737:vpwrpc 0.000843289
18 *193:14 *215:16 0.00169454
19 *193:14 *248:10 0.00437552
20 *168:10 *193:14 0.00122749
*RES
1 *3674:X *193:8 14.3357 
2 *193:8 *193:12 38.3839 
3 *193:12 *193:14 55.5982 
4 *193:14 *3737:AD[9] 19.9955 
*END

*D_NET *194 0.000186963
*CONN
*I *3760:A I *D sky130_fd_sc_hd__clkbuf_4
*I *3675:X O *D sky130_fd_sc_hd__dlygate4sd3_1
*CAP
1 *3760:A 4.30014e-05
2 *3675:X 4.30014e-05
3 *3760:A *3675:A 0.00010096
*RES
1 *3675:X *3760:A 19.5464 
*END

*D_NET *195 0.0211875
*CONN
*I *3737:DI[17] I *D CF_SRAM_1024x32
*I *3676:X O *D sky130_fd_sc_hd__dlygate4sd3_1
*CAP
1 *3737:DI[17] 0.000126487
2 *3676:X 6.47797e-05
3 *195:26 0.00173718
4 *195:24 0.00247636
5 *195:16 0.00209235
6 *195:8 0.00129146
7 *3737:DI[17] *3737:TM 0.000180951
8 *195:16 *3737:DI[3] 0.000136682
9 *195:16 *204:10 0
10 *195:16 *208:10 0.000122447
11 *195:16 *210:10 0.00111275
12 *195:16 *217:10 0.000528343
13 *195:16 *228:8 6.57032e-05
14 *195:24 *3737:vpwrac 0.000212251
15 *195:24 *237:14 0.000923678
16 *195:24 *239:8 0.000494691
17 *195:26 *3737:WLOFF 0
18 *195:26 *248:27 8.6889e-05
19 *3591:A *195:16 0.00147017
20 *3737:CLKin *3737:DI[17] 0
21 *3737:DI[2] *195:24 6.05161e-06
22 *3737:DI[7] *195:8 0.000137561
23 *110:10 *195:16 0.000287063
24 *121:20 *3737:DI[17] 3.30237e-05
25 *124:11 *195:26 0.000801008
26 *126:21 *195:26 0.0012529
27 *132:11 *195:26 0.00157874
28 *133:21 *195:16 0.000515317
29 *146:28 *195:26 0.0033564
30 *155:8 *195:24 9.62286e-05
*RES
1 *3676:X *195:8 15.1571 
2 *195:8 *195:16 49.0357 
3 *195:16 *195:24 29 
4 *195:24 *195:26 62.0536 
5 *195:26 *3737:DI[17] 7.46429 
*END

*D_NET *196 0.000362432
*CONN
*I *3762:A I *D sky130_fd_sc_hd__clkbuf_4
*I *3677:X O *D sky130_fd_sc_hd__dlygate4sd3_1
*CAP
1 *3762:A 0.000138513
2 *3677:X 0.000138513
3 *3762:A *3677:A 3.07021e-05
4 *3762:A *270:20 5.47047e-05
*RES
1 *3677:X *3762:A 29.475 
*END

*D_NET *197 0.0237768
*CONN
*I *3737:DI[19] I *D CF_SRAM_1024x32
*I *3678:X O *D sky130_fd_sc_hd__dlygate4sd3_1
*CAP
1 *3737:DI[19] 0.000494948
2 *3678:X 0.000258843
3 *197:10 0.00286872
4 *197:8 0.00263261
5 *197:10 *3737:BEN[5] 0.000347861
6 *197:10 *204:10 0.00921568
7 *197:10 *234:10 0.00609739
8 *123:17 *3737:DI[19] 2.72859e-05
9 *129:11 *197:10 0.00183341
*RES
1 *3678:X *197:8 17.2107 
2 *197:8 *197:10 121.25 
3 *197:10 *3737:DI[19] 12.7321 
*END

*D_NET *198 0.00119473
*CONN
*I *3779:A I *D sky130_fd_sc_hd__clkbuf_4
*I *3679:X O *D sky130_fd_sc_hd__dlygate4sd3_1
*CAP
1 *3779:A 0.000349368
2 *3679:X 0.000349368
3 *3779:A *3714:A 0.000145154
4 *3779:A *3794:A 0.000185643
5 *3779:A *317:22 5.71472e-05
6 *3779:A *365:24 0
7 *3779:A *370:90 3.19953e-05
8 *3621:A *3779:A 7.60562e-05
*RES
1 *3679:X *3779:A 34.1 
*END

*D_NET *199 0.0380355
*CONN
*I *3737:DI[4] I *D CF_SRAM_1024x32
*I *3680:X O *D sky130_fd_sc_hd__dlygate4sd3_1
*CAP
1 *3737:DI[4] 0.00017005
2 *3680:X 0.000315452
3 *199:24 0.00177891
4 *199:22 0.00213423
5 *199:12 0.00234092
6 *199:10 0.002131
7 *199:12 *317:42 0.00129813
8 *199:22 *3737:BEN[14] 6.05161e-06
9 *199:24 *244:82 0.000610779
10 *199:24 *244:94 0.000296304
11 *119:13 *199:22 0.00127204
12 *124:11 *199:22 2.14474e-05
13 *125:29 *199:12 0.000136825
14 *126:21 *199:22 0.000176806
15 *126:27 *199:12 0.000750155
16 *130:19 *199:24 0.00138297
17 *131:31 *199:22 0
18 *135:9 *199:24 0.00814375
19 *139:9 *3737:DI[4] 0
20 *140:15 *199:12 0.000404664
21 *141:11 *199:22 0.00135055
22 *141:11 *199:24 0.0067785
23 *146:26 *199:22 6.05161e-06
24 *146:28 *199:24 0.000256978
25 *151:42 *199:22 0.000282368
26 *171:16 *199:12 1.21258e-05
27 *173:14 *199:12 0
28 *177:16 *199:12 2.47753e-05
29 *182:12 *199:12 0.00595368
*RES
1 *3680:X *199:10 22.9786 
2 *199:10 *199:12 63.375 
3 *199:12 *199:22 34.6071 
4 *199:22 *199:24 101.214 
5 *199:24 *3737:DI[4] 7.40179 
*END

*D_NET *200 0.00181713
*CONN
*I *3759:A I *D sky130_fd_sc_hd__clkbuf_4
*I *3681:X O *D sky130_fd_sc_hd__dlygate4sd3_1
*CAP
1 *3759:A 0.000501622
2 *3681:X 0.000501622
3 *3759:A *3681:A 4.97567e-06
4 *3759:A *259:14 7.83659e-05
5 *3759:A *325:26 0.000488486
6 *3759:A *338:16 4.6025e-06
7 wbs_dat_o[16] *3759:A 0.000237456
8 *3615:A *3759:A 0
*RES
1 *3681:X *3759:A 35.7071 
*END

*D_NET *201 0.0231356
*CONN
*I *3737:DI[16] I *D CF_SRAM_1024x32
*I *3683:X O *D sky130_fd_sc_hd__dlygate4sd3_1
*CAP
1 *3737:DI[16] 0.000241196
2 *3683:X 0.000400804
3 *201:10 0.00194633
4 *201:8 0.00210594
5 *201:8 *3737:BEN[7] 7.89427e-05
6 *201:8 *244:38 4.53295e-05
7 *201:10 *226:10 0.00625372
8 *120:16 *3737:DI[16] 0.000503458
9 *123:21 *201:10 0.00195392
10 *128:11 *201:10 0.00129618
11 *133:11 *201:10 0.000402225
12 *138:11 *201:10 0.00361656
13 *155:10 *201:10 0.00429096
*RES
1 *3683:X *201:8 19.675 
2 *201:8 *201:10 106.679 
3 *201:10 *3737:DI[16] 10.2143 
*END

*D_NET *202 0.000186468
*CONN
*I *3764:A I *D sky130_fd_sc_hd__clkbuf_4
*I *3684:X O *D sky130_fd_sc_hd__dlygate4sd3_1
*CAP
1 *3764:A 1.55326e-05
2 *3684:X 1.55326e-05
3 *3764:A *270:20 9.91033e-05
4 *159:10 *3764:A 5.62995e-05
*RES
1 *3684:X *3764:A 19.5464 
*END

*D_NET *203 0.0116558
*CONN
*I *3667:A I *D sky130_fd_sc_hd__dlygate4sd3_1
*I *3753:X O *D sky130_fd_sc_hd__buf_2
*CAP
1 *3667:A 0.000913476
2 *3753:X 0.00225847
3 *203:8 0.00317195
4 *3667:A *3658:A 6.8646e-06
5 *3667:A *241:24 0
6 *3667:A *322:18 0.000907351
7 *3667:A *341:20 0
8 *3667:A *367:113 2.22674e-05
9 *203:8 *322:18 0.00299403
10 *203:8 *350:30 0.000174352
11 *203:8 *372:14 0.000128759
12 *3693:A *3667:A 0.000313647
13 *121:46 *203:8 2.12005e-05
14 *125:29 *3667:A 0
15 *153:8 *3667:A 5.71472e-05
16 *162:12 *3667:A 0.000404432
17 *192:20 *203:8 0.000281802
*RES
1 *3753:X *203:8 46.7821 
2 *203:8 *3667:A 32.9607 
*END

*D_NET *204 0.025407
*CONN
*I *3737:DI[20] I *D CF_SRAM_1024x32
*I *3685:X O *D sky130_fd_sc_hd__dlygate4sd3_1
*CAP
1 *3737:DI[20] 0.000529502
2 *3685:X 0.000225677
3 *204:10 0.00292647
4 *204:8 0.00262264
5 *204:8 *3737:BEN[5] 6.05161e-06
6 *204:10 *208:10 0.00961286
7 *125:17 *3737:DI[20] 0
8 *129:11 *204:10 0.000268094
9 *195:16 *204:10 0
10 *197:10 *204:10 0.00921568
*RES
1 *3685:X *204:8 16.8 
2 *204:8 *204:10 126.107 
3 *204:10 *3737:DI[20] 13.1607 
*END

*D_NET *205 0.000478008
*CONN
*I *3758:A I *D sky130_fd_sc_hd__buf_4
*I *3686:X O *D sky130_fd_sc_hd__dlygate4sd3_1
*CAP
1 *3758:A 0.000138108
2 *3686:X 0.000138108
3 *3785:A *3758:A 0.000148492
4 *111:14 *3758:A 5.33005e-05
*RES
1 *3686:X *3758:A 30.0821 
*END

*D_NET *206 0.0225559
*CONN
*I *3737:AD[8] I *D CF_SRAM_1024x32
*I *3687:X O *D sky130_fd_sc_hd__dlygate4sd3_1
*CAP
1 *3737:AD[8] 0.000884147
2 *3687:X 0.000170393
3 *206:10 0.00285044
4 *206:8 0.00213669
5 *3737:AD[8] *3737:AD[7] 9.17065e-05
6 *206:8 *3687:A 1.83136e-05
7 *206:10 *3713:A 1.90936e-05
8 *206:10 *3716:A 3.85161e-05
9 *206:10 *3737:vpwrpc 0.00145872
10 *206:10 *215:16 0.000353485
11 *206:10 *219:42 0.00471508
12 *206:10 *230:10 0.00231306
13 *206:10 *232:10 0.00729577
14 *206:10 *339:54 5.38886e-05
15 *206:10 *350:60 6.5185e-05
16 *3737:AD[9] *3737:AD[8] 9.13731e-05
*RES
1 *3687:X *206:8 15.5679 
2 *206:8 *206:10 97.2679 
3 *206:10 *3737:AD[8] 17.317 
*END

*D_NET *207 0.00183595
*CONN
*I *3765:A I *D sky130_fd_sc_hd__clkbuf_4
*I *3688:X O *D sky130_fd_sc_hd__dlygate4sd3_1
*CAP
1 *3765:A 0.000579254
2 *3688:X 0.000579254
3 *3765:A *301:26 0.000356636
4 wbs_dat_o[22] *3765:A 0.000249356
5 *3618:A *3765:A 0
6 *159:32 *3765:A 7.14469e-05
*RES
1 *3688:X *3765:A 36.5464 
*END

*D_NET *208 0.0263205
*CONN
*I *3737:DI[21] I *D CF_SRAM_1024x32
*I *3689:X O *D sky130_fd_sc_hd__dlygate4sd3_1
*CAP
1 *3737:DI[21] 0.000551984
2 *3689:X 0.000138956
3 *208:10 0.00308572
4 *208:8 0.00267269
5 *208:10 *210:10 0.0002084
6 *208:10 *212:10 0.0096223
7 *3737:DI[5] *208:8 0.0002676
8 *126:17 *3737:DI[21] 0
9 *140:9 *208:8 3.75198e-05
10 *195:16 *208:10 0.000122447
11 *204:10 *208:10 0.00961286
*RES
1 *3689:X *208:8 16.3893 
2 *208:8 *208:10 130.964 
3 *208:10 *3737:DI[21] 13.5893 
*END

*D_NET *209 0.00134237
*CONN
*I *3766:A I *D sky130_fd_sc_hd__clkbuf_4
*I *3690:X O *D sky130_fd_sc_hd__dlygate4sd3_1
*CAP
1 *3766:A 0.000487527
2 *3690:X 0.000487527
3 *3766:A *302:6 0.000363837
4 *3766:A *339:42 3.47641e-06
5 *129:48 *3766:A 0
*RES
1 *3690:X *3766:A 34.7786 
*END

*D_NET *210 0.0277367
*CONN
*I *3737:DI[22] I *D CF_SRAM_1024x32
*I *3691:X O *D sky130_fd_sc_hd__dlygate4sd3_1
*CAP
1 *3737:DI[22] 0.000589818
2 *3691:X 0.00016104
3 *210:10 0.00300195
4 *210:8 0.00257317
5 *210:10 *212:10 0.0104154
6 *210:10 *217:10 2.07414e-05
7 *210:10 *228:10 0.00965336
8 *127:17 *3737:DI[22] 0
9 *195:16 *210:10 0.00111275
10 *208:10 *210:10 0.0002084
*RES
1 *3691:X *210:8 15.5679 
2 *210:8 *210:10 136.125 
3 *210:10 *3737:DI[22] 14.125 
*END

*D_NET *211 0.000144566
*CONN
*I *3767:A I *D sky130_fd_sc_hd__clkbuf_4
*I *3692:X O *D sky130_fd_sc_hd__dlygate4sd3_1
*CAP
1 *3767:A 1.59834e-05
2 *3692:X 1.59834e-05
3 *3767:A *350:42 5.62995e-05
4 *121:40 *3767:A 5.62995e-05
*RES
1 *3692:X *3767:A 19.5464 
*END

*D_NET *212 0.0277199
*CONN
*I *3737:DI[23] I *D CF_SRAM_1024x32
*I *3694:X O *D sky130_fd_sc_hd__dlygate4sd3_1
*CAP
1 *3737:DI[23] 0.000565546
2 *3694:X 0.000192729
3 *212:10 0.003455
4 *212:8 0.00308218
5 *212:10 *228:10 0.000386704
6 *128:9 *3737:DI[23] 0
7 *129:11 *212:10 0
8 *208:10 *212:10 0.0096223
9 *210:10 *212:10 0.0104154
*RES
1 *3694:X *212:8 15.9786 
2 *212:8 *212:10 140.679 
3 *212:10 *3737:DI[23] 14.0357 
*END

*D_NET *213 0.000428187
*CONN
*I *3749:A I *D sky130_fd_sc_hd__buf_4
*I *3695:X O *D sky130_fd_sc_hd__dlygate4sd3_1
*CAP
1 *3749:A 0.00010043
2 *3695:X 0.00010043
3 *3749:A *3828:A 0
4 *3749:A *332:42 0.000116879
5 *3749:A *333:46 5.52238e-05
6 *159:8 *3749:A 5.52238e-05
*RES
1 *3695:X *3749:A 29.7786 
*END

*D_NET *214 0.0105466
*CONN
*I *3658:A I *D sky130_fd_sc_hd__dlygate4sd3_1
*I *3754:X O *D sky130_fd_sc_hd__buf_2
*CAP
1 *3658:A 0.000886938
2 *3754:X 0.00111185
3 *214:12 0.00199879
4 *3658:A *322:18 0.000326234
5 *3658:A *327:61 0.00087143
6 *3658:A *329:63 0.00087143
7 *214:12 *247:8 0.00178372
8 *214:12 *324:14 0.000186662
9 *3667:A *3658:A 6.8646e-06
10 *159:10 *214:12 0.00239317
11 *192:20 *214:12 0.000109494
*RES
1 *3754:X *214:12 43.2286 
2 *214:12 *3658:A 33.8 
*END

*D_NET *215 0.0215651
*CONN
*I *3737:AD[7] I *D CF_SRAM_1024x32
*I *3696:X O *D sky130_fd_sc_hd__dlygate4sd3_1
*CAP
1 *3737:AD[7] 0.000974346
2 *3696:X 0.000608529
3 *215:16 0.00264528
4 *215:14 0.00227947
5 *3737:AD[7] *3737:AD[6] 0
6 *215:14 *308:10 0.00132547
7 *215:16 *3737:vpwrpc 0.00137017
8 *215:16 *219:42 0.003024
9 *215:16 *230:10 0.00242723
10 *3737:AD[8] *3737:AD[7] 9.17065e-05
11 *3737:AD[9] *3737:AD[7] 0
12 *3737:DI[7] *215:14 0.000502801
13 *134:11 *215:14 0.00132547
14 *168:10 *215:16 0.00145745
15 *193:12 *215:16 0.00148513
16 *193:14 *215:16 0.00169454
17 *206:10 *215:16 0.000353485
*RES
1 *3696:X *215:14 44.675 
2 *215:14 *215:16 77.2321 
3 *215:16 *3737:AD[7] 19.2991 
*END

*D_NET *216 0.000552111
*CONN
*I *3768:A I *D sky130_fd_sc_hd__clkbuf_4
*I *3697:X O *D sky130_fd_sc_hd__dlygate4sd3_1
*CAP
1 *3768:A 0.000192218
2 *3697:X 0.000192218
3 *3768:A *301:26 7.37705e-05
4 *416:DIODE *3768:A 3.10819e-05
5 *131:68 *3768:A 6.2824e-05
*RES
1 *3697:X *3768:A 30.2964 
*END

*D_NET *217 0.0285513
*CONN
*I *3737:DI[24] I *D CF_SRAM_1024x32
*I *3698:X O *D sky130_fd_sc_hd__dlygate4sd3_1
*CAP
1 *3737:DI[24] 0.000530894
2 *3698:X 7.36331e-05
3 *217:10 0.00402603
4 *217:8 0.00356877
5 *217:10 *3732:A 0.000115096
6 *217:10 *3737:vpwrac 0.000837869
7 *217:10 *228:10 0.0109107
8 *217:10 *237:12 5.47743e-05
9 *217:10 *237:14 0.0040889
10 *3591:A *217:10 0.000124623
11 *129:9 *3737:DI[24] 0.000255094
12 *139:9 *217:8 5.06672e-05
13 *160:12 *217:10 0.000931179
14 *160:16 *217:10 0.00243392
15 *195:16 *217:10 0.000528343
16 *210:10 *217:10 2.07414e-05
*RES
1 *3698:X *217:8 14.7464 
2 *217:8 *217:10 147.964 
3 *217:10 *3737:DI[24] 15.2857 
*END

*D_NET *218 0.00101888
*CONN
*I *3778:A I *D sky130_fd_sc_hd__clkbuf_4
*I *3699:X O *D sky130_fd_sc_hd__dlygate4sd3_1
*CAP
1 *3778:A 0.000219223
2 *3699:X 0.000219223
3 *3778:A *3561:A_N 9.60875e-05
4 *3778:A *3561:B 9.41642e-05
5 *3778:A *3561:C 6.26177e-05
6 *3778:A *3699:A 5.52238e-05
7 *3778:A *333:24 3.70084e-05
8 *461:DIODE *3778:A 5.17614e-05
9 *3561:D *3778:A 0.000105268
10 *181:20 *3778:A 7.83078e-05
*RES
1 *3699:X *3778:A 24.2071 
*END

*D_NET *219 0.0495412
*CONN
*I *3737:DI[3] I *D CF_SRAM_1024x32
*I *3700:X O *D sky130_fd_sc_hd__dlygate4sd3_1
*CAP
1 *3737:DI[3] 0.00100305
2 *3700:X 0.00196909
3 *219:42 0.00374511
4 *219:40 0.00400607
5 *219:28 0.00208472
6 *219:16 0.0027898
7 *219:16 *327:59 5.41794e-05
8 *219:16 *327:61 0.000114964
9 *219:16 *329:63 0.000401489
10 *219:28 *3576:A_N 0.000136427
11 *219:28 *244:28 1.38323e-05
12 *219:28 *327:61 0.00295047
13 *219:28 *328:32 0.000175892
14 *219:28 *329:77 0.000101825
15 *219:28 *350:42 4.8405e-05
16 *219:40 *244:28 0.00125463
17 *219:40 *258:30 0.000763012
18 *219:40 *302:20 0.000703366
19 *219:40 *327:87 9.60939e-05
20 *219:40 *328:32 3.7678e-05
21 *219:40 *329:84 7.95355e-05
22 *219:40 *351:24 0.000154954
23 *219:42 *3737:vpwrpc 0.00189832
24 *219:42 *258:30 0.0018678
25 *219:42 *270:38 0.00706292
26 *219:42 *350:60 2.50463e-05
27 *3575:D *219:28 0
28 *3578:D *219:40 1.30665e-05
29 *117:13 *219:40 1.84531e-05
30 *117:13 *219:42 7.46379e-05
31 *118:11 *219:42 0.00198503
32 *131:45 *219:40 0.000108811
33 *138:9 *3737:DI[3] 0
34 *151:12 *219:16 0.000325994
35 *151:32 *219:28 0.00118441
36 *164:12 *219:40 4.50456e-05
37 *164:26 *219:40 9.33734e-05
38 *170:63 *219:16 0.00260399
39 *170:77 *219:28 0.00165161
40 *193:12 *219:42 2.23987e-05
41 *195:16 *3737:DI[3] 0.000136682
42 *206:10 *219:42 0.00471508
43 *215:16 *219:42 0.003024
*RES
1 *3700:X *219:16 49.5857 
2 *219:16 *219:28 42.1071 
3 *219:28 *219:40 33.9732 
4 *219:40 *219:42 130.205 
5 *219:42 *3737:DI[3] 18.9196 
*END

*D_NET *220 0.000615902
*CONN
*I *3748:A I *D sky130_fd_sc_hd__buf_4
*I *3701:X O *D sky130_fd_sc_hd__dlygate4sd3_1
*CAP
1 *3748:A 0.000227608
2 *3701:X 0.000227608
3 *3748:A *3828:A 0
4 *3748:A *324:14 0.000144773
5 *148:12 *3748:A 1.59145e-05
*RES
1 *3701:X *3748:A 30.9036 
*END

*D_NET *221 0.0208245
*CONN
*I *3737:AD[6] I *D CF_SRAM_1024x32
*I *3702:X O *D sky130_fd_sc_hd__dlygate4sd3_1
*CAP
1 *3737:AD[6] 0.00136027
2 *3702:X 0.000244095
3 *221:10 0.00344112
4 *221:8 0.00232495
5 *3737:AD[6] *3737:AD[5] 0.000141063
6 *221:10 *223:10 0.000163711
7 *221:10 *305:10 0.00376025
8 *3737:AD[7] *3737:AD[6] 0
9 *112:8 *221:10 0.00178738
10 *134:11 *221:10 0.00754961
11 *144:9 *221:8 5.2064e-05
*RES
1 *3702:X *221:8 16.3893 
2 *221:8 *221:10 95.75 
3 *221:10 *3737:AD[6] 22.067 
*END

*D_NET *222 0.00043435
*CONN
*I *3796:A I *D sky130_fd_sc_hd__buf_4
*I *3703:X O *D sky130_fd_sc_hd__dlygate4sd3_1
*CAP
1 *3796:A 0.000152293
2 *3703:X 0.000152293
3 *3796:A *3662:A 5.72546e-05
4 *3796:A *324:14 5.65955e-05
5 *3796:A *362:20 0
6 *3796:A *372:14 1.59145e-05
*RES
1 *3703:X *3796:A 30.0821 
*END

*D_NET *223 0.0190037
*CONN
*I *3737:AD[5] I *D CF_SRAM_1024x32
*I *3705:X O *D sky130_fd_sc_hd__dlygate4sd3_1
*CAP
1 *3737:AD[5] 0.00127591
2 *3705:X 0.00022562
3 *223:10 0.0036861
4 *223:8 0.00263582
5 *3737:AD[5] *3737:AD[4] 6.67159e-05
6 *223:10 *3678:A 0.00184884
7 *223:10 *248:10 0
8 *223:10 *251:8 0.000894985
9 *223:10 *303:36 0.00299418
10 *223:10 *305:10 0.000906897
11 *3737:AD[6] *3737:AD[5] 0.000141063
12 *112:8 *223:10 0.00346544
13 *175:8 *223:10 0.000698376
14 *221:10 *223:10 0.000163711
*RES
1 *3705:X *223:8 15.9786 
2 *223:8 *223:10 94.8393 
3 *223:10 *3737:AD[5] 21.9955 
*END

*D_NET *224 0.00365745
*CONN
*I *3794:A I *D sky130_fd_sc_hd__buf_4
*I *3706:X O *D sky130_fd_sc_hd__dlygate4sd3_1
*CAP
1 *3794:A 0.00102917
2 *3706:X 0.00102917
3 *3794:A *3712:A 0
4 *3794:A *324:14 0.000728031
5 *3794:A *331:12 6.27359e-05
6 *395:DIODE *3794:A 9.11048e-06
7 *3588:RESET_B *3794:A 0.000441315
8 *3617:A *3794:A 5.01909e-05
9 *3639:A *3794:A 0
10 *3779:A *3794:A 0.000185643
11 *181:20 *3794:A 4.32309e-05
12 *187:14 *3794:A 7.88512e-05
*RES
1 *3706:X *3794:A 44.6 
*END

*D_NET *225 0.00963368
*CONN
*I *3652:A I *D sky130_fd_sc_hd__dlygate4sd3_1
*I *3755:X O *D sky130_fd_sc_hd__buf_2
*CAP
1 *3652:A 0.000867635
2 *3755:X 0.00187561
3 *225:6 0.00274324
4 *3652:A *3647:A 0.000266061
5 *3652:A *342:14 0.000208242
6 *3652:A *345:22 0.000632768
7 *225:6 *3807:A 3.88131e-05
8 *225:6 *236:14 0.000218336
9 *225:6 *336:38 0.000107121
10 *225:6 *344:16 0.00021704
11 wbs_dat_o[14] *225:6 0.000271352
12 wbs_dat_o[16] *225:6 0.000271352
13 wbs_dat_o[18] *225:6 0.000271352
14 wbs_dat_o[20] *3652:A 0
15 *3612:A *225:6 0.000779546
16 *3613:A *225:6 0.000186669
17 *3734:A *225:6 0.00057944
18 *126:27 *3652:A 0
19 *170:63 *3652:A 9.91086e-05
*RES
1 *3755:X *225:6 45.5679 
2 *225:6 *3652:A 35.7286 
*END

*D_NET *226 0.0192822
*CONN
*I *3737:AD[3] I *D CF_SRAM_1024x32
*I *3707:X O *D sky130_fd_sc_hd__dlygate4sd3_1
*CAP
1 *3737:AD[3] 0.000212943
2 *3707:X 0.000385849
3 *226:17 7.34403e-07
4 *226:10 0.00157845
5 *226:8 0.00175209
6 *3737:AD[3] *3737:ScanInCC 0.000547842
7 *226:17 *3737:ScanInCC 1.33343e-05
8 *3737:AD[9] *3737:AD[3] 5.01938e-05
9 *3737:DI[9] *226:8 2.51343e-06
10 *3737:DI[8] *226:10 0.000712084
11 *128:11 *226:10 0.00742541
12 *138:11 *226:10 0.000257939
13 *144:9 *226:8 8.91163e-05
14 *201:10 *226:10 0.00625372
*RES
1 *3707:X *226:8 19.2643 
2 *226:8 *226:10 91.8036 
3 *226:10 *3737:AD[3] 9.96429 
4 *3737:AD[3] *226:17 0.12963 
*END

*D_NET *227 0.00392459
*CONN
*I *3770:A I *D sky130_fd_sc_hd__clkbuf_4
*I *3708:X O *D sky130_fd_sc_hd__dlygate4sd3_1
*CAP
1 *3770:A 0.00147985
2 *3708:X 0.00147985
3 *3770:A *3817:A 7.34832e-05
4 *3770:A *301:26 0.000306325
5 *3770:A *302:6 9.29979e-05
6 wbs_dat_o[27] *3770:A 1.30665e-05
7 wbs_dat_o[28] *3770:A 0
8 *442:DIODE *3770:A 4.66233e-05
9 *3626:A *3770:A 0.000142856
10 *3629:A *3770:A 5.49544e-05
11 *3772:A *3770:A 0.000116964
12 *115:27 *3770:A 0
13 *115:29 *3770:A 0.000117621
*RES
1 *3708:X *3770:A 49.7786 
*END

*D_NET *228 0.0295468
*CONN
*I *3737:DI[25] I *D CF_SRAM_1024x32
*I *3709:X O *D sky130_fd_sc_hd__dlygate4sd3_1
*CAP
1 *3737:DI[25] 0.000602672
2 *3709:X 0.000119302
3 *228:10 0.00402391
4 *228:8 0.00354054
5 *130:17 *3737:DI[25] 0
6 *160:16 *228:10 0.000243926
7 *195:16 *228:8 6.57032e-05
8 *210:10 *228:10 0.00965336
9 *212:10 *228:10 0.000386704
10 *217:10 *228:10 0.0109107
*RES
1 *3709:X *228:8 15.1571 
2 *228:8 *228:10 150.393 
3 *228:10 *3737:DI[25] 14.8929 
*END

*D_NET *229 0.00096541
*CONN
*I *3771:A I *D sky130_fd_sc_hd__clkbuf_4
*I *3710:X O *D sky130_fd_sc_hd__dlygate4sd3_1
*CAP
1 *3771:A 0.00021589
2 *3710:X 0.00021589
3 *3771:A *301:36 0.000277057
4 *3771:A *302:6 9.74665e-05
5 *3771:A *351:24 3.57555e-05
6 wbs_dat_o[26] *3771:A 0.000123352
*RES
1 *3710:X *3771:A 32.3143 
*END

*D_NET *230 0.0240294
*CONN
*I *3737:DI[26] I *D CF_SRAM_1024x32
*I *3711:X O *D sky130_fd_sc_hd__dlygate4sd3_1
*CAP
1 *3737:DI[26] 0.000839647
2 *3711:X 0.000215059
3 *230:10 0.00627219
4 *230:8 0.0056476
5 *230:10 *3737:vpwrpc 0.000648911
6 *230:10 *232:10 0.000255088
7 *230:10 *239:8 0.000189491
8 *230:10 *381:14 1.01912e-05
9 *131:9 *3737:DI[26] 0
10 *160:12 *230:10 0
11 *160:16 *230:10 0
12 *168:10 *230:10 0.00521097
13 *206:10 *230:10 0.00231306
14 *215:16 *230:10 0.00242723
*RES
1 *3711:X *230:8 15.9786 
2 *230:8 *230:10 152.821 
3 *230:10 *3737:DI[26] 18.1964 
*END

*D_NET *231 0.000994037
*CONN
*I *3795:A I *D sky130_fd_sc_hd__buf_4
*I *3712:X O *D sky130_fd_sc_hd__dlygate4sd3_1
*CAP
1 *3795:A 0.000263588
2 *3712:X 0.000263588
3 *3795:A *324:14 0.00014183
4 *3795:A *339:20 6.69937e-05
5 *3782:A *3795:A 0.000111886
6 *187:14 *3795:A 0.000146151
*RES
1 *3712:X *3795:A 33.0286 
*END

*D_NET *232 0.0227315
*CONN
*I *3737:AD[4] I *D CF_SRAM_1024x32
*I *3713:X O *D sky130_fd_sc_hd__dlygate4sd3_1
*CAP
1 *3737:AD[4] 0.000820675
2 *3713:X 4.15648e-05
3 *232:10 0.00284281
4 *232:8 0.0020637
5 *232:8 *3713:A 3.69047e-06
6 *232:10 *3716:A 6.74911e-05
7 *232:10 *3737:vpwrpc 0.0017412
8 *232:10 *239:8 0.00746775
9 *3737:AD[5] *3737:AD[4] 6.67159e-05
10 *3:17 *232:10 5.18083e-05
11 *144:9 *232:8 1.32552e-05
12 *206:10 *232:10 0.00729577
13 *230:10 *232:10 0.000255088
*RES
1 *3713:X *232:8 14.3357 
2 *232:8 *232:10 98.7857 
3 *232:10 *3737:AD[4] 16.8527 
*END

*D_NET *233 0.0022729
*CONN
*I *3793:A I *D sky130_fd_sc_hd__buf_4
*I *3714:X O *D sky130_fd_sc_hd__dlygate4sd3_1
*CAP
1 *3793:A 0.000643852
2 *3714:X 0.000643852
3 *3793:A *3561:A_N 4.52607e-05
4 *3793:A *3561:B 0.000167368
5 *3793:A *334:28 5.33005e-05
6 *3793:A *339:20 6.54139e-05
7 *3793:A *366:45 4.46186e-06
8 *3793:A *370:54 1.00375e-05
9 *3561:D *3793:A 0.000112777
10 *3621:A *3793:A 1.90936e-05
11 *181:20 *3793:A 0.000507479
*RES
1 *3714:X *3793:A 39.5289 
*END

*D_NET *234 0.0208706
*CONN
*I *3737:AD[2] I *D CF_SRAM_1024x32
*I *3716:X O *D sky130_fd_sc_hd__dlygate4sd3_1
*CAP
1 *3737:AD[2] 0.000530686
2 *3716:X 0.000301356
3 *234:10 0.00252787
4 *234:8 0.00229854
5 *3737:AD[2] *3737:AD[0] 0
6 *3737:AD[2] *3737:AD[1] 4.43909e-06
7 *234:8 *470:DIODE 7.90814e-06
8 *234:8 *3737:BEN[8] 6.05161e-06
9 *234:10 *3737:BEN[5] 0.000388788
10 *234:10 *244:34 0
11 *234:10 *244:50 0.000684235
12 *129:11 *234:10 0.00802334
13 *197:10 *234:10 0.00609739
*RES
1 *3716:X *234:8 17.6214 
2 *234:8 *234:10 101.214 
3 *234:10 *3737:AD[2] 12.9062 
*END

*D_NET *235 0.000911843
*CONN
*I *3780:A I *D sky130_fd_sc_hd__buf_4
*I *3717:X O *D sky130_fd_sc_hd__dlygate4sd3_1
*CAP
1 *3780:A 0.000325595
2 *3717:X 0.000325595
3 *3780:A *3721:A 7.92857e-05
4 *3780:A *317:22 0
5 *3775:A *3780:A 0.000181368
*RES
1 *3717:X *3780:A 34.5643 
*END

*D_NET *236 0.00991825
*CONN
*I *3647:A I *D sky130_fd_sc_hd__dlygate4sd3_1
*I *3756:X O *D sky130_fd_sc_hd__buf_2
*CAP
1 *3647:A 0.000900237
2 *3756:X 0.00232971
3 *236:14 0.00322995
4 *3647:A *3649:A 0
5 *3647:A *3677:A 0.000118369
6 *3647:A *244:24 4.65158e-06
7 *3647:A *345:22 0.000610309
8 *236:14 *3807:A 0.000143344
9 *236:14 *336:38 0.000185117
10 *236:14 *344:16 0.000322785
11 *236:14 *345:22 5.47047e-05
12 wbs_dat_o[14] *236:14 8.18783e-05
13 wbs_dat_o[16] *236:14 0.000146533
14 wbs_dat_o[18] *236:14 8.18783e-05
15 *3612:A *236:14 0.000381002
16 *3652:A *3647:A 0.000266061
17 *3734:A *236:14 0.000290809
18 *121:40 *3647:A 1.89023e-05
19 *153:8 *3647:A 0.000228514
20 *162:12 *3647:A 0.000228514
21 *170:77 *3647:A 7.6644e-05
22 *225:6 *236:14 0.000218336
*RES
1 *3756:X *236:14 45.8536 
2 *236:14 *3647:A 36.6929 
*END

*D_NET *237 0.0210638
*CONN
*I *3737:AD[0] I *D CF_SRAM_1024x32
*I *3718:X O *D sky130_fd_sc_hd__dlygate4sd3_1
*CAP
1 *3737:AD[0] 0.000685545
2 *3718:X 4.5405e-05
3 *237:14 0.00184925
4 *237:12 0.00227835
5 *237:8 0.00116006
6 *3737:AD[0] *3737:AD[1] 0.000227214
7 *237:8 *317:67 1.83136e-05
8 *237:12 *3737:vpwrac 0.000778602
9 *237:12 *239:8 0.00376093
10 *237:14 *3737:vpwrac 0.000402685
11 *237:14 *239:8 0.000116527
12 *237:14 *380:14 2.26973e-05
13 *3591:A *237:12 0.0018041
14 *3737:AD[2] *3737:AD[0] 0
15 *3737:R_WB *3737:AD[0] 0
16 *3:17 *237:12 0.00105534
17 *160:10 *237:14 0.000646138
18 *160:12 *237:14 0.00114529
19 *195:24 *237:14 0.000923678
20 *217:10 *237:12 5.47743e-05
21 *217:10 *237:14 0.0040889
*RES
1 *3718:X *237:8 14.3357 
2 *237:8 *237:12 48.5804 
3 *237:12 *237:14 51.8839 
4 *237:14 *3737:AD[0] 16.317 
*END

*D_NET *238 0.00104032
*CONN
*I *3791:A I *D sky130_fd_sc_hd__buf_4
*I *3719:X O *D sky130_fd_sc_hd__dlygate4sd3_1
*CAP
1 *3791:A 0.000370149
2 *3719:X 0.000370149
3 *3791:A *3564:A_N 5.62942e-05
4 *3791:A *3593:A 8.6229e-06
5 *3791:A *3787:A 0.000101227
6 *3791:A *328:16 5.47001e-05
7 *3723:A *3791:A 7.91743e-05
8 *3775:A *3791:A 0
*RES
1 *3719:X *3791:A 34.6357 
*END

*D_NET *239 0.0223868
*CONN
*I *3737:AD[1] I *D CF_SRAM_1024x32
*I *3720:X O *D sky130_fd_sc_hd__dlygate4sd3_1
*CAP
1 *3737:AD[1] 0.000769116
2 *3720:X 0
3 *239:8 0.00288572
4 *239:6 0.00211661
5 *239:8 *3737:vpwrac 0.00173938
6 *239:8 *381:14 2.26973e-05
7 *3737:AD[0] *3737:AD[1] 0.000227214
8 *3737:AD[2] *3737:AD[1] 4.43909e-06
9 *3:17 *239:8 0.000130286
10 *160:10 *239:8 0.00034638
11 *160:12 *239:8 0.00211559
12 *195:24 *239:8 0.000494691
13 *230:10 *239:8 0.000189491
14 *232:10 *239:8 0.00746775
15 *237:12 *239:8 0.00376093
16 *237:14 *239:8 0.000116527
*RES
1 *3720:X *239:6 13.8 
2 *239:6 *239:8 101.214 
3 *239:8 *3737:AD[1] 16.5402 
*END

*D_NET *240 0.00160979
*CONN
*I *3787:A I *D sky130_fd_sc_hd__buf_12
*I *3721:X O *D sky130_fd_sc_hd__dlygate4sd3_1
*CAP
1 *3787:A 0.000425998
2 *3721:X 0.000425998
3 *3787:A *3660:A 5.65955e-05
4 *3787:A *317:22 9.41805e-05
5 *3787:A *331:20 0
6 *3723:A *3787:A 0.000505788
7 *3775:A *3787:A 0
8 *3791:A *3787:A 0.000101227
*RES
1 *3721:X *3787:A 36.9929 
*END

*D_NET *241 0.0439375
*CONN
*I *3737:BEN[8] I *D CF_SRAM_1024x32
*I *3737:BEN[9] I *D CF_SRAM_1024x32
*I *3737:BEN[10] I *D CF_SRAM_1024x32
*I *3737:BEN[11] I *D CF_SRAM_1024x32
*I *3737:BEN[12] I *D CF_SRAM_1024x32
*I *3737:BEN[13] I *D CF_SRAM_1024x32
*I *3737:BEN[14] I *D CF_SRAM_1024x32
*I *3737:BEN[15] I *D CF_SRAM_1024x32
*I *3722:X O *D sky130_fd_sc_hd__buf_12
*CAP
1 *3737:BEN[8] 0.000957503
2 *3737:BEN[9] 0.000590807
3 *3737:BEN[10] 0.00052393
4 *3737:BEN[11] 0.000578495
5 *3737:BEN[12] 0.000579428
6 *3737:BEN[13] 0.000520666
7 *3737:BEN[14] 0.00113319
8 *3737:BEN[15] 0.000120656
9 *3722:X 0.000670718
10 *241:146 0.00186356
11 *241:141 0
12 *241:134 0.00278486
13 *241:106 0.0028099
14 *241:94 0.00109449
15 *241:84 0.00159111
16 *241:48 0.00197413
17 *241:30 0.00205027
18 *241:24 0.00115961
19 *3737:BEN[8] *244:34 0
20 *241:24 *244:24 0.000778244
21 *241:24 *369:86 3.47641e-06
22 *241:48 *350:58 0.000685705
23 *241:84 *350:58 5.33005e-05
24 *241:134 *244:34 0
25 *241:146 *244:34 0
26 *3574:D *241:48 0
27 *3667:A *241:24 0
28 *3737:DI[12] *3737:BEN[12] 0
29 *3737:DI[12] *241:94 0.000299255
30 *3737:DI[12] *241:106 9.24529e-05
31 *3737:DI[14] *241:84 0.000103753
32 *3737:DI[11] *3737:BEN[11] 0
33 *3737:DI[13] *3737:BEN[13] 0
34 *3737:DI[13] *241:84 0.000369987
35 *3737:DI[13] *241:94 0.00024603
36 *3737:DI[10] *3737:BEN[10] 0
37 *116:11 *241:106 5.65295e-05
38 *118:11 *241:84 5.33005e-05
39 *125:29 *241:24 5.05163e-05
40 *127:27 *241:48 0.00173096
41 *129:11 *3737:BEN[8] 0.000744764
42 *129:11 *241:84 0.000595601
43 *129:11 *241:94 0.000811903
44 *129:11 *241:106 0.00077259
45 *129:11 *241:134 5.39655e-05
46 *129:11 *241:146 0.000670487
47 *129:19 *241:48 0
48 *129:21 *241:48 0
49 *130:19 *241:48 0.000681354
50 *130:19 *241:134 0.000418105
51 *131:25 *241:84 2.59355e-05
52 *132:19 *241:84 4.95506e-05
53 *135:9 *3737:BEN[14] 0.000710804
54 *135:9 *241:48 0.000126368
55 *139:39 *241:24 0.000723547
56 *139:39 *241:30 0.00311751
57 *139:43 *241:24 0.0012708
58 *141:11 *3737:BEN[14] 0.000719427
59 *141:11 *241:48 1.94879e-05
60 *144:9 *3737:BEN[8] 0
61 *148:12 *241:24 0.000152412
62 *148:12 *241:30 0.000182899
63 *162:24 *241:48 0.00172882
64 *164:12 *241:24 0.00132389
65 *164:12 *241:30 0.00311393
66 *173:14 *241:48 0.000384378
67 *192:20 *241:24 0
68 *199:22 *3737:BEN[14] 6.05161e-06
69 *234:8 *3737:BEN[8] 6.05161e-06
*RES
1 *3722:X *241:24 47.2464 
2 *241:24 *241:30 38.6964 
3 *241:30 *241:48 30.4415 
4 *241:48 *3737:BEN[15] 6.49107 
5 *241:48 *3737:BEN[14] 16.3482 
6 *3737:BEN[14] *241:84 22.8482 
7 *241:84 *3737:BEN[13] 11.5446 
8 *241:84 *241:94 10.4464 
9 *241:94 *3737:BEN[12] 12.6696 
10 *241:94 *241:106 9.83929 
11 *241:106 *3737:BEN[11] 12.6518 
12 *241:106 *241:134 18.7961 
13 *241:134 *3737:BEN[10] 11.6071 
14 *3737:BEN[10] *241:141 0.134615 
15 *241:134 *241:146 8.625 
16 *241:146 *3737:BEN[9] 12.9554 
17 *241:146 *3737:BEN[8] 22.8125 
*END

*D_NET *242 0.00038822
*CONN
*I *3721:A I *D sky130_fd_sc_hd__dlygate4sd3_1
*I *3723:X O *D sky130_fd_sc_hd__dlygate4sd3_1
*CAP
1 *3721:A 0.000154467
2 *3723:X 0.000154467
3 *3721:A *317:22 0
4 *3780:A *3721:A 7.92857e-05
*RES
1 *3723:X *3721:A 30.1893 
*END

*D_NET *243 0.00127595
*CONN
*I *3786:A I *D sky130_fd_sc_hd__buf_12
*I *3724:X O *D sky130_fd_sc_hd__dlygate4sd3_1
*CAP
1 *3786:A 0.00040126
2 *3724:X 0.00040126
3 *3786:A *3660:A 6.19181e-05
4 *3786:A *3717:A 1.69115e-05
5 *3786:A *3728:A 2.95726e-05
6 *3786:A *327:20 1.27249e-05
7 *3786:A *329:20 0
8 *3727:A *3786:A 0.000299001
9 *181:20 *3786:A 5.33005e-05
*RES
1 *3724:X *3786:A 34.2607 
*END

*D_NET *244 0.0521716
*CONN
*I *3737:BEN[0] I *D CF_SRAM_1024x32
*I *3737:BEN[1] I *D CF_SRAM_1024x32
*I *3737:BEN[2] I *D CF_SRAM_1024x32
*I *3737:BEN[3] I *D CF_SRAM_1024x32
*I *3737:BEN[4] I *D CF_SRAM_1024x32
*I *3737:BEN[5] I *D CF_SRAM_1024x32
*I *3737:BEN[6] I *D CF_SRAM_1024x32
*I *3737:BEN[7] I *D CF_SRAM_1024x32
*I *3725:X O *D sky130_fd_sc_hd__buf_12
*CAP
1 *3737:BEN[0] 0.000553795
2 *3737:BEN[1] 0.000931338
3 *3737:BEN[2] 0.000185291
4 *3737:BEN[3] 0.000186183
5 *3737:BEN[4] 0.000161587
6 *3737:BEN[5] 0.00130622
7 *3737:BEN[6] 0.000611674
8 *3737:BEN[7] 0.00052968
9 *3725:X 0.000443946
10 *244:106 0.000724472
11 *244:94 0.000527196
12 *244:82 0.000639156
13 *244:50 0.00192059
14 *244:38 0.000891085
15 *244:34 0.0020542
16 *244:32 0.00296249
17 *244:28 0.00278027
18 *244:24 0.00245653
19 *244:12 0.00108902
20 *244:12 *3722:A 0.000357146
21 *244:12 *328:18 0.00139651
22 *244:24 *3649:A 1.90936e-05
23 *244:24 *328:18 0.00218729
24 *244:24 *369:86 0.000730713
25 *244:28 *3576:A_N 0.000517821
26 *244:28 *3577:C 0.000683436
27 *244:28 *328:32 0.00228335
28 *244:28 *371:153 0.000694136
29 *244:32 *301:36 0
30 *244:34 *317:52 0.0044178
31 *244:34 *317:67 0.000240965
32 *430:DIODE *244:32 3.10885e-05
33 *3647:A *244:24 4.65158e-06
34 *3737:BEN[8] *244:34 0
35 *3737:DI[5] *244:82 0
36 *3737:DI[1] *3737:BEN[0] 0
37 *3737:DI[6] *3737:BEN[6] 1.07719e-05
38 *3737:DI[15] *244:32 0
39 *116:11 *244:32 0.000106619
40 *116:11 *244:34 0.00175233
41 *129:11 *244:34 0
42 *130:19 *3737:BEN[0] 0.000280835
43 *130:19 *3737:BEN[1] 0.000200343
44 *130:19 *244:106 0.000200343
45 *133:21 *3737:BEN[6] 2.45503e-05
46 *133:23 *244:32 0.00258376
47 *133:23 *244:34 0.000291108
48 *135:7 *3737:BEN[1] 0
49 *135:9 *3737:BEN[1] 0.000314664
50 *135:9 *244:94 0.000224407
51 *135:9 *244:106 0.00044152
52 *139:9 *3737:BEN[3] 0
53 *139:39 *244:24 0.000254143
54 *139:43 *244:12 0.00147379
55 *139:43 *244:24 7.98559e-05
56 *141:9 *3737:BEN[5] 0
57 *146:28 *3737:BEN[0] 0.000244274
58 *146:28 *3737:BEN[1] 0.000801008
59 *146:28 *244:82 0.000610779
60 *146:28 *244:94 0.000737624
61 *146:28 *244:106 0.000798586
62 *177:24 *244:32 0.00171654
63 *197:10 *3737:BEN[5] 0.000347861
64 *199:24 *244:82 0.000610779
65 *199:24 *244:94 0.000296304
66 *201:8 *3737:BEN[7] 7.89427e-05
67 *201:8 *244:38 4.53295e-05
68 *204:8 *3737:BEN[5] 6.05161e-06
69 *219:28 *244:28 1.38323e-05
70 *219:40 *244:28 0.00125463
71 *234:10 *3737:BEN[5] 0.000388788
72 *234:10 *244:34 0
73 *234:10 *244:50 0.000684235
74 *241:24 *244:24 0.000778244
75 *241:134 *244:34 0
76 *241:146 *244:34 0
*RES
1 *3725:X *244:12 29.5054 
2 *244:12 *244:24 31.7768 
3 *244:24 *244:28 46.5179 
4 *244:28 *244:32 34.2054 
5 *244:32 *244:34 65.8482 
6 *244:34 *244:38 5.85714 
7 *244:38 *3737:BEN[7] 7.6875 
8 *244:38 *244:50 13.125 
9 *244:50 *3737:BEN[6] 13.4196 
10 *244:50 *3737:BEN[5] 24.3482 
11 *3737:BEN[5] *244:82 15.4196 
12 *244:82 *3737:BEN[4] 7.09821 
13 *244:82 *244:94 9.23214 
14 *244:94 *3737:BEN[3] 7.72321 
15 *244:94 *244:106 9.83929 
16 *244:106 *3737:BEN[2] 7.74107 
17 *244:106 *3737:BEN[1] 17.5982 
18 *3737:BEN[1] *3737:BEN[0] 20.875 
*END

*D_NET *245 0.00102359
*CONN
*I *3724:A I *D sky130_fd_sc_hd__dlygate4sd3_1
*I *3727:X O *D sky130_fd_sc_hd__dlygate4sd3_1
*CAP
1 *3724:A 0.000508767
2 *3727:X 0.000508767
3 *3727:A *3724:A 6.05161e-06
4 *3763:A *3724:A 0
*RES
1 *3727:X *3724:A 33.8857 
*END

*D_NET *246 0.00304333
*CONN
*I *3788:A I *D sky130_fd_sc_hd__buf_12
*I *3728:X O *D sky130_fd_sc_hd__dlygate4sd3_1
*CAP
1 *3788:A 0.000754897
2 *3728:X 0.000754897
3 *3788:A *3706:A 1.58163e-05
4 *3788:A *3789:A 5.69285e-05
5 *3788:A *335:12 0.000519863
6 *3788:A *336:24 0
7 wbs_dat_o[2] *3788:A 0.000197984
8 *3730:A *3788:A 5.52238e-05
9 *181:20 *3788:A 0.000687723
*RES
1 *3728:X *3788:A 41.6357 
*END

*D_NET *247 0.0104353
*CONN
*I *3649:A I *D sky130_fd_sc_hd__dlygate4sd3_1
*I *3757:X O *D sky130_fd_sc_hd__buf_2
*CAP
1 *3649:A 0.00107613
2 *3757:X 0.00231661
3 *247:8 0.00339274
4 *3649:A *3812:A 0
5 *247:8 *281:20 0.000656352
6 *3647:A *3649:A 0
7 *121:40 *3649:A 1.6557e-05
8 *127:27 *3649:A 0
9 *153:8 *3649:A 0.000313897
10 *159:10 *247:8 0.000546301
11 *162:12 *3649:A 0.000313897
12 *214:12 *247:8 0.00178372
13 *244:24 *3649:A 1.90936e-05
*RES
1 *3757:X *247:8 46.7821 
2 *247:8 *3649:A 30.5857 
*END

*D_NET *248 0.0330179
*CONN
*I *3737:BEN[23] I *D CF_SRAM_1024x32
*I *3737:BEN[22] I *D CF_SRAM_1024x32
*I *3737:BEN[21] I *D CF_SRAM_1024x32
*I *3737:BEN[20] I *D CF_SRAM_1024x32
*I *3737:BEN[19] I *D CF_SRAM_1024x32
*I *3737:BEN[18] I *D CF_SRAM_1024x32
*I *3737:BEN[17] I *D CF_SRAM_1024x32
*I *3737:BEN[16] I *D CF_SRAM_1024x32
*I *3729:X O *D sky130_fd_sc_hd__buf_12
*CAP
1 *3737:BEN[23] 0.000681648
2 *3737:BEN[22] 0.00141108
3 *3737:BEN[21] 0.00015997
4 *3737:BEN[20] 0.000152704
5 *3737:BEN[19] 0.000104203
6 *3737:BEN[18] 0.000150839
7 *3737:BEN[17] 0.000118194
8 *3737:BEN[16] 0.00149165
9 *3729:X 4.22834e-05
10 *248:75 0.00147097
11 *248:63 0.00123875
12 *248:51 0.00120688
13 *248:39 0.00126746
14 *248:27 0.00115751
15 *248:10 0.00346164
16 *248:8 0.00253316
17 *248:10 *3685:A 0.00130185
18 *248:10 *3737:vpwrpc 0.00061185
19 *248:10 *251:8 0.00581465
20 *248:10 *302:22 0.00168874
21 *248:10 *303:36 0.00011667
22 *248:27 *3737:WLBI 0
23 *248:27 *3737:TM 0.000203787
24 *3737:CLKin *3737:BEN[17] 0
25 *122:17 *248:39 1.94879e-05
26 *123:17 *248:51 1.94879e-05
27 *125:17 *248:63 1.94879e-05
28 *126:17 *248:75 1.94879e-05
29 *127:17 *3737:BEN[22] 1.94879e-05
30 *128:9 *3737:BEN[23] 0
31 *130:19 *3737:BEN[23] 0.000269784
32 *130:19 *248:51 0.000206726
33 *132:11 *3737:BEN[22] 0
34 *132:11 *3737:BEN[23] 0
35 *132:11 *248:27 0
36 *132:11 *248:39 0
37 *132:11 *248:51 0
38 *132:11 *248:63 0
39 *132:11 *248:75 0
40 *168:10 *248:10 0.00139959
41 *193:12 *248:10 0.000195469
42 *193:14 *248:10 0.00437552
43 *195:26 *248:27 8.6889e-05
44 *223:10 *248:10 0
*RES
1 *3729:X *248:8 14.3357 
2 *248:8 *248:10 109.411 
3 *248:10 *3737:BEN[16] 19 
4 *3737:BEN[16] *248:27 15.0536 
5 *248:27 *3737:BEN[17] 6.64286 
6 *248:27 *248:39 9.23214 
7 *248:39 *3737:BEN[18] 7.26786 
8 *248:39 *248:51 10.75 
9 *248:51 *3737:BEN[19] 6.375 
10 *248:51 *248:63 8.92857 
11 *248:63 *3737:BEN[20] 7.30357 
12 *248:63 *248:75 9.83929 
13 *248:75 *3737:BEN[21] 7.32143 
14 *248:75 *3737:BEN[22] 17.1786 
15 *3737:BEN[22] *3737:BEN[23] 20.875 
*END

*D_NET *249 0.00239071
*CONN
*I *3728:A I *D sky130_fd_sc_hd__dlygate4sd3_1
*I *3730:X O *D sky130_fd_sc_hd__dlygate4sd3_1
*CAP
1 *3728:A 0.000493581
2 *3730:X 0.000493581
3 *3728:A *327:20 0.00038211
4 wbs_dat_o[0] *3728:A 0.000117239
5 *3727:A *3728:A 0.00029258
6 *3730:A *3728:A 0.000142856
7 *3751:A *3728:A 0.000150618
8 *3786:A *3728:A 2.95726e-05
9 *181:20 *3728:A 0.000288576
*RES
1 *3730:X *3728:A 42.5464 
*END

*D_NET *250 0.00264796
*CONN
*I *3789:A I *D sky130_fd_sc_hd__buf_12
*I *3731:X O *D sky130_fd_sc_hd__dlygate4sd3_1
*CAP
1 *3789:A 0.000495354
2 *3731:X 0.000495354
3 *3789:A *3706:A 4.59075e-05
4 *3789:A *325:8 6.69296e-05
5 *3789:A *336:24 0.000535745
6 *3789:A *336:36 1.67291e-05
7 wbs_dat_o[2] *3789:A 0.000173083
8 *3640:A *3789:A 0.000166407
9 *3641:A *3789:A 0
10 *3730:A *3789:A 7.77652e-05
11 *3788:A *3789:A 5.69285e-05
12 *115:41 *3789:A 0.000517759
*RES
1 *3731:X *3789:A 42.0821 
*END

*D_NET *251 0.0375412
*CONN
*I *3737:BEN[31] I *D CF_SRAM_1024x32
*I *3737:BEN[30] I *D CF_SRAM_1024x32
*I *3737:BEN[29] I *D CF_SRAM_1024x32
*I *3737:BEN[28] I *D CF_SRAM_1024x32
*I *3737:BEN[27] I *D CF_SRAM_1024x32
*I *3737:BEN[26] I *D CF_SRAM_1024x32
*I *3737:BEN[25] I *D CF_SRAM_1024x32
*I *3737:BEN[24] I *D CF_SRAM_1024x32
*I *3732:X O *D sky130_fd_sc_hd__buf_12
*CAP
1 *3737:BEN[31] 0.000535707
2 *3737:BEN[30] 0.000139334
3 *3737:BEN[29] 8.93753e-05
4 *3737:BEN[28] 0.00120194
5 *3737:BEN[27] 0.00124533
6 *3737:BEN[26] 8.93753e-05
7 *3737:BEN[25] 0.00123349
8 *3737:BEN[24] 9.86063e-05
9 *3732:X 0
10 *251:116 6.93745e-06
11 *251:97 0.00131896
12 *251:85 0.00137636
13 *251:41 0.0013741
14 *251:12 0.00170626
15 *251:8 0.0044076
16 *251:6 0.00342823
17 *251:8 *3737:vpwrpc 0.00023328
18 *3737:DI[27] *3737:BEN[27] 0
19 *3737:DI[28] *3737:BEN[28] 0.000398452
20 *130:17 *3737:BEN[24] 0
21 *130:17 *3737:BEN[25] 1.94879e-05
22 *131:9 *251:41 1.05901e-05
23 *132:11 *3737:BEN[25] 0
24 *132:11 *3737:BEN[27] 0
25 *132:11 *251:41 0
26 *133:9 *3737:BEN[28] 1.36589e-05
27 *133:11 *3737:BEN[27] 0
28 *133:11 *3737:BEN[28] 0
29 *134:9 *251:85 0
30 *137:11 *3737:BEN[30] 0
31 *168:10 *251:8 0.00227652
32 *175:8 *251:8 0.00962793
33 *223:10 *251:8 0.000894985
34 *248:10 *251:8 0.00581465
*RES
1 *3732:X *251:6 13.8 
2 *251:6 *251:8 151.304 
3 *251:8 *251:12 18.1786 
4 *251:12 *3737:BEN[24] 1.76786 
5 *251:12 *3737:BEN[25] 20.2143 
6 *3737:BEN[25] *251:41 14.7857 
7 *251:41 *3737:BEN[26] 6.08929 
8 *251:41 *3737:BEN[27] 15.9464 
9 *3737:BEN[27] *3737:BEN[28] 21.6964 
10 *3737:BEN[28] *251:85 15.9464 
11 *251:85 *3737:BEN[29] 6.08929 
12 *251:85 *251:97 10.75 
13 *251:97 *3737:BEN[30] 6.98214 
14 *251:97 *3737:BEN[31] 13.7679 
15 *3737:BEN[31] *251:116 0.125 
*END

*D_NET *252 0.00337469
*CONN
*I *3731:A I *D sky130_fd_sc_hd__dlygate4sd3_1
*I *3733:X O *D sky130_fd_sc_hd__dlygate4sd3_1
*CAP
1 *3731:A 0.000741667
2 *3733:X 0.000741667
3 *3731:A *3809:A 0.000372311
4 *3731:A *329:20 0.000269428
5 wbs_dat_o[1] *3731:A 9.90367e-05
6 *3641:A *3731:A 0.000269428
7 *3642:A *3731:A 0.000371725
8 *3730:A *3731:A 0.000498165
9 *170:28 *3731:A 1.12566e-05
*RES
1 *3733:X *3731:A 42.8857 
*END

*D_NET *253 0.00033023
*CONN
*I *3599:A I *D sky130_fd_sc_hd__dlygate4sd3_1
*I *3734:X O *D sky130_fd_sc_hd__dlygate4sd3_1
*CAP
1 *3599:A 0.0001375
2 *3734:X 0.0001375
3 *3615:A *3599:A 0
4 *159:10 *3599:A 5.52302e-05
*RES
1 *3734:X *3599:A 29.7786 
*END

*D_NET *254 0.00210535
*CONN
*I *3646:A I *D sky130_fd_sc_hd__dlygate4sd3_1
*I *3735:X O *D sky130_fd_sc_hd__dlygate4sd3_1
*CAP
1 *3646:A 0.000613441
2 *3735:X 0.000613441
3 *3646:A *325:26 0.00048939
4 wbs_dat_o[14] *3646:A 0
5 *3734:A *3646:A 0
6 *3756:A *3646:A 0.000229456
7 *115:39 *3646:A 0.000142053
8 *159:10 *3646:A 1.75642e-05
*RES
1 *3735:X *3646:A 39.2429 
*END

*D_NET *255 0.000689483
*CONN
*I *3651:A I *D sky130_fd_sc_hd__dlygate4sd3_1
*I *3736:X O *D sky130_fd_sc_hd__dlygate4sd3_1
*CAP
1 *3651:A 0.000182665
2 *3736:X 0.000182665
3 *3651:A *321:22 0
4 *3651:A *337:40 2.33992e-05
5 *3755:A *3651:A 7.44888e-05
6 *159:10 *3651:A 0.000226264
*RES
1 *3736:X *3651:A 31.4214 
*END

*D_NET *256 0.00198531
*CONN
*I *3657:A I *D sky130_fd_sc_hd__dlygate4sd3_1
*I *3601:X O *D sky130_fd_sc_hd__dlygate4sd3_1
*CAP
1 *3657:A 0.000759518
2 *3601:X 0.000759518
3 *3736:A *3657:A 0
4 *115:39 *3657:A 0.000299592
5 *115:41 *3657:A 0.000166679
*RES
1 *3601:X *3657:A 38.3679 
*END

*D_NET *257 0.00216717
*CONN
*I *3666:A I *D sky130_fd_sc_hd__dlygate4sd3_1
*I *3602:X O *D sky130_fd_sc_hd__dlygate4sd3_1
*CAP
1 *3666:A 0.000760911
2 *3602:X 0.000760911
3 *3666:A *3725:A 0
4 *3666:A *336:38 0.000645351
*RES
1 *3602:X *3666:A 37.9571 
*END

*D_NET *258 0.0438629
*CONN
*I *3687:A I *D sky130_fd_sc_hd__dlygate4sd3_1
*I *3758:X O *D sky130_fd_sc_hd__buf_4
*CAP
1 *3687:A 9.27091e-05
2 *3758:X 0.000192667
3 *258:30 0.00207004
4 *258:28 0.00330096
5 *258:14 0.0076936
6 *258:12 0.00656264
7 *258:12 *320:12 7.6644e-05
8 *258:12 *332:42 0
9 *258:12 *350:20 6.05161e-06
10 *258:12 *367:52 4.23868e-05
11 *258:14 *339:42 5.49166e-05
12 *258:14 *361:14 0.000323305
13 *258:28 *3817:A 9.49939e-05
14 *258:28 *302:20 1.39429e-05
15 *258:28 *304:14 0.000176202
16 *258:28 *308:8 0.000355978
17 *258:28 *339:42 0.000829062
18 *258:30 *3737:vpwrpc 0.00115146
19 *258:30 *302:20 9.12885e-05
20 *258:30 *327:65 0.000170769
21 *258:30 *327:69 9.49984e-05
22 *258:30 *339:52 0.00193258
23 *258:30 *339:54 1.20719e-05
24 *258:30 *350:60 0.00358748
25 *408:DIODE *258:28 0.0001839
26 *3785:A *258:12 0.000165027
27 *3:17 *258:28 6.86157e-05
28 *3:17 *258:30 0.000199109
29 *111:14 *258:12 2.89016e-05
30 *113:31 *258:14 0.00947741
31 *118:11 *258:30 0.00198503
32 *145:73 *258:14 0.000179039
33 *206:8 *3687:A 1.83136e-05
34 *219:40 *258:30 0.000763012
35 *219:42 *258:30 0.0018678
*RES
1 *3758:X *258:12 22.3 
2 *258:12 *258:14 91.7143 
3 *258:14 *258:28 25.4911 
4 *258:28 *258:30 82.2411 
5 *258:30 *3687:A 15.1571 
*END

*D_NET *259 0.038632
*CONN
*I *3683:A I *D sky130_fd_sc_hd__dlygate4sd3_1
*I *3759:X O *D sky130_fd_sc_hd__clkbuf_4
*CAP
1 *3683:A 7.54338e-05
2 *3759:X 0.00027232
3 *259:36 0.00120551
4 *259:30 0.00195812
5 *259:26 0.00132881
6 *259:22 0.00183622
7 *259:16 0.00389646
8 *259:14 0.00283333
9 *259:16 *326:14 0.00034251
10 *259:22 *3815:A 8.44271e-06
11 *259:22 *270:36 0.000486365
12 *259:22 *348:14 0.000826419
13 *259:22 *351:24 7.39877e-05
14 *259:26 *270:36 0.00138368
15 *259:30 *3674:A 0.00079988
16 *259:30 *292:18 0.00349987
17 *259:30 *305:10 0.00349987
18 *259:36 *3685:A 0.000535087
19 *259:36 *3713:A 0.000535907
20 *259:36 *3720:A 0.000435377
21 *259:36 *270:38 0.000532157
22 *259:36 *302:22 0.00321894
23 wbs_dat_o[15] *259:14 5.52238e-05
24 wbs_dat_o[25] *259:22 7.2754e-05
25 *416:DIODE *259:16 0.000273449
26 *441:DIODE *259:26 0.000105471
27 *3615:A *259:14 2.34969e-05
28 *3737:DI[11] *259:36 0.000541646
29 *3759:A *259:14 7.83659e-05
30 *115:13 *259:36 7.4826e-05
31 *115:29 *259:14 0.000102449
32 *115:29 *259:16 0.00571918
33 *115:39 *259:14 8.43535e-06
34 *131:31 *259:22 0.000229159
35 *132:33 *259:22 0
36 *132:35 *259:22 0
37 *132:37 *259:22 0
38 *159:40 *259:22 0
39 *159:44 *259:26 0.00171608
40 *193:12 *259:36 4.67458e-05
*RES
1 *3759:X *259:14 22.5589 
2 *259:14 *259:16 54.5446 
3 *259:16 *259:22 35.5357 
4 *259:22 *259:26 21.4643 
5 *259:26 *259:30 48.6429 
6 *259:30 *259:36 47.4821 
7 *259:36 *3683:A 14.7464 
*END

*D_NET *260 0.000294612
*CONN
*I *3682:A I *D sky130_fd_sc_hd__dlygate4sd3_1
*I *3603:X O *D sky130_fd_sc_hd__dlygate4sd3_1
*CAP
1 *3682:A 7.08056e-05
2 *3603:X 7.08056e-05
3 *3682:A *3725:A 0.000124657
4 *3682:A *333:46 9.25014e-06
5 *3603:A *3682:A 0
6 *3752:A *3682:A 0
7 *192:20 *3682:A 1.90936e-05
*RES
1 *3603:X *3682:A 29.2429 
*END

*D_NET *261 0.000673994
*CONN
*I *3633:A I *D sky130_fd_sc_hd__dlygate4sd3_1
*I *3604:X O *D sky130_fd_sc_hd__dlygate4sd3_1
*CAP
1 *3633:A 0.000151878
2 *3604:X 0.000151878
3 *3633:A *332:42 0
4 *3633:A *333:46 0.000185118
5 *159:8 *3633:A 0.000185118
*RES
1 *3604:X *3633:A 31.0107 
*END

*D_NET *262 0.000104357
*CONN
*I *3653:A I *D sky130_fd_sc_hd__dlygate4sd3_1
*I *3605:X O *D sky130_fd_sc_hd__dlygate4sd3_1
*CAP
1 *3653:A 7.67105e-06
2 *3605:X 7.67105e-06
3 *3653:A *336:38 3.18676e-05
4 *3605:A *3653:A 5.71472e-05
*RES
1 *3605:X *3653:A 19.1357 
*END

*D_NET *263 0.000229182
*CONN
*I *3662:A I *D sky130_fd_sc_hd__dlygate4sd3_1
*I *3606:X O *D sky130_fd_sc_hd__dlygate4sd3_1
*CAP
1 *3662:A 8.59634e-05
2 *3606:X 8.59634e-05
3 *3796:A *3662:A 5.72546e-05
*RES
1 *3606:X *3662:A 29.2429 
*END

*D_NET *264 0.000440619
*CONN
*I *3664:A I *D sky130_fd_sc_hd__dlygate4sd3_1
*I *3607:X O *D sky130_fd_sc_hd__dlygate4sd3_1
*CAP
1 *3664:A 0.000168416
2 *3607:X 0.000168416
3 *3639:A *3664:A 2.8266e-06
4 *115:41 *3664:A 0.00010096
*RES
1 *3607:X *3664:A 30.1893 
*END

*D_NET *265 0.00111059
*CONN
*I *3670:A I *D sky130_fd_sc_hd__dlygate4sd3_1
*I *3608:X O *D sky130_fd_sc_hd__dlygate4sd3_1
*CAP
1 *3670:A 0.000343192
2 *3608:X 0.000343192
3 *3670:A *341:20 0
4 *3670:A *344:16 0
5 wbs_dat_o[18] *3670:A 6.41279e-05
6 *3608:A *3670:A 0.000129595
7 *115:29 *3670:A 0.000230482
*RES
1 *3608:X *3670:A 34.7607 
*END

*D_NET *266 0.00309558
*CONN
*I *3668:A I *D sky130_fd_sc_hd__dlygate4sd3_1
*I *3609:X O *D sky130_fd_sc_hd__dlygate4sd3_1
*CAP
1 *3668:A 0.000921929
2 *3609:X 0.000921929
3 *3588:RESET_B *3668:A 0.000237833
4 *187:14 *3668:A 0.00101389
*RES
1 *3609:X *3668:A 31.9036 
*END

*D_NET *267 0.00106021
*CONN
*I *3684:A I *D sky130_fd_sc_hd__dlygate4sd3_1
*I *3610:X O *D sky130_fd_sc_hd__dlygate4sd3_1
*CAP
1 *3684:A 0.000339467
2 *3610:X 0.000339467
3 *3684:A *3677:A 0
4 wbs_dat_o[20] *3684:A 9.11286e-05
5 *3610:A *3684:A 0.000103897
6 *3616:A *3684:A 0
7 *115:29 *3684:A 0.000186247
*RES
1 *3610:X *3684:A 34.35 
*END

*D_NET *268 0.00112832
*CONN
*I *3675:A I *D sky130_fd_sc_hd__dlygate4sd3_1
*I *3612:X O *D sky130_fd_sc_hd__dlygate4sd3_1
*CAP
1 *3675:A 0.000297239
2 *3612:X 0.000297239
3 *3675:A *341:20 0
4 *3760:A *3675:A 0.00010096
5 *159:10 *3675:A 0.000432877
*RES
1 *3612:X *3675:A 33.475 
*END

*D_NET *269 0.000630576
*CONN
*I *3677:A I *D sky130_fd_sc_hd__dlygate4sd3_1
*I *3613:X O *D sky130_fd_sc_hd__dlygate4sd3_1
*CAP
1 *3677:A 0.000140387
2 *3613:X 0.000140387
3 *3677:A *270:20 6.57032e-05
4 *3647:A *3677:A 0.000118369
5 *3684:A *3677:A 0
6 *3762:A *3677:A 3.07021e-05
7 *159:10 *3677:A 0.000135028
*RES
1 *3613:X *3677:A 30.6 
*END

*D_NET *270 0.0353879
*CONN
*I *3676:A I *D sky130_fd_sc_hd__dlygate4sd3_1
*I *3760:X O *D sky130_fd_sc_hd__clkbuf_4
*CAP
1 *3676:A 0
2 *3760:X 0.00183798
3 *270:38 0.0018718
4 *270:36 0.00351728
5 *270:28 0.00257487
6 *270:20 0.00276737
7 *270:20 *301:26 0.000141931
8 *270:28 *292:8 0.00023831
9 *270:28 *345:22 0.000605235
10 *270:36 *303:28 0.00143257
11 *270:36 *303:34 2.33546e-05
12 *270:38 *3737:vpwrpc 0.0014238
13 wbs_dat_o[21] *270:28 0.000119821
14 *414:DIODE *270:28 0.000140029
15 *429:DIODE *270:36 0.000464471
16 *3618:A *270:28 0.000441768
17 *3677:A *270:20 6.57032e-05
18 *3761:A *270:20 9.41642e-05
19 *3762:A *270:20 5.47047e-05
20 *3764:A *270:20 9.91033e-05
21 *115:13 *270:38 0.000745963
22 *115:17 *270:38 1.09232e-05
23 *117:13 *270:38 0.00259819
24 *159:10 *270:20 0.000728736
25 *159:32 *270:20 7.29646e-05
26 *159:32 *270:28 0.000604496
27 *159:40 *270:28 0.000454865
28 *159:40 *270:36 0.000148398
29 *159:44 *270:36 6.7224e-05
30 *173:14 *270:36 0.00069109
31 *186:26 *270:38 0.000424243
32 *193:12 *270:38 0.00146138
33 *219:42 *270:38 0.00706292
34 *259:22 *270:36 0.000486365
35 *259:26 *270:36 0.00138368
36 *259:36 *270:38 0.000532157
*RES
1 *3760:X *270:20 44.2821 
2 *270:20 *270:28 27.3571 
3 *270:28 *270:36 48.625 
4 *270:36 *270:38 89.375 
5 *270:38 *3676:A 13.8 
*END

*D_NET *271 0.00109966
*CONN
*I *3690:A I *D sky130_fd_sc_hd__dlygate4sd3_1
*I *3614:X O *D sky130_fd_sc_hd__dlygate4sd3_1
*CAP
1 *3690:A 5.45556e-05
2 *3614:X 5.45556e-05
3 *3690:A *281:30 0.000495276
4 *3690:A *301:26 0.000495276
*RES
1 *3614:X *3690:A 23.2429 
*END

*D_NET *272 0.00214119
*CONN
*I *3681:A I *D sky130_fd_sc_hd__dlygate4sd3_1
*I *3615:X O *D sky130_fd_sc_hd__dlygate4sd3_1
*CAP
1 *3681:A 0.000367445
2 *3615:X 0.000367445
3 *3681:A *3806:A 0.000175892
4 *3681:A *325:26 0.000402777
5 *3681:A *338:16 0.000118488
6 *3681:A *340:16 0
7 wbs_dat_o[16] *3681:A 9.60298e-05
8 *3612:A *3681:A 0
9 *3759:A *3681:A 4.97567e-06
10 *115:29 *3681:A 0.000608135
*RES
1 *3615:X *3681:A 37.85 
*END

*D_NET *273 0.00174485
*CONN
*I *3688:A I *D sky130_fd_sc_hd__dlygate4sd3_1
*I *3616:X O *D sky130_fd_sc_hd__dlygate4sd3_1
*CAP
1 *3688:A 0.000249704
2 *3616:X 0.000249704
3 *3688:A *3813:A 0.00044299
4 wbs_dat_o[21] *3688:A 0
5 *3614:A *3688:A 0.000147132
6 *115:29 *3688:A 0.000655317
*RES
1 *3616:X *3688:A 35.8321 
*END

*D_NET *274 0.000140507
*CONN
*I *3679:A I *D sky130_fd_sc_hd__dlygate4sd3_1
*I *3617:X O *D sky130_fd_sc_hd__dlygate4sd3_1
*CAP
1 *3679:A 1.69531e-05
2 *3617:X 1.69531e-05
3 *3617:A *3679:A 5.33005e-05
4 *187:14 *3679:A 5.33005e-05
*RES
1 *3617:X *3679:A 19.1357 
*END

*D_NET *275 0.000953424
*CONN
*I *3692:A I *D sky130_fd_sc_hd__dlygate4sd3_1
*I *3618:X O *D sky130_fd_sc_hd__dlygate4sd3_1
*CAP
1 *3692:A 0.000321623
2 *3618:X 0.000321623
3 *3692:A *303:16 6.8796e-05
4 *3692:A *304:10 0
5 *3692:A *350:42 0.000112418
6 *3619:A *3692:A 5.16867e-05
7 *121:40 *3692:A 7.72783e-05
*RES
1 *3618:X *3692:A 33.85 
*END

*D_NET *276 0.000297416
*CONN
*I *3697:A I *D sky130_fd_sc_hd__dlygate4sd3_1
*I *3619:X O *D sky130_fd_sc_hd__dlygate4sd3_1
*CAP
1 *3697:A 4.65546e-05
2 *3619:X 4.65546e-05
3 *3697:A *281:30 0.000136682
4 *3697:A *301:26 6.76254e-05
*RES
1 *3619:X *3697:A 19.9571 
*END

*D_NET *277 0.00283302
*CONN
*I *3660:A I *D sky130_fd_sc_hd__dlygate4sd3_1
*I *3620:X O *D sky130_fd_sc_hd__dlygate4sd3_1
*CAP
1 *3660:A 0.000703103
2 *3620:X 0.000703103
3 *3660:A *3717:A 0.000426806
4 *3660:A *317:22 0.000104642
5 wbs_dat_o[0] *3660:A 0.000140933
6 *3727:A *3660:A 0.000139056
7 *3751:A *3660:A 0.000143789
8 *3775:A *3660:A 0.000353079
9 *3786:A *3660:A 6.19181e-05
10 *3787:A *3660:A 5.65955e-05
*RES
1 *3620:X *3660:A 43.0107 
*END

*D_NET *278 0.0032882
*CONN
*I *3699:A I *D sky130_fd_sc_hd__dlygate4sd3_1
*I *3621:X O *D sky130_fd_sc_hd__dlygate4sd3_1
*CAP
1 *3699:A 0.000779291
2 *3621:X 0.000779291
3 *3699:A *3561:C 3.69697e-05
4 *3699:A *327:20 5.30637e-06
5 *3699:A *328:16 0.000695357
6 *3699:A *335:12 8.91726e-05
7 *3699:A *336:24 2.37761e-05
8 *3699:A *366:32 0.000159341
9 *3699:A *368:30 1.3807e-05
10 *3699:A *368:34 0.000125211
11 *3699:A *369:12 1.65758e-05
12 *3699:A *370:48 4.1879e-05
13 *461:DIODE *3699:A 4.70078e-05
14 *3778:A *3699:A 5.52238e-05
15 *117:21 *3699:A 0.000108803
16 *181:20 *3699:A 0.00031119
*RES
1 *3621:X *3699:A 45.3143 
*END

*D_NET *279 0.00254695
*CONN
*I *3708:A I *D sky130_fd_sc_hd__dlygate4sd3_1
*I *3623:X O *D sky130_fd_sc_hd__dlygate4sd3_1
*CAP
1 *3708:A 0.00042156
2 *3623:X 0.00042156
3 *3708:A *348:14 0
4 wbs_dat_o[24] *3708:A 0.000389692
5 *426:DIODE *3708:A 5.77425e-05
6 *3623:A *3708:A 0.000225838
7 *3627:A *3708:A 0.000181564
8 *115:29 *3708:A 0.000814117
9 *132:49 *3708:A 3.48755e-05
*RES
1 *3623:X *3708:A 40.5107 
*END

*D_NET *280 0.0011135
*CONN
*I *3704:A I *D sky130_fd_sc_hd__dlygate4sd3_1
*I *3624:X O *D sky130_fd_sc_hd__dlygate4sd3_1
*CAP
1 *3704:A 0.000274733
2 *3624:X 0.000274733
3 wbs_dat_o[27] *3704:A 0.000143142
4 *3624:A *3704:A 0.000137515
5 *3772:A *3704:A 0.000138584
6 *3:17 *3704:A 0.000144789
*RES
1 *3624:X *3704:A 33.3679 
*END

*D_NET *281 0.0357455
*CONN
*I *3672:A I *D sky130_fd_sc_hd__dlygate4sd3_1
*I *3761:X O *D sky130_fd_sc_hd__clkbuf_4
*CAP
1 *3672:A 7.42676e-05
2 *3761:X 0.000936009
3 *281:38 0.00181048
4 *281:36 0.00237378
5 *281:30 0.00173689
6 *281:20 0.00203533
7 *281:20 *3813:A 7.54868e-05
8 *281:20 *301:26 0.00018172
9 *281:20 *302:6 0.00050602
10 *281:30 *3817:A 0.000857943
11 *281:30 *292:16 0
12 *281:30 *301:26 0.000872933
13 *281:30 *302:6 0.00203329
14 *281:30 *339:42 3.67086e-05
15 *281:36 *3713:A 0.000143439
16 *281:36 *292:18 0.0007433
17 *281:36 *302:20 0.000305758
18 *281:36 *302:22 1.9814e-05
19 *281:36 *305:10 0.000169618
20 *281:38 *3713:A 0.00104821
21 *281:38 *292:18 1.53472e-05
22 *281:38 *302:22 0.00712749
23 *281:38 *303:36 0.00709258
24 *3577:D *281:30 0.000152037
25 *3614:A *281:20 0.000136682
26 *3619:A *281:30 5.52302e-05
27 *3627:A *281:30 5.94923e-05
28 *3690:A *281:30 0.000495276
29 *3697:A *281:30 0.000136682
30 *113:29 *281:30 0.000172513
31 *115:27 *281:36 0.000463402
32 *120:30 *281:30 0.000311957
33 *129:52 *281:20 7.54868e-05
34 *132:39 *281:30 0.000121421
35 *132:41 *281:30 0.000183538
36 *132:47 *281:30 0.00017382
37 *132:49 *281:30 2.84494e-05
38 *139:29 *281:30 0.000550886
39 *142:9 *3672:A 0.000175892
40 *159:10 *281:20 0.00154777
41 *190:8 *3672:A 5.21937e-05
42 *247:8 *281:20 0.000656352
*RES
1 *3761:X *281:20 41.5143 
2 *281:20 *281:30 49.625 
3 *281:30 *281:36 22.0089 
4 *281:36 *281:38 90.1339 
5 *281:38 *3672:A 15.5679 
*END

*D_NET *282 0.000432812
*CONN
*I *3726:A I *D sky130_fd_sc_hd__dlygate4sd3_1
*I *3625:X O *D sky130_fd_sc_hd__dlygate4sd3_1
*CAP
1 *3726:A 0.000129445
2 *3625:X 0.000129445
3 *170:14 *3726:A 0.000173921
*RES
1 *3625:X *3726:A 21.6 
*END

*D_NET *283 0.00152898
*CONN
*I *3611:A I *D sky130_fd_sc_hd__dlygate4sd3_1
*I *3626:X O *D sky130_fd_sc_hd__dlygate4sd3_1
*CAP
1 *3611:A 0.000409882
2 *3626:X 0.000409882
3 *3611:A *305:10 0
4 *3611:A *307:8 0
5 *3611:A *353:14 0.000353297
6 wbs_dat_o[28] *3611:A 0
7 *113:29 *3611:A 0.000125863
8 *121:32 *3611:A 0.000230053
*RES
1 *3626:X *3611:A 37.1893 
*END

*D_NET *284 0.000537124
*CONN
*I *3710:A I *D sky130_fd_sc_hd__dlygate4sd3_1
*I *3627:X O *D sky130_fd_sc_hd__dlygate4sd3_1
*CAP
1 *3710:A 0.000172429
2 *3627:X 0.000172429
3 *3710:A *301:26 2.84109e-05
4 *3710:A *302:6 5.33005e-05
5 wbs_dat_o[26] *3710:A 5.72546e-05
6 *121:32 *3710:A 5.33005e-05
*RES
1 *3627:X *3710:A 30.3143 
*END

*D_NET *285 0.00115988
*CONN
*I *3644:A I *D sky130_fd_sc_hd__dlygate4sd3_1
*I *3628:X O *D sky130_fd_sc_hd__dlygate4sd3_1
*CAP
1 *3644:A 0.000414684
2 *3628:X 0.000414684
3 *3644:A *3717:A 2.84026e-05
4 wbs_dat_o[0] *3644:A 0
5 *3642:A *3644:A 8.6129e-05
6 *3751:A *3644:A 0.000215982
7 *3763:A *3644:A 0
*RES
1 *3628:X *3644:A 35.8321 
*END

*D_NET *286 0.00070923
*CONN
*I *3648:A I *D sky130_fd_sc_hd__dlygate4sd3_1
*I *3629:X O *D sky130_fd_sc_hd__dlygate4sd3_1
*CAP
1 *3648:A 0.000250801
2 *3629:X 0.000250801
3 *3648:A *311:10 0
4 *3648:A *313:10 1.99099e-05
5 *456:DIODE *3648:A 2.61133e-05
6 *3629:A *3648:A 2.27416e-05
7 *3630:A *3648:A 0.000100823
8 *137:46 *3648:A 3.80391e-05
*RES
1 *3629:X *3648:A 32.2071 
*END

*D_NET *287 0.00187702
*CONN
*I *3655:A I *D sky130_fd_sc_hd__dlygate4sd3_1
*I *3630:X O *D sky130_fd_sc_hd__dlygate4sd3_1
*CAP
1 *3655:A 0.000572021
2 *3630:X 0.000572021
3 *3655:A *3822:A 0
4 *3655:A *311:8 0.000396626
5 *3655:A *353:14 0.000139975
6 *3655:A *356:18 0.000117662
7 wbs_dat_o[28] *3655:A 4.99132e-05
8 *3774:A *3655:A 2.88045e-05
*RES
1 *3630:X *3655:A 36.9036 
*END

*D_NET *288 0.000673558
*CONN
*I *3659:A I *D sky130_fd_sc_hd__dlygate4sd3_1
*I *3631:X O *D sky130_fd_sc_hd__dlygate4sd3_1
*CAP
1 *3659:A 0.00022058
2 *3631:X 0.00022058
3 *3777:A *3659:A 0.000232399
*RES
1 *3631:X *3659:A 23.2429 
*END

*D_NET *289 0.000105515
*CONN
*I *3673:A I *D sky130_fd_sc_hd__dlygate4sd3_1
*I *3632:X O *D sky130_fd_sc_hd__dlygate4sd3_1
*CAP
1 *3673:A 9.02664e-06
2 *3632:X 9.02664e-06
3 *3673:A *324:14 3.08664e-05
4 *159:8 *3673:A 5.65955e-05
*RES
1 *3632:X *3673:A 19.1357 
*END

*D_NET *290 0.00230423
*CONN
*I *3686:A I *D sky130_fd_sc_hd__dlygate4sd3_1
*I *3634:X O *D sky130_fd_sc_hd__dlygate4sd3_1
*CAP
1 *3686:A 0.000379841
2 *3634:X 0.000379841
3 *3686:A *325:8 1.5424e-05
4 *3686:A *325:26 0.000228758
5 *3686:A *333:46 0.000186662
6 *3686:A *365:34 2.83284e-06
7 wbs_dat_o[10] *3686:A 0
8 wbs_dat_o[9] *3686:A 0.000271345
9 *3603:A *3686:A 0
10 *3632:A *3686:A 0.000370097
11 *115:41 *3686:A 0.000282771
12 *159:8 *3686:A 0.000186662
*RES
1 *3634:X *3686:A 39.4036 
*END

*D_NET *291 0.000213397
*CONN
*I *3695:A I *D sky130_fd_sc_hd__dlygate4sd3_1
*I *3635:X O *D sky130_fd_sc_hd__dlygate4sd3_1
*CAP
1 *3695:A 0.000106699
2 *3635:X 0.000106699
3 *3604:A *3695:A 0
*RES
1 *3635:X *3695:A 29.2429 
*END

*D_NET *292 0.034924
*CONN
*I *3678:A I *D sky130_fd_sc_hd__dlygate4sd3_1
*I *3762:X O *D sky130_fd_sc_hd__clkbuf_4
*CAP
1 *3678:A 0.000753792
2 *3762:X 0.0015964
3 *292:18 0.00250257
4 *292:16 0.00317093
5 *292:8 0.00301856
6 *3678:A *303:36 1.13265e-05
7 *3678:A *305:10 0.00188514
8 *292:8 *305:8 0.000737547
9 *292:8 *344:16 2.2351e-05
10 *292:8 *345:22 4.72487e-05
11 *292:16 *301:36 0.000895037
12 *292:16 *339:42 0.00070573
13 *292:18 *3674:A 0.000880213
14 *292:18 *3705:A 0.00026144
15 *292:18 *3720:A 0.000259301
16 *292:18 *303:36 0.00580057
17 *292:18 *305:10 0.0014005
18 wbs_dat_o[20] *292:8 0.000270508
19 wbs_dat_o[21] *292:8 0.00104651
20 wbs_dat_o[25] *292:8 0.000476709
21 *3616:A *292:8 0.000117621
22 *3618:A *292:8 0.000248798
23 *3627:A *292:16 0.000402338
24 *113:29 *292:16 3.90098e-05
25 *129:15 *292:16 1.59373e-05
26 *132:25 *292:16 0.000300137
27 *153:16 *292:16 8.73847e-05
28 *159:40 *292:8 0.000479423
29 *186:20 *292:16 0.00114527
30 *223:10 *3678:A 0.00184884
31 *259:30 *292:18 0.00349987
32 *270:28 *292:8 0.00023831
33 *281:30 *292:16 0
34 *281:36 *292:18 0.0007433
35 *281:38 *292:18 1.53472e-05
*RES
1 *3762:X *292:8 49.6571 
2 *292:8 *292:16 39.2857 
3 *292:16 *292:18 83.1518 
4 *292:18 *3678:A 41.2911 
*END

*D_NET *293 0.00124732
*CONN
*I *3701:A I *D sky130_fd_sc_hd__dlygate4sd3_1
*I *3636:X O *D sky130_fd_sc_hd__dlygate4sd3_1
*CAP
1 *3701:A 0.00046442
2 *3636:X 0.00046442
3 *3605:A *3701:A 0
4 *115:41 *3701:A 0.00031848
*RES
1 *3636:X *3701:A 34.6714 
*END

*D_NET *294 0.000394075
*CONN
*I *3703:A I *D sky130_fd_sc_hd__dlygate4sd3_1
*I *3637:X O *D sky130_fd_sc_hd__dlygate4sd3_1
*CAP
1 *3703:A 0.000111159
2 *3637:X 0.000111159
3 *3703:A *3827:A 0.000119887
4 *3703:A *323:22 2.59355e-05
5 *3703:A *324:14 2.59355e-05
6 *3782:A *3703:A 0
*RES
1 *3637:X *3703:A 29.7786 
*END

*D_NET *295 0.00179182
*CONN
*I *3706:A I *D sky130_fd_sc_hd__dlygate4sd3_1
*I *3638:X O *D sky130_fd_sc_hd__dlygate4sd3_1
*CAP
1 *3706:A 0.000549288
2 *3638:X 0.000549288
3 *3706:A *336:24 0.000358977
4 *3641:A *3706:A 0.000145805
5 *3730:A *3706:A 7.49387e-06
6 *3788:A *3706:A 1.58163e-05
7 *3789:A *3706:A 4.59075e-05
8 *115:49 *3706:A 0.000119247
*RES
1 *3638:X *3706:A 36.725 
*END

*D_NET *296 0.000533903
*CONN
*I *3712:A I *D sky130_fd_sc_hd__dlygate4sd3_1
*I *3639:X O *D sky130_fd_sc_hd__dlygate4sd3_1
*CAP
1 *3712:A 0.000137196
2 *3639:X 0.000137196
3 *3712:A *324:14 5.33005e-05
4 *3712:A *350:20 5.33005e-05
5 *3639:A *3712:A 0.00012401
6 *3794:A *3712:A 0
7 *187:14 *3712:A 2.89016e-05
*RES
1 *3639:X *3712:A 30.3143 
*END

*D_NET *297 0.00124434
*CONN
*I *3714:A I *D sky130_fd_sc_hd__dlygate4sd3_1
*I *3640:X O *D sky130_fd_sc_hd__dlygate4sd3_1
*CAP
1 *3714:A 0.000549592
2 *3640:X 0.000549592
3 *3714:A *330:10 0
4 *3588:RESET_B *3714:A 0
5 *3621:A *3714:A 0
6 *3779:A *3714:A 0.000145154
*RES
1 *3640:X *3714:A 35.3143 
*END

*D_NET *298 0.00133044
*CONN
*I *3719:A I *D sky130_fd_sc_hd__dlygate4sd3_1
*I *3641:X O *D sky130_fd_sc_hd__dlygate4sd3_1
*CAP
1 *3719:A 0.000366841
2 *3641:X 0.000366841
3 *3719:A *3809:A 3.3231e-05
4 *3588:RESET_B *3719:A 0.000440233
5 *170:28 *3719:A 0.000123295
*RES
1 *3641:X *3719:A 33.475 
*END

*D_NET *299 0.00195669
*CONN
*I *3717:A I *D sky130_fd_sc_hd__dlygate4sd3_1
*I *3642:X O *D sky130_fd_sc_hd__dlygate4sd3_1
*CAP
1 *3717:A 0.000276397
2 *3642:X 0.000276397
3 *3717:A *329:20 9.25014e-06
4 wbs_dat_o[0] *3717:A 0.000140933
5 *3642:A *3717:A 0.000733525
6 *3644:A *3717:A 2.84026e-05
7 *3660:A *3717:A 0.000426806
8 *3751:A *3717:A 6.8445e-06
9 *3775:A *3717:A 1.39726e-05
10 *3786:A *3717:A 1.69115e-05
11 *147:16 *3717:A 2.72545e-05
*RES
1 *3642:X *3717:A 37.5643 
*END

*D_NET *300 0.0133799
*CONN
*I *3600:A I *D sky130_fd_sc_hd__dlygate4sd3_1
*I *3763:X O *D sky130_fd_sc_hd__buf_4
*CAP
1 *3600:A 0
2 *3763:X 0.000697672
3 *300:12 0.00336017
4 *300:10 0.00405785
5 *300:12 *3553:A 0.000566245
6 *300:12 *312:22 0.000646714
7 *300:12 *316:20 0.00249262
8 *300:12 *319:14 0.00141275
9 *146:18 *300:12 0.00014587
*RES
1 *3763:X *300:10 30.2643 
2 *300:10 *300:12 81.8571 
3 *300:12 *3600:A 9.3 
*END

*D_NET *301 0.0362987
*CONN
*I *3685:A I *D sky130_fd_sc_hd__dlygate4sd3_1
*I *3764:X O *D sky130_fd_sc_hd__clkbuf_4
*CAP
1 *3685:A 0.00056871
2 *3764:X 0.00131266
3 *301:52 0.00125098
4 *301:38 0.00225565
5 *301:36 0.00306755
6 *301:26 0.00280684
7 *3685:A *3737:vpwrpc 0.000405664
8 *3685:A *302:22 0.000127746
9 *301:26 *302:6 0.000281649
10 *301:36 *325:34 7.11993e-05
11 *301:36 *325:36 0
12 *301:38 *305:10 0.000143559
13 *301:38 *308:10 0.00635666
14 *301:52 *304:16 0.000402298
15 wbs_dat_o[26] *301:36 4.69775e-05
16 *3614:A *301:26 0.000199057
17 *3619:A *301:26 5.52302e-05
18 *3690:A *301:26 0.000495276
19 *3697:A *301:26 6.76254e-05
20 *3702:A *301:38 0.00143052
21 *3710:A *301:26 2.84109e-05
22 *3765:A *301:26 0.000356636
23 *3768:A *301:26 7.37705e-05
24 *3770:A *301:26 0.000306325
25 *3771:A *301:36 0.000277057
26 *132:25 *301:36 2.38651e-06
27 *134:11 *301:38 0.00574024
28 *134:17 *301:38 0.000198698
29 *143:13 *301:52 0.000402298
30 *144:9 *301:52 6.81786e-05
31 *153:16 *301:36 7.68701e-05
32 *159:10 *301:26 0.000318101
33 *159:32 *301:26 0.00110351
34 *193:12 *3685:A 0.00207178
35 *244:32 *301:36 0
36 *248:10 *3685:A 0.00130185
37 *259:36 *3685:A 0.000535087
38 *270:20 *301:26 0.000141931
39 *281:20 *301:26 0.00018172
40 *281:30 *301:26 0.000872933
41 *292:16 *301:36 0.000895037
*RES
1 *3764:X *301:26 46.4786 
2 *301:26 *301:36 39.6071 
3 *301:36 *301:38 80.2679 
4 *301:38 *301:52 30.1071 
5 *301:52 *3685:A 40.5679 
*END

*D_NET *302 0.0337533
*CONN
*I *3689:A I *D sky130_fd_sc_hd__dlygate4sd3_1
*I *3765:X O *D sky130_fd_sc_hd__clkbuf_4
*CAP
1 *3689:A 8.20057e-05
2 *3765:X 0.00159604
3 *302:22 0.00221482
4 *302:20 0.00316932
5 *302:6 0.00263254
6 *302:20 *3817:A 0.000235688
7 *302:22 *3713:A 0.0010565
8 *302:22 *303:36 0.000731042
9 wbs_dat_o[27] *302:6 0.000139907
10 *412:DIODE *302:6 0.000271526
11 *3614:A *302:6 0.000349009
12 *3685:A *302:22 0.000127746
13 *3710:A *302:6 5.33005e-05
14 *3737:DI[11] *302:22 1.41029e-05
15 *3737:DI[5] *3689:A 6.57032e-05
16 *3766:A *302:6 0.000363837
17 *3770:A *302:6 9.29979e-05
18 *3771:A *302:6 9.74665e-05
19 *115:13 *302:22 1.09232e-05
20 *115:17 *302:20 2.43303e-05
21 *115:17 *302:22 0.00333339
22 *115:27 *302:20 0.000254867
23 *117:13 *302:20 9.44259e-05
24 *134:17 *302:20 3.97677e-05
25 *134:23 *302:20 2.59355e-05
26 *134:25 *302:20 4.02251e-05
27 *134:27 *302:20 6.1272e-05
28 *134:29 *302:20 7.56645e-05
29 *134:31 *302:20 3.55659e-05
30 *134:33 *302:20 5.22628e-05
31 *134:35 *302:20 5.58347e-05
32 *134:41 *302:20 4.75028e-05
33 *134:43 *302:20 0
34 *159:10 *302:6 5.52238e-05
35 *182:12 *302:20 0.000262228
36 *219:40 *302:20 0.000703366
37 *248:10 *302:22 0.00168874
38 *258:28 *302:20 1.39429e-05
39 *258:30 *302:20 9.12885e-05
40 *259:36 *302:22 0.00321894
41 *281:20 *302:6 0.00050602
42 *281:30 *302:6 0.00203329
43 *281:36 *302:20 0.000305758
44 *281:36 *302:22 1.9814e-05
45 *281:38 *302:22 0.00712749
46 *301:26 *302:6 0.000281649
*RES
1 *3765:X *302:6 45.9786 
2 *302:6 *302:20 39.7946 
3 *302:20 *302:22 107.741 
4 *302:22 *3689:A 15.1571 
*END

*D_NET *303 0.0349356
*CONN
*I *3691:A I *D sky130_fd_sc_hd__dlygate4sd3_1
*I *3766:X O *D sky130_fd_sc_hd__clkbuf_4
*CAP
1 *3691:A 0.000151621
2 *3766:X 0.00123379
3 *303:36 0.00241583
4 *303:34 0.00326246
5 *303:28 0.00195672
6 *303:16 0.00219227
7 *303:16 *304:10 0.000141849
8 *303:16 *339:42 0.000176196
9 *303:16 *350:42 0.00040279
10 *303:36 *3713:A 0.00129272
11 *429:DIODE *303:34 9.66152e-05
12 *3678:A *303:36 1.13265e-05
13 *3692:A *303:16 6.8796e-05
14 *113:31 *303:16 3.47797e-05
15 *121:32 *303:16 0.000406249
16 *121:40 *303:16 2.13481e-06
17 *131:25 *303:34 0.00011163
18 *138:11 *303:28 0.000165932
19 *146:26 *303:28 0.000167586
20 *159:40 *303:28 0.00143422
21 *159:44 *303:28 0.000646476
22 *173:14 *303:34 2.79421e-05
23 *177:16 *303:28 0.000338608
24 *184:12 *303:34 6.05161e-06
25 *223:10 *303:36 0.00299418
26 *248:10 *303:36 0.00011667
27 *270:36 *303:28 0.00143257
28 *270:36 *303:34 2.33546e-05
29 *281:38 *303:36 0.00709258
30 *292:18 *303:36 0.00580057
31 *302:22 *303:36 0.000731042
*RES
1 *3766:X *303:16 40.3893 
2 *303:16 *303:28 41.8929 
3 *303:28 *303:34 17.1607 
4 *303:34 *303:36 111.536 
5 *303:36 *3691:A 15.9786 
*END

*D_NET *304 0.0328736
*CONN
*I *3694:A I *D sky130_fd_sc_hd__dlygate4sd3_1
*I *3767:X O *D sky130_fd_sc_hd__clkbuf_4
*CAP
1 *3694:A 0.000388583
2 *3767:X 0.000110346
3 *304:16 0.00347235
4 *304:14 0.0039446
5 *304:10 0.000971177
6 *304:10 *350:42 0
7 *304:14 *308:8 0.000579818
8 *304:14 *339:42 0.00144632
9 *304:14 *351:24 0.000508706
10 *304:16 *305:10 0
11 *304:16 *308:10 0.010692
12 *304:16 *353:14 0.000202038
13 *3692:A *304:10 0
14 *120:40 *304:10 8.42734e-05
15 *136:13 *304:16 0.000355761
16 *143:13 *304:16 0.000418922
17 *143:15 *304:16 0.0054721
18 *145:73 *304:10 2.70591e-05
19 *145:77 *304:14 0.00132501
20 *153:18 *304:16 0.000140986
21 *190:10 *304:16 0.00201316
22 *258:28 *304:14 0.000176202
23 *301:52 *304:16 0.000402298
24 *303:16 *304:10 0.000141849
*RES
1 *3767:X *304:10 20.8536 
2 *304:10 *304:14 34.6071 
3 *304:14 *304:16 136.125 
4 *304:16 *3694:A 19.2643 
*END

*D_NET *305 0.0289778
*CONN
*I *3698:A I *D sky130_fd_sc_hd__dlygate4sd3_1
*I *3768:X O *D sky130_fd_sc_hd__clkbuf_4
*CAP
1 *3698:A 0.000162606
2 *3768:X 0.00162816
3 *305:10 0.00418637
4 *305:8 0.00565192
5 *305:10 *3674:A 0.000165157
6 *305:10 *3705:A 0.000259357
7 *305:10 *308:10 0
8 *305:10 *353:14 0
9 wbs_dat_o[25] *305:8 2.14658e-05
10 wbs_dat_o[28] *305:10 9.25014e-06
11 *3611:A *305:10 0
12 *3624:A *305:8 0.000440717
13 *3678:A *305:10 0.00188514
14 *3702:A *305:10 6.74867e-05
15 *115:27 *305:10 0.000357783
16 *134:11 *305:10 0.0030706
17 *134:17 *305:10 0.000104236
18 *139:9 *3698:A 0.000349336
19 *221:10 *305:10 0.00376025
20 *223:10 *305:10 0.000906897
21 *259:30 *305:10 0.00349987
22 *281:36 *305:10 0.000169618
23 *292:8 *305:8 0.000737547
24 *292:18 *305:10 0.0014005
25 *301:38 *305:10 0.000143559
26 *304:16 *305:10 0
*RES
1 *3768:X *305:8 34.4607 
2 *305:8 *305:10 146.446 
3 *305:10 *3698:A 17.2107 
*END

*D_NET *306 0.0433278
*CONN
*I *3674:A I *D sky130_fd_sc_hd__dlygate4sd3_1
*I *3769:X O *D sky130_fd_sc_hd__buf_4
*CAP
1 *3674:A 0.00157866
2 *3769:X 0.00336277
3 *306:14 0.00494143
4 *3674:A *3705:A 0.00737271
5 *3674:A *3713:A 0.00727372
6 *3674:A *3732:A 0
7 *306:14 *361:14 0.00534346
8 *306:14 *372:14 0.0107617
9 *3769:A *306:14 9.71259e-06
10 *120:40 *306:14 0.000824238
11 *122:29 *306:14 1.4179e-05
12 *259:30 *3674:A 0.00079988
13 *292:18 *3674:A 0.000880213
14 *305:10 *3674:A 0.000165157
*RES
1 *3769:X *306:14 39.0424 
2 *306:14 *3674:A 38.1546 
*END

*D_NET *307 0.0319056
*CONN
*I *3709:A I *D sky130_fd_sc_hd__dlygate4sd3_1
*I *3770:X O *D sky130_fd_sc_hd__clkbuf_4
*CAP
1 *3709:A 0.000625757
2 *3770:X 0
3 *307:8 0.00415842
4 *307:6 0.00353267
5 *307:8 *309:10 0.0118257
6 *307:8 *310:8 0.0116691
7 wbs_dat_o[29] *307:8 9.40713e-05
8 *3611:A *307:8 0
*RES
1 *3770:X *307:6 13.8 
2 *307:6 *307:8 154.643 
3 *307:8 *3709:A 22.55 
*END

*D_NET *308 0.030438
*CONN
*I *3711:A I *D sky130_fd_sc_hd__dlygate4sd3_1
*I *3771:X O *D sky130_fd_sc_hd__clkbuf_4
*CAP
1 *3711:A 0.000364143
2 *3771:X 0.00045
3 *308:10 0.00378724
4 *308:8 0.0038731
5 *134:11 *308:10 0.00194118
6 *190:10 *308:10 0.000712386
7 *215:14 *308:10 0.00132547
8 *258:28 *308:8 0.000355978
9 *301:38 *308:10 0.00635666
10 *304:14 *308:8 0.000579818
11 *304:16 *308:10 0.010692
12 *305:10 *308:10 0
*RES
1 *3771:X *308:8 24.1929 
2 *308:8 *308:10 152.518 
3 *308:10 *3711:A 18.8536 
*END

*D_NET *309 0.0324458
*CONN
*I *3715:A I *D sky130_fd_sc_hd__dlygate4sd3_1
*I *3772:X O *D sky130_fd_sc_hd__buf_4
*CAP
1 *3715:A 0.000584744
2 *3772:X 0.000138181
3 *309:10 0.00455586
4 *309:8 0.0041093
5 *309:8 *353:14 0.000226733
6 *309:10 *3581:A_N 6.61817e-05
7 *309:10 *3819:A 0.000123004
8 *309:10 *310:8 0.000390324
9 *309:10 *353:14 0
10 wbs_dat_o[28] *309:8 9.35794e-06
11 *3581:B *309:10 7.14469e-05
12 *3773:A *309:10 0.000150096
13 *140:11 *309:10 0.00887126
14 *164:28 *309:10 0.00132369
15 *307:8 *309:10 0.0118257
*RES
1 *3772:X *309:8 16.3893 
2 *309:8 *309:10 162.232 
3 *309:10 *3715:A 22.1393 
*END

*D_NET *310 0.028735
*CONN
*I *3622:A I *D sky130_fd_sc_hd__dlygate4sd3_1
*I *3773:X O *D sky130_fd_sc_hd__buf_4
*CAP
1 *3622:A 0.000633749
2 *3773:X 0
3 *310:8 0.00510921
4 *310:6 0.00447546
5 wbs_dat_o[29] *310:8 8.75782e-05
6 *145:79 *310:8 0.00636965
7 *307:8 *310:8 0.0116691
8 *309:10 *310:8 0.000390324
*RES
1 *3773:X *310:6 13.8 
2 *310:6 *310:8 164.964 
3 *310:8 *3622:A 22.9607 
*END

*D_NET *311 0.0361378
*CONN
*I *3650:A I *D sky130_fd_sc_hd__dlygate4sd3_1
*I *3774:X O *D sky130_fd_sc_hd__buf_4
*CAP
1 *3650:A 0.000829457
2 *3774:X 0.000278688
3 *311:10 0.00416894
4 *311:8 0.00361817
5 *311:10 *313:10 2.59093e-05
6 *311:10 *314:10 0.0134802
7 *311:10 *356:18 0
8 wbs_dat_o[28] *311:8 4.0342e-06
9 *3648:A *311:10 0
10 *3655:A *311:8 0.000396626
11 *121:22 *311:10 0.0133358
*RES
1 *3774:X *311:8 19.675 
2 *311:8 *311:10 171.946 
3 *311:10 *3650:A 26.2464 
*END

*D_NET *312 0.020732
*CONN
*I *3671:A I *D sky130_fd_sc_hd__dlygate4sd3_1
*I *466:DIODE I *D sky130_fd_sc_hd__diode_2
*I *3775:X O *D sky130_fd_sc_hd__buf_4
*CAP
1 *3671:A 7.98201e-05
2 *466:DIODE 0
3 *3775:X 0.000520761
4 *312:28 0.000179294
5 *312:24 0.001542
6 *312:22 0.00362904
7 *312:14 0.00270728
8 *3671:A *315:42 7.5446e-05
9 *3671:A *321:22 0
10 *3671:A *327:59 3.83716e-05
11 *3671:A *329:61 7.14165e-05
12 *312:14 *3564:A_N 3.21371e-05
13 *312:14 *3564:B 3.69047e-06
14 *312:14 *3564:C 7.44888e-05
15 *312:14 *3593:A 0
16 *312:14 *327:20 0
17 *312:22 *316:20 0.0011659
18 *312:24 *371:42 0.00239982
19 *312:28 *321:22 0
20 *3590:A *3671:A 2.38651e-06
21 *3723:A *312:14 0.00013921
22 *116:19 *312:14 0
23 *135:21 *312:22 0.000285413
24 *139:43 *312:24 0.00541554
25 *140:19 *312:22 0.000283698
26 *148:12 *312:24 0.000375961
27 *164:12 *312:24 0.000919693
28 *170:28 *312:14 0.000136492
29 *170:63 *3671:A 7.43578e-06
30 *300:12 *312:22 0.000646714
*RES
1 *3775:X *312:14 28.425 
2 *312:14 *312:22 40.8214 
3 *312:22 *312:24 51.4643 
4 *312:24 *312:28 5.83929 
5 *312:28 *466:DIODE 13.8 
6 *312:28 *3671:A 15.8893 
*END

*D_NET *313 0.0363291
*CONN
*I *3656:A I *D sky130_fd_sc_hd__dlygate4sd3_1
*I *3776:X O *D sky130_fd_sc_hd__buf_4
*CAP
1 *3656:A 0.000674093
2 *3776:X 0.000369335
3 *313:10 0.0047956
4 *313:8 0.00449085
5 *313:8 *314:8 0.000468568
6 *313:10 *314:10 0.0138657
7 *3648:A *313:10 1.99099e-05
8 *3774:A *313:8 0.000394478
9 *3776:A *313:8 5.49489e-05
10 *113:11 *313:10 0
11 *122:21 *313:10 0.00160117
12 *137:44 *313:10 0
13 *137:46 *313:10 0
14 *139:11 *313:10 0.000319924
15 *142:11 *313:10 0.00847011
16 *188:16 *313:10 0.000778494
17 *311:10 *313:10 2.59093e-05
*RES
1 *3776:X *313:8 22.9607 
2 *313:8 *313:10 175.286 
3 *313:10 *3656:A 24.1929 
*END

*D_NET *314 0.0385624
*CONN
*I *3661:A I *D sky130_fd_sc_hd__dlygate4sd3_1
*I *3777:X O *D sky130_fd_sc_hd__buf_4
*CAP
1 *3661:A 0.000298387
2 *3777:X 0.000602325
3 *314:10 0.00377154
4 *314:8 0.00407548
5 *3776:A *314:8 5.49489e-05
6 *113:11 *314:10 0
7 *121:22 *314:10 0.000404901
8 *122:21 *314:10 0.00154041
9 *311:10 *314:10 0.0134802
10 *313:8 *314:8 0.000468568
11 *313:10 *314:10 0.0138657
*RES
1 *3777:X *314:8 25.425 
2 *314:8 *314:10 179.536 
3 *314:10 *3661:A 18.4429 
*END

*D_NET *315 0.0200476
*CONN
*I *467:DIODE I *D sky130_fd_sc_hd__diode_2
*I *3700:A I *D sky130_fd_sc_hd__dlygate4sd3_1
*I *3778:X O *D sky130_fd_sc_hd__clkbuf_4
*CAP
1 *467:DIODE 0.000191581
2 *3700:A 0
3 *3778:X 0.00140096
4 *315:42 0.000653577
5 *315:24 0.00329574
6 *315:20 0.00423471
7 *467:DIODE *329:61 9.02916e-05
8 *467:DIODE *329:63 0.00019808
9 *315:20 *3584:A_N 6.76963e-05
10 *315:20 *333:24 0.000177545
11 *315:20 *339:20 0.00180364
12 *315:20 *363:28 0.000228532
13 *315:24 *327:51 0.000405004
14 *315:42 *327:51 5.52238e-05
15 *315:42 *327:59 0.00095907
16 *315:42 *329:61 0.000591389
17 *3587:D *315:20 1.90936e-05
18 *3590:A *315:42 7.44313e-05
19 *3621:A *315:20 6.7352e-05
20 *3671:A *315:42 7.5446e-05
21 *135:21 *315:20 1.53212e-05
22 *140:19 *315:20 0.000429165
23 *148:12 *315:24 0.000120369
24 *151:12 *467:DIODE 0.000230475
25 *151:12 *315:42 5.71472e-05
26 *170:39 *315:24 0.00357433
27 *170:53 *315:42 1.18491e-05
28 *170:63 *315:42 0.00015872
29 *181:20 *315:20 0.000832246
30 *187:14 *315:20 2.86562e-05
*RES
1 *3778:X *315:20 40.389 
2 *315:20 *315:24 41.625 
3 *315:24 *315:42 25.0536 
4 *315:42 *3700:A 9.3 
5 *315:42 *467:DIODE 22.5679 
*END

*D_NET *316 0.0150459
*CONN
*I *3680:A I *D sky130_fd_sc_hd__dlygate4sd3_1
*I *468:DIODE I *D sky130_fd_sc_hd__diode_2
*I *3779:X O *D sky130_fd_sc_hd__clkbuf_4
*CAP
1 *3680:A 3.52032e-05
2 *468:DIODE 0
3 *3779:X 0.000506239
4 *316:20 0.00286812
5 *316:18 0.00333916
6 *3680:A *3669:A 5.62995e-05
7 *3680:A *321:22 8.76257e-05
8 *316:18 *3557:C 4.5894e-05
9 *316:18 *328:16 0.000177687
10 *316:18 *364:30 0.000117913
11 *316:18 *366:129 0
12 *316:18 *369:28 0.000396626
13 *316:20 *3553:A 0.000566245
14 *316:20 *3669:A 0.000725992
15 *316:20 *319:14 0.000241983
16 *316:20 *321:22 0.00109999
17 *3621:A *316:18 0.000325272
18 *138:19 *316:18 0
19 *141:23 *316:18 0.000370049
20 *146:18 *316:20 0.000427085
21 *300:12 *316:20 0.00249262
22 *312:22 *316:20 0.0011659
*RES
1 *3779:X *316:18 39.8714 
2 *316:18 *316:20 69.5357 
3 *316:20 *468:DIODE 9.3 
4 *316:20 *3680:A 10.675 
*END

*D_NET *317 0.0605497
*CONN
*I *471:DIODE I *D sky130_fd_sc_hd__diode_2
*I *3718:A I *D sky130_fd_sc_hd__dlygate4sd3_1
*I *470:DIODE I *D sky130_fd_sc_hd__diode_2
*I *3780:X O *D sky130_fd_sc_hd__buf_4
*CAP
1 *471:DIODE 7.03152e-05
2 *3718:A 0
3 *470:DIODE 0.000167448
4 *3780:X 0.00117701
5 *317:67 0.000444883
6 *317:52 0.00153006
7 *317:50 0.00163464
8 *317:42 0.00146771
9 *317:38 0.0016609
10 *317:32 0.00271592
11 *317:30 0.00230803
12 *317:22 0.00160892
13 *317:22 *3559:A_N 5.52302e-05
14 *317:22 *3559:C 2.59355e-05
15 *317:22 *3563:A_N 0.000113994
16 *317:22 *3563:B 5.33005e-05
17 *317:22 *339:20 1.21258e-05
18 *317:22 *343:24 0.00106314
19 *317:22 *365:24 0.000519836
20 *317:22 *370:71 2.61099e-05
21 *317:22 *370:90 0.000149131
22 *317:30 *3556:B 9.60939e-05
23 *317:30 *360:20 0.000432693
24 *317:30 *362:20 0.000208664
25 *317:30 *365:24 0.000151816
26 *317:32 *3584:A_N 0.000221359
27 *317:32 *339:24 0.00428909
28 *317:32 *339:26 0.00018298
29 *317:32 *360:20 1.24368e-05
30 *317:32 *361:14 0.00117865
31 *317:38 *3813:A 4.84147e-05
32 *317:42 *339:52 0.000430211
33 *317:50 *3737:vpwrac 0.000320474
34 *317:50 *339:52 0.00182038
35 *317:50 *350:58 4.38056e-05
36 *469:DIODE *317:22 5.52302e-05
37 *3556:D *317:30 3.91722e-05
38 *3559:D *317:22 1.14548e-05
39 *3563:D *317:22 0.000137983
40 *3584:D *317:30 9.0765e-05
41 *3584:D *317:32 2.18985e-05
42 *3620:A *317:22 0.000133783
43 *3660:A *317:22 0.000104642
44 *3721:A *317:22 0
45 *3727:A *317:22 8.07313e-05
46 *3779:A *317:22 5.71472e-05
47 *3780:A *317:22 0
48 *3787:A *317:22 9.41805e-05
49 *3:17 *317:50 0.00181795
50 *113:31 *317:32 0.00818191
51 *113:43 *317:32 1.64621e-05
52 *118:19 *317:38 0.000292738
53 *118:21 *317:32 0.00582024
54 *126:27 *317:42 0.000209244
55 *129:19 *317:38 0
56 *129:40 *317:38 0
57 *129:42 *317:38 0
58 *133:23 *317:52 0.0044145
59 *133:23 *317:67 0.000247212
60 *145:22 *317:32 7.72758e-05
61 *151:18 *317:38 0.000226284
62 *159:44 *317:42 4.54442e-06
63 *171:12 *317:38 0.000471775
64 *171:16 *317:42 0.00293399
65 *177:16 *317:42 6.7224e-05
66 *181:30 *317:32 0.0026947
67 *182:12 *317:42 2.18902e-05
68 *199:12 *317:42 0.00129813
69 *234:8 *470:DIODE 7.90814e-06
70 *237:8 *317:67 1.83136e-05
71 *244:34 *317:52 0.0044178
72 *244:34 *317:67 0.000240965
*RES
1 *3780:X *317:22 46.55 
2 *317:22 *317:30 10.5536 
3 *317:30 *317:32 105.679 
4 *317:32 *317:38 24.3036 
5 *317:38 *317:42 36.25 
6 *317:42 *317:50 34.375 
7 *317:50 *317:52 55.6786 
8 *317:52 *470:DIODE 15.5679 
9 *317:52 *317:67 11.8929 
10 *317:67 *3718:A 9.3 
11 *317:67 *471:DIODE 10.2464 
*END

*D_NET *318 0.0153745
*CONN
*I *3669:A I *D sky130_fd_sc_hd__dlygate4sd3_1
*I *3781:X O *D sky130_fd_sc_hd__clkbuf_4
*CAP
1 *3669:A 0.000336524
2 *3781:X 0.00142534
3 *318:16 0.00130188
4 *318:8 0.00239069
5 *3669:A *319:14 0.00106447
6 *3669:A *321:22 1.02821e-05
7 *318:16 *321:22 0
8 *318:16 *367:56 0.0022045
9 *3590:A *318:16 0
10 *3592:A *318:16 0
11 *3645:A *318:16 4.35597e-05
12 *3680:A *3669:A 5.62995e-05
13 *3693:A *3669:A 0.000491391
14 *111:10 *318:16 0
15 *118:31 *318:8 4.61034e-05
16 *118:31 *318:16 0.00240482
17 *118:49 *318:8 0.00213715
18 *142:19 *318:8 0.000314754
19 *142:19 *318:16 0.000103646
20 *146:18 *3669:A 0.000317145
21 *316:20 *3669:A 0.000725992
*RES
1 *3781:X *318:8 30.6929 
2 *318:8 *318:16 39.4286 
3 *318:16 *3669:A 27.4964 
*END

*D_NET *319 0.0153278
*CONN
*I *3665:A I *D sky130_fd_sc_hd__dlygate4sd3_1
*I *3782:X O *D sky130_fd_sc_hd__clkbuf_4
*CAP
1 *3665:A 3.76454e-05
2 *3782:X 0.00116762
3 *319:14 0.00389924
4 *319:12 0.00502921
5 *319:12 *364:30 0.000179365
6 *319:12 *367:52 6.84914e-05
7 *3669:A *319:14 0.00106447
8 *3693:A *3665:A 1.00733e-05
9 *3693:A *319:14 0.00013447
10 *113:43 *319:12 0.000141451
11 *114:19 *319:14 0.00020581
12 *146:18 *319:14 0.000790804
13 *148:12 *319:12 6.39601e-05
14 *181:30 *319:12 0.000880496
15 *300:12 *319:14 0.00141275
16 *316:20 *319:14 0.000241983
*RES
1 *3782:X *319:12 36.4786 
2 *319:12 *319:14 54.3393 
3 *319:14 *3665:A 10.0321 
*END

*D_NET *320 0.0156125
*CONN
*I *3663:A I *D sky130_fd_sc_hd__dlygate4sd3_1
*I *3783:X O *D sky130_fd_sc_hd__clkbuf_4
*CAP
1 *3663:A 0.000646904
2 *3783:X 0.00111865
3 *320:16 0.00348481
4 *320:12 0.00395656
5 *3663:A *338:16 0
6 *3663:A *341:20 0
7 *3663:A *367:103 2.03997e-05
8 *3663:A *371:88 8.19176e-05
9 *320:12 *332:42 0
10 *320:12 *339:24 6.02888e-05
11 *320:12 *361:14 0.000172737
12 *320:12 *367:52 0.00135947
13 *320:16 *350:30 0.000222982
14 *320:16 *372:14 0.000365777
15 *3783:A *320:12 0.000185118
16 *111:14 *320:16 0.00198301
17 *120:42 *320:16 0.00187726
18 *182:10 *3663:A 0
19 *258:12 *320:12 7.6644e-05
*RES
1 *3783:X *320:12 35.0679 
2 *320:12 *320:16 45.2857 
3 *320:16 *3663:A 22.7286 
*END

*D_NET *321 0.0160726
*CONN
*I *3654:A I *D sky130_fd_sc_hd__dlygate4sd3_1
*I *3784:X O *D sky130_fd_sc_hd__clkbuf_4
*CAP
1 *3654:A 0
2 *3784:X 0.00244977
3 *321:22 0.00252513
4 *321:8 0.0049749
5 *321:8 *3799:A 0.000643299
6 *321:8 *333:46 5.04589e-05
7 *321:8 *336:38 7.39492e-05
8 *321:22 *3722:A 0.000633807
9 *321:22 *337:40 1.61405e-05
10 wbs_dat_o[10] *321:8 0.000141985
11 *3590:A *321:22 0
12 *3602:A *321:8 0.00117204
13 *3604:A *321:8 2.94004e-05
14 *3605:A *321:8 0.000665667
15 *3651:A *321:22 0
16 *3669:A *321:22 1.02821e-05
17 *3671:A *321:22 0
18 *3680:A *321:22 8.76257e-05
19 *3693:A *321:22 0.000766528
20 *3736:A *321:8 7.77751e-05
21 *3736:A *321:22 0
22 *3784:A *321:8 1.55885e-05
23 *120:46 *321:22 0.000321926
24 *146:18 *321:22 0.000316341
25 *312:28 *321:22 0
26 *316:20 *321:22 0.00109999
27 *318:16 *321:22 0
*RES
1 *3784:X *321:8 48.0143 
2 *321:8 *321:22 45.8571 
3 *321:22 *3654:A 9.3 
*END

*D_NET *322 0.0144363
*CONN
*I *3643:A I *D sky130_fd_sc_hd__dlygate4sd3_1
*I *3785:X O *D sky130_fd_sc_hd__clkbuf_4
*CAP
1 *3643:A 0
2 *3785:X 0.00168825
3 *322:18 0.00106779
4 *322:12 0.00275604
5 *322:12 *3722:A 0.000164974
6 *322:12 *339:24 0.0010129
7 *322:12 *339:26 0.000358971
8 *322:12 *361:14 0.000216921
9 *322:18 *350:30 0.000514006
10 *322:18 *372:14 0.00028096
11 *3658:A *322:18 0.000326234
12 *3667:A *322:18 0.000907351
13 *111:10 *322:12 0
14 *121:46 *322:18 0.00204114
15 *192:20 *322:18 0.000106699
16 *203:8 *322:18 0.00299403
*RES
1 *3785:X *322:12 42.0321 
2 *322:12 *322:18 45.5357 
3 *322:18 *3643:A 13.8 
*END

*D_NET *323 0.0190525
*CONN
*I *3725:A I *D sky130_fd_sc_hd__buf_12
*I *3786:X O *D sky130_fd_sc_hd__buf_12
*CAP
1 *3725:A 0.00093388
2 *3786:X 0.0027451
3 *323:22 0.00339789
4 *323:16 0.0052091
5 *3725:A *333:46 5.36755e-05
6 *3725:A *337:20 0.00116004
7 *323:16 *3820:A 3.39935e-05
8 *323:16 *3824:A 0.000131246
9 *323:16 *324:12 0.00165047
10 *323:16 *331:20 2.74834e-05
11 *323:16 *336:36 0.000130597
12 *323:22 *324:14 0.0003612
13 wbs_dat_o[4] *323:16 3.63775e-05
14 *3606:A *323:22 0.000164753
15 *3639:A *323:16 9.45051e-05
16 *3666:A *3725:A 0
17 *3682:A *3725:A 0.000124657
18 *3703:A *323:22 2.59355e-05
19 *3752:A *3725:A 0
20 *139:43 *3725:A 0.00116004
21 *159:8 *323:22 0.00127622
22 *170:14 *323:16 0.000196794
23 *187:14 *323:22 0.000138576
*RES
1 *3786:X *323:16 49.5143 
2 *323:16 *323:22 41.1607 
3 *323:22 *3725:A 35.4607 
*END

*D_NET *324 0.0169242
*CONN
*I *3722:A I *D sky130_fd_sc_hd__buf_12
*I *3787:X O *D sky130_fd_sc_hd__buf_12
*CAP
1 *3722:A 0.000534939
2 *3787:X 0.000593221
3 *324:14 0.00320724
4 *324:12 0.00326552
5 *3722:A *328:18 1.4862e-05
6 *3722:A *337:20 0.000137179
7 *324:12 *3820:A 0.000703928
8 *324:12 *3823:A 0.000183532
9 *324:12 *331:20 0.000172773
10 *324:14 *333:46 0.00112504
11 wbs_dat_o[2] *324:12 4.87953e-05
12 *3606:A *324:14 0.000170397
13 *3609:A *324:14 0.000165641
14 *3617:A *324:14 0.000225609
15 *3632:A *324:14 6.26276e-05
16 *3673:A *324:14 3.08664e-05
17 *3703:A *324:14 2.59355e-05
18 *3712:A *324:14 5.33005e-05
19 *3748:A *324:14 0.000144773
20 *3769:A *324:14 5.52302e-05
21 *3794:A *324:14 0.000728031
22 *3795:A *324:14 0.00014183
23 *3796:A *324:14 5.65955e-05
24 *111:10 *3722:A 0
25 *118:31 *3722:A 6.23315e-05
26 *139:43 *3722:A 0.000525639
27 *159:8 *324:14 0.00040876
28 *159:10 *324:14 0.000429556
29 *187:14 *324:14 0.000177541
30 *192:20 *324:14 0.000118278
31 *214:12 *324:14 0.000186662
32 *244:12 *3722:A 0.000357146
33 *321:22 *3722:A 0.000633807
34 *322:12 *3722:A 0.000164974
35 *323:16 *324:12 0.00165047
36 *323:22 *324:14 0.0003612
*RES
1 *3787:X *324:12 36.9964 
2 *324:12 *324:14 56.3929 
3 *324:14 *3722:A 32.5857 
*END

*D_NET *325 0.0554529
*CONN
*I *3729:A I *D sky130_fd_sc_hd__buf_12
*I *3788:X O *D sky130_fd_sc_hd__buf_12
*CAP
1 *3729:A 4.26984e-05
2 *3788:X 2.22847e-05
3 *325:36 0.00258943
4 *325:34 0.00317871
5 *325:28 0.00595184
6 *325:26 0.00777397
7 *325:8 0.00628299
8 *325:6 0.00385116
9 *325:8 *3827:A 0.000528744
10 *325:26 *340:16 8.6229e-06
11 *325:36 *3732:A 0.00138526
12 *325:36 *329:77 0.000157449
13 wbs_dat_o[12] *325:26 0.000487467
14 wbs_dat_o[13] *325:26 0.000916328
15 wbs_dat_o[26] *325:34 0
16 wbs_dat_o[5] *325:8 0.000356035
17 wbs_dat_o[7] *325:8 0.000402086
18 wbs_dat_o[8] *325:8 0.00053101
19 wbs_dat_o[9] *325:8 0.00107659
20 *430:DIODE *325:36 5.11018e-05
21 *3601:A *325:26 0.000206331
22 *3607:A *325:8 0.000374766
23 *3612:A *325:26 9.97552e-05
24 *3624:A *325:34 0.000145228
25 *3634:A *325:26 0.000119429
26 *3635:A *325:8 6.24774e-05
27 *3636:A *325:8 9.77264e-06
28 *3640:A *325:8 0.000485537
29 *3646:A *325:26 0.00048939
30 *3681:A *325:26 0.000402777
31 *3686:A *325:8 1.5424e-05
32 *3686:A *325:26 0.000228758
33 *3756:A *325:26 1.69961e-05
34 *3759:A *325:26 0.000488486
35 *3789:A *325:8 6.69296e-05
36 *3:17 *325:34 0
37 *3:17 *325:36 0.00843879
38 *110:10 *325:36 0.00730836
39 *115:29 *325:26 3.98559e-05
40 *115:39 *325:26 0.000253017
41 *115:41 *325:8 0.000332435
42 *115:41 *325:26 3.20262e-05
43 *133:23 *325:36 0.000171427
44 *301:36 *325:34 7.11993e-05
45 *301:36 *325:36 0
*RES
1 *3788:X *325:6 9.72857 
2 *325:6 *325:8 52.2857 
3 *325:8 *325:26 48.9643 
4 *325:26 *325:28 60.5 
5 *325:28 *325:34 14.7232 
6 *325:34 *325:36 108.17 
7 *325:36 *3729:A 14.3357 
*END

*D_NET *326 0.0653057
*CONN
*I *3732:A I *D sky130_fd_sc_hd__buf_12
*I *3789:X O *D sky130_fd_sc_hd__buf_12
*CAP
1 *3732:A 0.00848869
2 *3789:X 0.0159489
3 *326:14 0.0244375
4 *3732:A *3713:A 0
5 *3732:A *3720:A 2.70229e-05
6 *3732:A *3737:vpwrpc 1.49122e-05
7 *3732:A *3737:vpwrac 0.0102228
8 wbs_dat_o[4] *326:14 2.11419e-05
9 *3591:A *3732:A 0.000538494
10 *3601:A *326:14 0.000103646
11 *3617:A *326:14 0
12 *3635:A *326:14 0.00011307
13 *3674:A *3732:A 0
14 *3:17 *3732:A 0.00155833
15 *110:10 *3732:A 0.0015013
16 *115:29 *326:14 0.000375939
17 *115:41 *326:14 0.000111084
18 *217:10 *3732:A 0.000115096
19 *259:16 *326:14 0.00034251
20 *325:36 *3732:A 0.00138526
*RES
1 *3789:X *326:14 45.6987 
2 *326:14 *3732:A 48.984 
*END

*D_NET *327 0.0478859
*CONN
*I *3581:C I *D sky130_fd_sc_hd__and4b_1
*I *3580:C I *D sky130_fd_sc_hd__and4b_1
*I *3579:C I *D sky130_fd_sc_hd__and4b_1
*I *3578:C I *D sky130_fd_sc_hd__and4b_1
*I *3596:A I *D sky130_fd_sc_hd__clkbuf_4
*I *3790:X O *D sky130_fd_sc_hd__buf_2
*CAP
1 *3581:C 0.000391588
2 *3580:C 0.000106407
3 *3579:C 0.000316087
4 *3578:C 0
5 *3596:A 0
6 *3790:X 0.00193266
7 *327:87 0.000983389
8 *327:69 0.000365819
9 *327:65 0.000598486
10 *327:61 0.00154563
11 *327:59 0.00287508
12 *327:51 0.00206686
13 *327:43 0.00252136
14 *327:22 0.00194301
15 *327:20 0.00202836
16 *3581:C *3581:A_N 2.2816e-05
17 *3581:C *356:18 1.06502e-05
18 *327:20 *3563:B 0.000218726
19 *327:20 *329:20 3.34639e-05
20 *327:20 *329:26 0.000465089
21 *327:22 *3593:A 0.000262504
22 *327:22 *3597:A 0.000136958
23 *327:43 *3593:A 0.0003517
24 *327:43 *3597:A 0.000230475
25 *327:43 *329:53 0.00159118
26 *327:43 *367:25 4.60235e-05
27 *327:43 *369:12 8.6229e-06
28 *327:43 *371:23 0.00154025
29 *327:51 *329:53 0.000911226
30 *327:51 *329:61 0.000659646
31 *327:61 *329:63 0.000967812
32 *327:61 *329:77 0.000111763
33 *327:87 *3581:A_N 2.09136e-05
34 *327:87 *329:84 0.000266479
35 *327:87 *329:88 0.000223211
36 *327:87 *353:14 0.000732005
37 *327:87 *356:18 2.37575e-05
38 *406:DIODE *327:43 2.36643e-05
39 *407:DIODE *327:61 9.66977e-05
40 *3560:D *327:43 3.31876e-05
41 *3579:D *327:87 0.00019187
42 *3580:D *3580:C 6.44047e-05
43 *3580:D *327:87 0.000142719
44 *3581:B *3581:C 5.74581e-05
45 *3581:D *3581:C 0.000220306
46 *3592:A *327:51 0
47 *3620:A *327:20 0.00012401
48 *3658:A *327:61 0.00087143
49 *3671:A *327:59 3.83716e-05
50 *3699:A *327:20 5.30637e-06
51 *3728:A *327:20 0.00038211
52 *3786:A *327:20 1.27249e-05
53 *3:17 *327:65 1.08359e-05
54 *3:17 *327:69 1.11775e-05
55 *116:19 *327:20 1.02969e-05
56 *117:21 *327:43 0
57 *148:12 *327:51 0.000123565
58 *151:12 *327:59 9.25014e-06
59 *151:32 *327:61 0.000450211
60 *164:26 *327:61 0.000934625
61 *170:28 *327:20 0.000189152
62 *170:39 *327:43 0.000932245
63 *170:39 *327:51 0.00228992
64 *170:63 *327:59 0.00101425
65 *170:63 *327:61 0.00263136
66 *170:85 *327:61 0.00311688
67 *170:85 *327:65 0.000137333
68 *170:85 *327:69 7.5779e-05
69 *170:92 *3579:C 0.000390212
70 *170:103 *3579:C 4.1611e-05
71 *177:12 *327:61 0.00161247
72 *181:20 *327:20 0.000229661
73 *219:16 *327:59 5.41794e-05
74 *219:16 *327:61 0.000114964
75 *219:28 *327:61 0.00295047
76 *219:40 *327:87 9.60939e-05
77 *258:30 *327:65 0.000170769
78 *258:30 *327:69 9.49984e-05
79 *312:14 *327:20 0
80 *315:24 *327:51 0.000405004
81 *315:42 *327:51 5.52238e-05
82 *315:42 *327:59 0.00095907
*RES
1 *3790:X *327:20 49.7107 
2 *327:20 *327:22 2.58929 
3 *327:22 *3596:A 9.3 
4 *327:22 *327:43 48.3304 
5 *327:43 *327:51 39.2232 
6 *327:51 *327:59 29.5714 
7 *327:59 *327:61 72.8214 
8 *327:61 *327:65 6.75 
9 *327:65 *327:69 5.83929 
10 *327:69 *3578:C 9.3 
11 *327:69 *3579:C 13.5321 
12 *327:65 *327:87 17.4643 
13 *327:87 *3580:C 10.6571 
14 *327:87 *3581:C 14.3536 
*END

*D_NET *328 0.056965
*CONN
*I *3720:A I *D sky130_fd_sc_hd__dlygate4sd3_1
*I *3791:X O *D sky130_fd_sc_hd__buf_4
*CAP
1 *3720:A 0.00300978
2 *3791:X 0.00131217
3 *328:32 0.00438876
4 *328:18 0.00804568
5 *328:16 0.00797887
6 *3720:A *3713:A 0.00355804
7 *3720:A *3737:vpwrpc 0.00601833
8 *328:16 *3564:A_N 2.78576e-05
9 *328:16 *366:19 0.000115186
10 *328:16 *366:32 0.0001501
11 *328:16 *367:25 5.42698e-05
12 *328:16 *368:6 4.08025e-05
13 *328:16 *368:30 1.38737e-05
14 *328:16 *368:133 0.000467637
15 *328:16 *369:28 0.000343557
16 *328:16 *370:133 0.00017673
17 *328:18 *3586:A_N 4.27133e-05
18 *328:18 *337:20 0.00520293
19 *328:32 *3576:A_N 0.000197591
20 *406:DIODE *328:16 2.30389e-05
21 *3560:D *328:16 0.000193277
22 *3586:D *328:16 0.000191121
23 *3586:D *328:18 9.37606e-06
24 *3621:A *328:16 9.77118e-05
25 *3699:A *328:16 0.000695357
26 *3722:A *328:18 1.4862e-05
27 *3732:A *3720:A 2.70229e-05
28 *3737:DI[11] *3720:A 0.000138531
29 *3791:A *328:16 5.47001e-05
30 *114:19 *3720:A 0
31 *115:13 *3720:A 0.000129366
32 *117:13 *3720:A 0.000503943
33 *118:19 *3720:A 0.00174127
34 *123:29 *3720:A 1.71876e-05
35 *125:29 *3720:A 5.60535e-05
36 *126:27 *3720:A 0.000344975
37 *131:39 *328:32 0.000162962
38 *131:45 *328:32 0.000238623
39 *138:19 *3720:A 4.85689e-06
40 *139:39 *328:18 1.02937e-05
41 *139:39 *328:32 0.00227398
42 *159:40 *328:32 0
43 *164:12 *328:32 0.000741187
44 *186:26 *3720:A 0.000759702
45 *193:12 *3720:A 0.000437624
46 *219:28 *328:32 0.000175892
47 *219:40 *328:32 3.7678e-05
48 *244:12 *328:18 0.00139651
49 *244:24 *328:18 0.00218729
50 *244:28 *328:32 0.00228335
51 *259:36 *3720:A 0.000435377
52 *292:18 *3720:A 0.000259301
53 *316:18 *328:16 0.000177687
*RES
1 *3791:X *328:16 48.4607 
2 *328:16 *328:18 92.5357 
3 *328:18 *328:32 49.0796 
4 *328:32 *3720:A 45.9735 
*END

*D_NET *329 0.046159
*CONN
*I *3579:A_N I *D sky130_fd_sc_hd__and4b_1
*I *3581:A_N I *D sky130_fd_sc_hd__and4b_1
*I *3580:A_N I *D sky130_fd_sc_hd__and4b_1
*I *3578:A_N I *D sky130_fd_sc_hd__and4b_1
*I *3594:A I *D sky130_fd_sc_hd__buf_4
*I *3792:X O *D sky130_fd_sc_hd__buf_2
*CAP
1 *3579:A_N 0
2 *3581:A_N 0.000672514
3 *3580:A_N 0
4 *3578:A_N 0
5 *3594:A 4.44975e-05
6 *3792:X 0.000856713
7 *329:88 0.000864657
8 *329:84 0.000320206
9 *329:77 0.00219746
10 *329:63 0.00301648
11 *329:61 0.00247937
12 *329:53 0.00327099
13 *329:26 0.00288436
14 *329:20 0.00195787
15 *329:20 *335:12 9.60281e-05
16 *329:26 *332:26 0.000118507
17 *329:26 *336:24 2.04825e-05
18 *329:26 *337:18 0.000229282
19 *329:26 *370:8 0.000138804
20 *329:26 *370:12 0.000116371
21 *329:53 *332:26 0.00137393
22 *329:53 *332:42 0.00240024
23 *329:53 *337:18 0.000722446
24 *329:53 *367:25 9.59532e-06
25 *329:77 *350:42 0.000772722
26 *406:DIODE *329:53 5.49489e-05
27 *444:DIODE *3581:A_N 9.81721e-06
28 *461:DIODE *329:20 0.000204351
29 *461:DIODE *329:26 1.721e-05
30 *467:DIODE *329:61 9.02916e-05
31 *467:DIODE *329:63 0.00019808
32 *3575:D *329:77 0.000295151
33 *3578:D *329:84 0.000229259
34 *3579:D *329:88 0.000192534
35 *3580:D *3581:A_N 7.48733e-05
36 *3581:B *3581:A_N 9.41642e-05
37 *3581:C *3581:A_N 2.2816e-05
38 *3581:D *3581:A_N 5.33005e-05
39 *3588:RESET_B *329:20 0.000135467
40 *3590:A *329:61 7.5887e-05
41 *3620:A *329:20 0.00040088
42 *3641:A *329:20 3.97677e-05
43 *3642:A *329:20 0.000857591
44 *3658:A *329:63 0.00087143
45 *3671:A *329:61 7.14165e-05
46 *3717:A *329:20 9.25014e-06
47 *3731:A *329:20 0.000269428
48 *3775:A *329:20 1.21258e-05
49 *3786:A *329:20 0
50 *114:19 *329:26 0
51 *114:19 *329:77 0
52 *116:19 *329:26 4.52872e-05
53 *116:21 *329:26 2.72545e-05
54 *129:40 *329:77 1.89507e-06
55 *133:23 *329:77 0.000157321
56 *136:13 *3581:A_N 5.02137e-05
57 *137:23 *3581:A_N 7.10813e-05
58 *145:79 *3581:A_N 0
59 *146:18 *329:77 0.000232492
60 *147:16 *329:20 0.00026444
61 *148:12 *329:53 0.000205062
62 *148:12 *329:61 0.000134008
63 *148:12 *329:63 0.000144856
64 *148:12 *329:77 0.00130612
65 *151:12 *329:63 3.98559e-05
66 *151:18 *329:63 0.00435754
67 *151:18 *329:77 2.05695e-05
68 *164:26 *3581:A_N 2.51343e-06
69 *170:14 *329:20 0.000266853
70 *170:28 *329:26 0.000783677
71 *170:85 *329:77 0.000103646
72 *170:92 *329:84 9.67876e-05
73 *170:92 *329:88 0.000138584
74 *170:103 *3581:A_N 8.5275e-05
75 *170:103 *329:88 0.000517085
76 *177:12 *329:63 0.0016144
77 *219:16 *329:63 0.000401489
78 *219:28 *329:77 0.000101825
79 *219:40 *329:84 7.95355e-05
80 *309:10 *3581:A_N 6.61817e-05
81 *315:42 *329:61 0.000591389
82 *325:36 *329:77 0.000157449
83 *327:20 *329:20 3.34639e-05
84 *327:20 *329:26 0.000465089
85 *327:43 *329:53 0.00159118
86 *327:51 *329:53 0.000911226
87 *327:51 *329:61 0.000659646
88 *327:61 *329:63 0.000967812
89 *327:61 *329:77 0.000111763
90 *327:87 *3581:A_N 2.09136e-05
91 *327:87 *329:84 0.000266479
92 *327:87 *329:88 0.000223211
*RES
1 *3792:X *329:20 44.4161 
2 *329:20 *329:26 11.6713 
3 *329:26 *3594:A 17.7904 
4 *329:26 *329:53 44.3601 
5 *329:53 *329:61 27.8036 
6 *329:61 *329:63 46.125 
7 *329:63 *329:77 23.4308 
8 *329:77 *3578:A_N 9.3 
9 *329:77 *329:84 4.23214 
10 *329:84 *329:88 6.71429 
11 *329:88 *3580:A_N 9.3 
12 *329:88 *3581:A_N 37.7286 
13 *329:84 *3579:A_N 9.3 
*END

*D_NET *330 0.00797916
*CONN
*I *3797:A I *D sky130_fd_sc_hd__buf_12
*I *3588:Q O *D sky130_fd_sc_hd__dfrtp_1
*CAP
1 *3797:A 0
2 *3588:Q 0.000390426
3 *330:18 0.00131596
4 *330:10 0.00170639
5 *330:10 *365:24 0.000674966
6 *330:18 *335:12 0.00138272
7 *3588:RESET_B *330:10 6.42338e-05
8 *3638:A *330:18 0.0015984
9 *3640:A *330:10 0.000146474
10 *3714:A *330:10 0
11 *3733:A *330:18 0.000659802
12 *3792:A *330:18 3.97925e-05
*RES
1 *3588:Q *330:10 27.2286 
2 *330:10 *330:18 45.0536 
3 *330:18 *3797:A 9.3 
*END

*D_NET *331 0.00902885
*CONN
*I *3798:A I *D sky130_fd_sc_hd__buf_12
*I *3582:X O *D sky130_fd_sc_hd__and4b_1
*CAP
1 *3798:A 0
2 *3582:X 0.000494165
3 *331:20 0.00264816
4 *331:12 0.00314232
5 *331:12 *3584:B 3.56764e-05
6 *331:12 *360:20 0.000629846
7 *331:20 *3820:A 0.000887927
8 *331:20 *3824:A 9.76435e-06
9 *331:20 *336:36 0.000178425
10 wbs_dat_o[2] *331:20 4.87953e-05
11 wbs_dat_o[3] *331:20 7.32272e-05
12 *395:DIODE *331:12 0.000157334
13 *3625:A *331:20 3.34295e-05
14 *3639:A *331:12 0
15 *3787:A *331:20 0
16 *3794:A *331:12 6.27359e-05
17 *118:49 *331:12 5.49489e-05
18 *147:16 *331:20 0
19 *170:14 *331:20 0.000371836
20 *323:16 *331:20 2.74834e-05
21 *324:12 *331:20 0.000172773
*RES
1 *3582:X *331:12 28.675 
2 *331:12 *331:20 43.5 
3 *331:20 *3798:A 9.3 
*END

*D_NET *332 0.0144686
*CONN
*I *3799:A I *D sky130_fd_sc_hd__buf_12
*I *3560:X O *D sky130_fd_sc_hd__and4b_1
*CAP
1 *3799:A 0.000252999
2 *3560:X 0.00124138
3 *332:42 0.00286023
4 *332:26 0.00384861
5 *3799:A *336:38 0.000187875
6 *332:26 *337:18 2.77522e-05
7 *332:26 *367:25 0
8 *332:26 *371:23 1.17968e-05
9 *332:42 *3553:A 0
10 *332:42 *3828:A 0
11 *332:42 *333:46 0.000108345
12 *332:42 *350:20 0
13 *332:42 *367:52 0
14 *332:42 *371:42 5.85902e-05
15 wbs_dat_o[10] *3799:A 5.52302e-05
16 *406:DIODE *332:26 9.25014e-06
17 *3604:A *3799:A 0.000301659
18 *3604:A *332:42 3.00174e-05
19 *3633:A *332:42 0
20 *3749:A *332:42 0.000116879
21 *114:19 *332:26 0
22 *135:21 *332:26 4.22132e-05
23 *143:31 *332:26 1.30932e-05
24 *144:19 *332:26 0.000162405
25 *145:51 *332:42 6.27272e-06
26 *148:12 *332:42 0.000155767
27 *170:28 *332:26 0.000178823
28 *170:37 *332:26 0.000263447
29 *181:30 *332:42 0
30 *258:12 *332:42 0
31 *320:12 *332:42 0
32 *321:8 *3799:A 0.000643299
33 *329:26 *332:26 0.000118507
34 *329:53 *332:26 0.00137393
35 *329:53 *332:42 0.00240024
*RES
1 *3560:X *332:26 43.7423 
2 *332:26 *332:42 47.8393 
3 *332:42 *3799:A 17.675 
*END

*D_NET *333 0.0121543
*CONN
*I *3800:A I *D sky130_fd_sc_hd__buf_12
*I *3561:X O *D sky130_fd_sc_hd__and4b_1
*CAP
1 *3800:A 0
2 *3561:X 0.00127049
3 *333:46 0.000766004
4 *333:24 0.00203649
5 *333:24 *334:28 0.000881062
6 *333:24 *350:20 0.00073895
7 *333:24 *362:20 0.000133696
8 *333:24 *372:14 0.000119216
9 *333:46 *3828:A 0
10 *333:46 *336:38 0.000441768
11 *333:46 *350:20 0.000386303
12 wbs_dat_o[11] *333:46 9.83442e-05
13 *395:DIODE *333:24 5.49544e-05
14 *460:DIODE *333:24 1.55885e-05
15 *3588:RESET_B *333:24 0.000264685
16 *3602:A *333:46 0.000116855
17 *3603:A *333:46 0
18 *3632:A *333:46 0.000135152
19 *3633:A *333:46 0.000185118
20 *3639:A *333:24 0.00026353
21 *3682:A *333:46 9.25014e-06
22 *3686:A *333:46 0.000186662
23 *3725:A *333:46 5.36755e-05
24 *3749:A *333:46 5.52238e-05
25 *3778:A *333:24 3.70084e-05
26 *111:14 *333:24 0.00173533
27 *111:14 *333:46 0.000378867
28 *159:8 *333:46 0.000328666
29 *315:20 *333:24 0.000177545
30 *321:8 *333:46 5.04589e-05
31 *324:14 *333:46 0.00112504
32 *332:42 *333:46 0.000108345
*RES
1 *3561:X *333:24 46.5679 
2 *333:24 *333:46 45.1964 
3 *333:46 *3800:A 9.3 
*END

*D_NET *334 0.0117279
*CONN
*I *3801:A I *D sky130_fd_sc_hd__buf_12
*I *3562:X O *D sky130_fd_sc_hd__and4b_2
*CAP
1 *3801:A 0.000170082
2 *3562:X 0.00100401
3 *334:34 0.002285
4 *334:32 0.00250733
5 *334:28 0.00139643
6 *334:28 *3559:C 0.000142367
7 *334:28 *3561:B 4.99256e-05
8 *334:28 *343:24 6.38844e-06
9 *334:28 *366:90 5.52302e-05
10 *334:28 *366:103 8.27532e-05
11 *334:28 *370:54 0.000171368
12 *334:32 *3823:A 5.57669e-05
13 *334:32 *365:24 0.000370618
14 *334:34 *335:16 0
15 *334:34 *365:34 0.0015355
16 wbs_dat_o[12] *3801:A 0.000179329
17 *465:DIODE *334:28 6.54786e-05
18 *3564:D *334:28 1.55885e-05
19 *3617:A *334:32 0.000612457
20 *3634:A *334:34 7.96614e-05
21 *3736:A *3801:A 0
22 *3793:A *334:28 5.33005e-05
23 *3:13 *334:34 0
24 *181:20 *334:28 8.23597e-06
25 *333:24 *334:28 0.000881062
*RES
1 *3562:X *334:28 40.7821 
2 *334:28 *334:32 14.9464 
3 *334:32 *334:34 52.2857 
4 *334:34 *3801:A 21.7643 
*END

*D_NET *335 0.0175949
*CONN
*I *3802:A I *D sky130_fd_sc_hd__buf_12
*I *3563:X O *D sky130_fd_sc_hd__and4b_2
*CAP
1 *3802:A 8.63404e-05
2 *3563:X 0.00109118
3 *335:16 0.00445272
4 *335:14 0.00442024
5 *335:12 0.00114503
6 *335:12 *365:34 0.000621579
7 *335:16 *337:40 0.000182881
8 *335:16 *365:34 0.00157178
9 wbs_dat_o[14] *3802:A 0
10 wbs_dat_o[2] *335:12 0.000136423
11 *461:DIODE *335:12 4.78056e-05
12 *3620:A *335:12 0
13 *3621:A *335:12 0.000140088
14 *3634:A *335:16 0.00116804
15 *3638:A *335:12 0.000320917
16 *3699:A *335:12 8.91726e-05
17 *3735:A *3802:A 0.00011925
18 *3756:A *3802:A 2.83284e-06
19 *3788:A *335:12 0.000519863
20 *3:13 *335:12 0
21 *329:20 *335:12 9.60281e-05
22 *330:18 *335:12 0.00138272
23 *334:34 *335:16 0
*RES
1 *3563:X *335:12 49.6929 
2 *335:12 *335:14 1.03571 
3 *335:14 *335:16 57.625 
4 *335:16 *3802:A 19.9429 
*END

*D_NET *336 0.0177336
*CONN
*I *3803:A I *D sky130_fd_sc_hd__buf_12
*I *3564:X O *D sky130_fd_sc_hd__and4b_2
*CAP
1 *3803:A 2.37855e-05
2 *3564:X 0.00100945
3 *336:38 0.00270327
4 *336:36 0.00418145
5 *336:24 0.00251142
6 *336:24 *3561:A_N 0.00019384
7 *336:24 *3561:C 7.6644e-05
8 *336:24 *366:45 0.000124162
9 *336:24 *368:34 0.000180778
10 *336:24 *370:48 6.11846e-05
11 *336:36 *3820:A 9.11048e-06
12 *336:36 *3824:A 2.84109e-05
13 wbs_dat_o[10] *336:38 0.000113073
14 wbs_dat_o[11] *336:38 0.000108297
15 wbs_dat_o[14] *336:38 2.89114e-05
16 wbs_dat_o[6] *336:38 6.54309e-05
17 *461:DIODE *336:24 1.90936e-05
18 *3561:D *336:24 0.000119774
19 *3564:D *336:24 2.79421e-05
20 *3602:A *336:38 0.000312261
21 *3604:A *336:38 0.000648986
22 *3605:A *336:38 0.000216054
23 *3609:A *336:36 4.42631e-05
24 *3637:A *336:38 0.000219818
25 *3641:A *336:24 0
26 *3653:A *336:38 3.18676e-05
27 *3666:A *336:38 0.000645351
28 *3699:A *336:24 2.37761e-05
29 *3706:A *336:24 0.000358977
30 *3736:A *336:38 7.77751e-05
31 *3782:A *336:38 0.00014211
32 *3784:A *336:38 9.91033e-05
33 *3788:A *336:24 0
34 *3789:A *336:24 0.000535745
35 *3789:A *336:36 1.67291e-05
36 *3799:A *336:38 0.000187875
37 *115:41 *336:36 0.00144941
38 *225:6 *336:38 0.000107121
39 *236:14 *336:38 0.000185117
40 *321:8 *336:38 7.39492e-05
41 *323:16 *336:36 0.000130597
42 *329:26 *336:24 2.04825e-05
43 *331:20 *336:36 0.000178425
44 *333:46 *336:38 0.000441768
*RES
1 *3564:X *336:24 42.1185 
2 *336:24 *336:36 31.75 
3 *336:36 *336:38 53.1071 
4 *336:38 *3803:A 9.72857 
*END

*D_NET *337 0.0221009
*CONN
*I *3804:A I *D sky130_fd_sc_hd__buf_12
*I *3565:X O *D sky130_fd_sc_hd__and4b_2
*CAP
1 *3804:A 0
2 *3565:X 0.00207654
3 *337:40 0.00232964
4 *337:20 0.0034591
5 *337:18 0.00320601
6 *337:18 *3582:B 7.40571e-05
7 *337:20 *3586:A_N 0.000135028
8 *337:40 *371:69 1.34009e-05
9 wbs_dat_o[13] *337:40 0
10 wbs_dat_o[15] *337:40 0
11 *406:DIODE *337:18 0.000107442
12 *3615:A *337:40 0.000145788
13 *3651:A *337:40 2.33992e-05
14 *3722:A *337:20 0.000137179
15 *3725:A *337:20 0.00116004
16 *3735:A *337:40 0.000144978
17 *3755:A *337:40 0.000118488
18 *117:21 *337:18 2.21972e-05
19 *120:46 *337:40 0
20 *135:21 *337:18 1.33776e-05
21 *139:43 *337:20 0.00197275
22 *170:28 *337:18 0.000580082
23 *321:22 *337:40 1.61405e-05
24 *328:18 *337:20 0.00520293
25 *329:26 *337:18 0.000229282
26 *329:53 *337:18 0.000722446
27 *332:26 *337:18 2.77522e-05
28 *335:16 *337:40 0.000182881
*RES
1 *3565:X *337:18 30.8985 
2 *337:18 *337:20 50.2321 
3 *337:20 *337:40 47.4821 
4 *337:40 *3804:A 13.8 
*END

*D_NET *338 0.00481908
*CONN
*I *3805:A I *D sky130_fd_sc_hd__buf_12
*I *3566:X O *D sky130_fd_sc_hd__and4b_1
*CAP
1 *3805:A 0
2 *3566:X 0.00153256
3 *338:16 0.00153256
4 *338:16 *367:68 0.000460259
5 *338:16 *367:103 0.000143375
6 *385:DIODE *338:16 9.90367e-05
7 *3567:D *338:16 0.000198574
8 *3568:D *338:16 0.000226867
9 *3615:A *338:16 0
10 *3663:A *338:16 0
11 *3681:A *338:16 0.000118488
12 *3759:A *338:16 4.6025e-06
13 *145:51 *338:16 0.000502756
*RES
1 *3566:X *338:16 43.1036 
2 *338:16 *3805:A 9.3 
*END

*D_NET *339 0.0557276
*CONN
*I *3716:A I *D sky130_fd_sc_hd__dlygate4sd3_1
*I *473:DIODE I *D sky130_fd_sc_hd__diode_2
*I *3793:X O *D sky130_fd_sc_hd__buf_4
*CAP
1 *3716:A 0.000236143
2 *473:DIODE 0
3 *3793:X 0.00137951
4 *339:54 0.00121713
5 *339:52 0.001803
6 *339:42 0.00215408
7 *339:26 0.00376801
8 *339:24 0.0033591
9 *339:20 0.00230266
10 *3716:A *3713:A 1.21955e-05
11 *339:20 *3561:A_N 4.53834e-05
12 *339:20 *3563:A_N 5.33005e-05
13 *339:20 *343:24 0.00107376
14 *339:20 *361:14 0.000207085
15 *339:20 *364:30 0.000525157
16 *339:20 *370:48 0
17 *339:24 *361:14 0.000562113
18 *339:24 *367:52 0.0013559
19 *339:26 *340:16 0.00135296
20 *339:26 *361:14 0.000499401
21 *339:42 *3577:C 7.29646e-05
22 *339:42 *361:14 0.000121926
23 *339:52 *3737:vpwrac 0.000367398
24 *339:54 *3737:vpwrac 0.000727733
25 *339:54 *350:60 0.00377935
26 *391:DIODE *339:26 0.000186662
27 *393:DIODE *339:26 0.00014285
28 *3574:D *339:42 0
29 *3766:A *339:42 3.47641e-06
30 *3782:A *339:20 4.38058e-05
31 *3783:A *339:24 0.000185118
32 *3793:A *339:20 6.54139e-05
33 *3795:A *339:20 6.69937e-05
34 *3:17 *3716:A 0.000241665
35 *3:17 *339:52 4.67566e-05
36 *3:17 *339:54 0.003956
37 *113:29 *339:42 8.23597e-06
38 *113:31 *339:26 0.000117423
39 *113:31 *339:42 0.000924903
40 *118:21 *339:26 0.00582408
41 *118:49 *339:20 0
42 *119:13 *339:42 0.000161068
43 *129:42 *339:42 7.14196e-06
44 *129:48 *339:42 1.60978e-05
45 *131:31 *339:42 0
46 *132:33 *339:42 0
47 *132:37 *339:42 0
48 *146:18 *339:42 9.94618e-05
49 *146:26 *339:42 0.000108171
50 *164:26 *339:42 0.000189698
51 *181:20 *339:20 0.000141176
52 *182:12 *339:52 0.000891069
53 *206:10 *3716:A 3.85161e-05
54 *206:10 *339:54 5.38886e-05
55 *232:10 *3716:A 6.74911e-05
56 *258:14 *339:42 5.49166e-05
57 *258:28 *339:42 0.000829062
58 *258:30 *339:52 0.00193258
59 *258:30 *339:54 1.20719e-05
60 *281:30 *339:42 3.67086e-05
61 *292:16 *339:42 0.00070573
62 *303:16 *339:42 0.000176196
63 *304:14 *339:42 0.00144632
64 *315:20 *339:20 0.00180364
65 *317:22 *339:20 1.21258e-05
66 *317:32 *339:24 0.00428909
67 *317:32 *339:26 0.00018298
68 *317:42 *339:52 0.000430211
69 *317:50 *339:52 0.00182038
70 *320:12 *339:24 6.02888e-05
71 *322:12 *339:24 0.0010129
72 *322:12 *339:26 0.000358971
*RES
1 *3793:X *339:20 31.9017 
2 *339:20 *339:24 41.2143 
3 *339:24 *339:26 62.1429 
4 *339:26 *339:42 49.7321 
5 *339:42 *339:52 42.8482 
6 *339:52 *339:54 50.0625 
7 *339:54 *473:DIODE 13.8 
8 *339:54 *3716:A 19.1393 
*END

*D_NET *340 0.00628648
*CONN
*I *3806:A I *D sky130_fd_sc_hd__buf_12
*I *3567:X O *D sky130_fd_sc_hd__and4b_1
*CAP
1 *3806:A 0.000219336
2 *3567:X 0.00181112
3 *340:16 0.00203046
4 *340:16 *341:20 0
5 *340:16 *361:14 0.000111763
6 wbs_dat_o[17] *3806:A 0.00014258
7 *3612:A *340:16 0.000100996
8 *3681:A *3806:A 0.000175892
9 *3681:A *340:16 0
10 *115:29 *3806:A 0.000244038
11 *121:46 *340:16 0
12 *121:55 *340:16 0
13 *192:20 *340:16 8.87048e-05
14 *325:26 *340:16 8.6229e-06
15 *339:26 *340:16 0.00135296
*RES
1 *3567:X *340:16 47.7464 
2 *340:16 *3806:A 18.5857 
*END

*D_NET *341 0.00460643
*CONN
*I *3807:A I *D sky130_fd_sc_hd__buf_12
*I *3568:X O *D sky130_fd_sc_hd__and4b_1
*CAP
1 *3807:A 3.75127e-05
2 *3568:X 0.00148738
3 *341:20 0.00152489
4 *341:20 *344:16 0
5 *341:20 *367:103 0.000358971
6 wbs_dat_o[18] *3807:A 5.52302e-05
7 *3612:A *3807:A 5.65955e-05
8 *3663:A *341:20 0
9 *3667:A *341:20 0
10 *3670:A *341:20 0
11 *3675:A *341:20 0
12 *120:42 *341:20 0.00090369
13 *225:6 *3807:A 3.88131e-05
14 *236:14 *3807:A 0.000143344
15 *340:16 *341:20 0
*RES
1 *3568:X *341:20 48.8179 
2 *341:20 *3807:A 11.0679 
*END

*D_NET *342 0.00512376
*CONN
*I *3808:A I *D sky130_fd_sc_hd__buf_12
*I *3569:X O *D sky130_fd_sc_hd__and4b_1
*CAP
1 *3808:A 0
2 *3569:X 0.00166623
3 *342:14 0.00166623
4 *342:14 *367:113 0.000434114
5 *342:14 *367:128 0.000292062
6 *342:14 *367:137 0.000256985
7 *342:14 *371:99 7.09928e-05
8 *342:14 *371:118 0.000145558
9 wbs_dat_o[19] *342:14 0.00010096
10 *391:DIODE *342:14 0.000183348
11 *3613:A *342:14 0
12 *3652:A *342:14 0.000208242
13 *115:29 *342:14 9.90431e-05
*RES
1 *3569:X *342:14 44.5857 
2 *342:14 *3808:A 9.3 
*END

*D_NET *343 0.00875663
*CONN
*I *3809:A I *D sky130_fd_sc_hd__buf_12
*I *3583:X O *D sky130_fd_sc_hd__and4b_1
*CAP
1 *3809:A 0.00040236
2 *3583:X 0.00155442
3 *343:24 0.00195678
4 *343:24 *3559:C 7.90803e-05
5 *343:24 *3823:A 0.000148975
6 *343:24 *364:30 0.000668839
7 *343:24 *368:88 5.08712e-05
8 *457:DIODE *343:24 0.000146858
9 *462:DIODE *343:24 6.39929e-05
10 *465:DIODE *343:24 1.90936e-05
11 *3719:A *3809:A 3.3231e-05
12 *3723:A *3809:A 0.000786561
13 *3731:A *3809:A 0.000372311
14 *118:49 *343:24 0.000260574
15 *144:19 *343:24 6.93867e-05
16 *317:22 *343:24 0.00106314
17 *334:28 *343:24 6.38844e-06
18 *339:20 *343:24 0.00107376
*RES
1 *3583:X *343:24 47.6645 
2 *343:24 *3809:A 24.55 
*END

*D_NET *344 0.00379878
*CONN
*I *3810:A I *D sky130_fd_sc_hd__buf_12
*I *3570:X O *D sky130_fd_sc_hd__and4b_1
*CAP
1 *3810:A 0
2 *3570:X 0.00122946
3 *344:16 0.00122946
4 *344:16 *345:22 0.000279006
5 *344:16 *367:128 0.000237168
6 *344:16 *371:118 1.98839e-05
7 wbs_dat_o[20] *344:16 5.49544e-05
8 *3613:A *344:16 0.000186669
9 *3670:A *344:16 0
10 *225:6 *344:16 0.00021704
11 *236:14 *344:16 0.000322785
12 *292:8 *344:16 2.2351e-05
13 *341:20 *344:16 0
*RES
1 *3570:X *344:16 41.0321 
2 *344:16 *3810:A 9.3 
*END

*D_NET *345 0.00603905
*CONN
*I *3811:A I *D sky130_fd_sc_hd__buf_12
*I *3571:X O *D sky130_fd_sc_hd__and4b_1
*CAP
1 *3811:A 0
2 *3571:X 0.00136738
3 *345:22 0.00136738
4 *345:22 *367:137 0.0001399
5 wbs_dat_o[20] *345:22 7.98659e-05
6 wbs_dat_o[21] *345:22 0.000667682
7 *3616:A *345:22 0.000187569
8 *3647:A *345:22 0.000610309
9 *3652:A *345:22 0.000632768
10 *236:14 *345:22 5.47047e-05
11 *270:28 *345:22 0.000605235
12 *292:8 *345:22 4.72487e-05
13 *344:16 *345:22 0.000279006
*RES
1 *3571:X *345:22 47.0679 
2 *345:22 *3811:A 9.3 
*END

*D_NET *346 0.00324609
*CONN
*I *3812:A I *D sky130_fd_sc_hd__buf_12
*I *3572:X O *D sky130_fd_sc_hd__and4b_1
*CAP
1 *3812:A 0.000504353
2 *3572:X 0.000504353
3 *3812:A *350:42 0.000646692
4 *3812:A *372:14 0.000216736
5 wbs_dat_o[22] *3812:A 9.83442e-05
6 *392:DIODE *3812:A 1.89507e-06
7 *3649:A *3812:A 0
8 *120:42 *3812:A 0.00127372
*RES
1 *3572:X *3812:A 43.7071 
*END

*D_NET *347 0.00377618
*CONN
*I *3813:A I *D sky130_fd_sc_hd__buf_12
*I *3573:X O *D sky130_fd_sc_hd__and4b_1
*CAP
1 *3813:A 0.00121786
2 *3573:X 0.00121786
3 *3813:A *367:159 0.000183466
4 wbs_dat_o[22] *3813:A 2.19306e-05
5 wbs_dat_o[23] *3813:A 5.52302e-05
6 *393:DIODE *3813:A 0
7 *403:DIODE *3813:A 3.84349e-05
8 *3614:A *3813:A 0
9 *3688:A *3813:A 0.00044299
10 *115:29 *3813:A 0.000247823
11 *118:19 *3813:A 0
12 *129:42 *3813:A 2.53281e-05
13 *129:48 *3813:A 5.85978e-05
14 *129:50 *3813:A 5.52302e-05
15 *129:52 *3813:A 8.75372e-05
16 *281:20 *3813:A 7.54868e-05
17 *317:38 *3813:A 4.84147e-05
*RES
1 *3573:X *3813:A 48.9929 
*END

*D_NET *348 0.0065812
*CONN
*I *3814:A I *D sky130_fd_sc_hd__buf_12
*I *3574:X O *D sky130_fd_sc_hd__and4b_1
*CAP
1 *3814:A 0
2 *3574:X 0.00154521
3 *348:14 0.00154521
4 *348:14 *3577:A_N 3.69551e-05
5 *348:14 *3815:A 0.00165151
6 *348:14 *367:172 0.00040765
7 *348:14 *367:179 9.77274e-05
8 wbs_dat_o[24] *348:14 0.000188586
9 wbs_dat_o[25] *348:14 1.37492e-05
10 *426:DIODE *348:14 6.74318e-05
11 *3575:D *348:14 1.40749e-05
12 *3708:A *348:14 0
13 *115:29 *348:14 0.000186669
14 *259:22 *348:14 0.000826419
*RES
1 *3574:X *348:14 47.8714 
2 *348:14 *3814:A 9.3 
*END

*D_NET *349 0.00441695
*CONN
*I *3815:A I *D sky130_fd_sc_hd__buf_12
*I *3575:X O *D sky130_fd_sc_hd__and4b_1
*CAP
1 *3815:A 0.000612669
2 *3575:X 0.000612669
3 *3815:A *3577:A_N 0.000236853
4 *3815:A *351:24 0.000185283
5 wbs_dat_o[25] *3815:A 0.00014183
6 *405:DIODE *3815:A 0.0001839
7 *426:DIODE *3815:A 5.42764e-05
8 *120:30 *3815:A 0.000392026
9 *132:41 *3815:A 3.6683e-05
10 *132:47 *3815:A 0.000119163
11 *132:49 *3815:A 0.00018164
12 *259:22 *3815:A 8.44271e-06
13 *348:14 *3815:A 0.00165151
*RES
1 *3575:X *3815:A 48.1714 
*END

*D_NET *350 0.048205
*CONN
*I *3707:A I *D sky130_fd_sc_hd__dlygate4sd3_1
*I *3794:X O *D sky130_fd_sc_hd__buf_4
*CAP
1 *3707:A 0.000132591
2 *3794:X 0.00224324
3 *350:60 0.00106612
4 *350:58 0.00314388
5 *350:42 0.00433499
6 *350:30 0.00303802
7 *350:26 0.000972165
8 *350:20 0.00230202
9 *350:20 *363:28 0.000482601
10 *350:20 *372:14 0.00190695
11 *350:30 *372:14 0.000386331
12 *350:42 *372:14 0.000218967
13 *350:60 *3737:vpwrac 0.00081406
14 wbs_dat_o[22] *350:42 0.000270507
15 *3575:D *350:42 0
16 *3639:A *350:20 0.00026353
17 *3692:A *350:42 0.000112418
18 *3712:A *350:20 5.33005e-05
19 *3737:DI[13] *350:58 0.000811509
20 *3767:A *350:42 5.62995e-05
21 *3785:A *350:20 2.05413e-05
22 *3812:A *350:42 0.000646692
23 *111:14 *350:20 0.000105125
24 *111:14 *350:30 0.000186669
25 *113:29 *350:42 9.87983e-06
26 *118:11 *350:58 1.33425e-05
27 *120:42 *350:30 0.00435788
28 *120:42 *350:42 0.000359669
29 *121:40 *350:42 2.99593e-05
30 *121:46 *350:30 0.00349055
31 *129:11 *350:58 0.000810783
32 *130:19 *350:58 0.000520839
33 *145:73 *350:42 0
34 *148:12 *350:42 0.000786875
35 *162:24 *350:58 6.90381e-06
36 *166:24 *350:58 0.00157736
37 *192:20 *350:20 0.00116602
38 *203:8 *350:30 0.000174352
39 *206:10 *350:60 6.5185e-05
40 *219:28 *350:42 4.8405e-05
41 *219:42 *350:60 2.50463e-05
42 *241:48 *350:58 0.000685705
43 *241:84 *350:58 5.33005e-05
44 *258:12 *350:20 6.05161e-06
45 *258:30 *350:60 0.00358748
46 *303:16 *350:42 0.00040279
47 *304:10 *350:42 0
48 *317:50 *350:58 4.38056e-05
49 *320:16 *350:30 0.000222982
50 *322:18 *350:30 0.000514006
51 *329:77 *350:42 0.000772722
52 *332:42 *350:20 0
53 *333:24 *350:20 0.00073895
54 *333:46 *350:20 0.000386303
55 *339:54 *350:60 0.00377935
*RES
1 *3794:X *350:20 47.8463 
2 *350:20 *350:26 8.49036 
3 *350:26 *350:30 48.0893 
4 *350:30 *350:42 47.6014 
5 *350:42 *350:58 36.233 
6 *350:58 *350:60 47.7857 
7 *350:60 *3707:A 15.5679 
*END

*D_NET *351 0.00370941
*CONN
*I *3816:A I *D sky130_fd_sc_hd__buf_12
*I *3576:X O *D sky130_fd_sc_hd__and4b_1
*CAP
1 *3816:A 0
2 *3576:X 0.000760153
3 *351:24 0.000760153
4 *3771:A *351:24 3.57555e-05
5 *3815:A *351:24 0.000185283
6 *132:37 *351:24 0.000187828
7 *132:39 *351:24 0.000130458
8 *132:41 *351:24 9.51899e-05
9 *145:77 *351:24 0.000510629
10 *164:12 *351:24 0.000306311
11 *219:40 *351:24 0.000154954
12 *259:22 *351:24 7.39877e-05
13 *304:14 *351:24 0.000508706
*RES
1 *3576:X *351:24 44.2643 
2 *351:24 *3816:A 9.3 
*END

*D_NET *352 0.00377314
*CONN
*I *3817:A I *D sky130_fd_sc_hd__buf_12
*I *3577:X O *D sky130_fd_sc_hd__and4b_1
*CAP
1 *3817:A 0.000588439
2 *3577:X 0.000588439
3 wbs_dat_o[27] *3817:A 0.000348594
4 *3770:A *3817:A 7.34832e-05
5 *3:17 *3817:A 0.000127615
6 *120:30 *3817:A 0.000857943
7 *258:28 *3817:A 9.49939e-05
8 *281:30 *3817:A 0.000857943
9 *302:20 *3817:A 0.000235688
*RES
1 *3577:X *3817:A 46.0464 
*END

*D_NET *353 0.00510902
*CONN
*I *3818:A I *D sky130_fd_sc_hd__buf_12
*I *3578:X O *D sky130_fd_sc_hd__and4b_1
*CAP
1 *3818:A 0
2 *3578:X 0.00135604
3 *353:14 0.00135604
4 *353:14 *3819:A 0.000203155
5 wbs_dat_o[28] *353:14 0.000139815
6 *444:DIODE *353:14 0.000149868
7 *3611:A *353:14 0.000353297
8 *3630:A *353:14 0.000216862
9 *3655:A *353:14 0.000139975
10 *136:13 *353:14 3.31882e-05
11 *304:16 *353:14 0.000202038
12 *305:10 *353:14 0
13 *309:8 *353:14 0.000226733
14 *309:10 *353:14 0
15 *327:87 *353:14 0.000732005
*RES
1 *3578:X *353:14 45.8 
2 *353:14 *3818:A 9.3 
*END

*D_NET *354 0.00343173
*CONN
*I *3819:A I *D sky130_fd_sc_hd__buf_12
*I *3579:X O *D sky130_fd_sc_hd__and4b_1
*CAP
1 *3819:A 0.000700281
2 *3579:X 0.000700281
3 wbs_dat_o[29] *3819:A 0.00040279
4 *444:DIODE *3819:A 7.29646e-05
5 *3581:B *3819:A 3.07021e-05
6 *113:29 *3819:A 0.000655981
7 *121:32 *3819:A 0.000153773
8 *170:103 *3819:A 0.0003888
9 *309:10 *3819:A 0.000123004
10 *353:14 *3819:A 0.000203155
*RES
1 *3579:X *3819:A 44.6179 
*END

*D_NET *355 0.00413063
*CONN
*I *3820:A I *D sky130_fd_sc_hd__buf_12
*I *3584:X O *D sky130_fd_sc_hd__and4b_1
*CAP
1 *3820:A 0.000892927
2 *3584:X 0.000892927
3 *3820:A *3824:A 0.0002028
4 wbs_dat_o[3] *3820:A 0.000139907
5 wbs_dat_o[4] *3820:A 0.000259273
6 *3609:A *3820:A 1.15085e-05
7 *145:22 *3820:A 9.63317e-05
8 *323:16 *3820:A 3.39935e-05
9 *324:12 *3820:A 0.000703928
10 *331:20 *3820:A 0.000887927
11 *336:36 *3820:A 9.11048e-06
*RES
1 *3584:X *3820:A 49.0821 
*END

*D_NET *356 0.00379022
*CONN
*I *3821:A I *D sky130_fd_sc_hd__buf_12
*I *3580:X O *D sky130_fd_sc_hd__and4b_1
*CAP
1 *3821:A 0
2 *3580:X 0.0015344
3 *356:18 0.0015344
4 *356:18 *3822:A 7.8779e-05
5 wbs_dat_o[30] *356:18 5.49544e-05
6 wbs_dat_o[31] *356:18 0
7 *3581:B *356:18 0.000393527
8 *3581:C *356:18 1.06502e-05
9 *3581:D *356:18 2.84816e-05
10 *3631:A *356:18 2.8266e-06
11 *3655:A *356:18 0.000117662
12 *3774:A *356:18 1.0792e-05
13 *120:18 *356:18 0
14 *121:22 *356:18 0
15 *311:10 *356:18 0
16 *327:87 *356:18 2.37575e-05
*RES
1 *3580:X *356:18 44.2643 
2 *356:18 *3821:A 9.3 
*END

*D_NET *357 0.0026819
*CONN
*I *3822:A I *D sky130_fd_sc_hd__buf_12
*I *3581:X O *D sky130_fd_sc_hd__and4b_1
*CAP
1 *3822:A 0.00130156
2 *3581:X 0.00130156
3 *3655:A *3822:A 0
4 *356:18 *3822:A 7.8779e-05
*RES
1 *3581:X *3822:A 46.0643 
*END

*D_NET *358 0.00172384
*CONN
*I *3823:A I *D sky130_fd_sc_hd__buf_12
*I *3585:X O *D sky130_fd_sc_hd__and4b_1
*CAP
1 *3823:A 0.000509928
2 *3585:X 0.000509928
3 *3823:A *360:20 4.18299e-05
4 *3823:A *365:24 0
5 *457:DIODE *3823:A 1.26641e-05
6 *3617:A *3823:A 0.000205991
7 *118:49 *3823:A 5.52238e-05
8 *324:12 *3823:A 0.000183532
9 *334:32 *3823:A 5.57669e-05
10 *343:24 *3823:A 0.000148975
*RES
1 *3585:X *3823:A 37.0643 
*END

*D_NET *359 0.00301118
*CONN
*I *3824:A I *D sky130_fd_sc_hd__buf_12
*I *3586:X O *D sky130_fd_sc_hd__and4b_1
*CAP
1 *3824:A 0.000728944
2 *3586:X 0.000728944
3 *3824:A *3583:B 0.000119174
4 *3824:A *3584:C 0.000204278
5 *3824:A *360:20 0.000125032
6 *3824:A *368:133 9.41642e-05
7 *3824:A *368:137 8.47743e-05
8 wbs_dat_o[4] *3824:A 0.000136682
9 *3609:A *3824:A 0.000160877
10 *3820:A *3824:A 0.0002028
11 *124:23 *3824:A 4.76642e-05
12 *145:22 *3824:A 0.000208428
13 *323:16 *3824:A 0.000131246
14 *331:20 *3824:A 9.76435e-06
15 *336:36 *3824:A 2.84109e-05
*RES
1 *3586:X *3824:A 43.1536 
*END

*D_NET *360 0.00418293
*CONN
*I *3825:A I *D sky130_fd_sc_hd__buf_12
*I *3587:X O *D sky130_fd_sc_hd__and4b_1
*CAP
1 *3825:A 0
2 *3587:X 0.000854024
3 *360:20 0.000854024
4 *360:20 *3556:C 1.82692e-05
5 *360:20 *3584:B 3.10819e-05
6 *360:20 *363:28 1.90936e-05
7 *360:20 *365:24 3.47641e-06
8 *3583:D *360:20 0.000177815
9 *3607:A *360:20 0.000231278
10 *3609:A *360:20 0.000367655
11 *3639:A *360:20 0
12 *3823:A *360:20 4.18299e-05
13 *3824:A *360:20 0.000125032
14 *115:41 *360:20 0.000125105
15 *124:23 *360:20 8.33813e-05
16 *145:22 *360:20 0.000175892
17 *317:30 *360:20 0.000432693
18 *317:32 *360:20 1.24368e-05
19 *331:12 *360:20 0.000629846
*RES
1 *3587:X *360:20 48.3714 
2 *360:20 *3825:A 9.3 
*END

*D_NET *361 0.056425
*CONN
*I *3713:A I *D sky130_fd_sc_hd__dlygate4sd3_1
*I *3795:X O *D sky130_fd_sc_hd__buf_4
*CAP
1 *3713:A 0.00298965
2 *3795:X 0.00759815
3 *361:14 0.0105878
4 *3713:A *3705:A 0.000174615
5 *3713:A *3737:vpwrpc 1.66624e-05
6 *361:14 *363:28 2.26973e-05
7 *361:14 *364:30 0.00128128
8 *361:14 *367:52 0.000160191
9 *361:14 *372:14 0.00123705
10 *3674:A *3713:A 0.00727372
11 *3716:A *3713:A 1.21955e-05
12 *3720:A *3713:A 0.00355804
13 *3732:A *3713:A 0
14 *113:29 *361:14 0.000984719
15 *113:31 *361:14 0.000677391
16 *115:17 *3713:A 0.000756611
17 *118:21 *361:14 0.000499401
18 *120:40 *361:14 0.000807746
19 *122:29 *361:14 0.00196503
20 *142:19 *361:14 0.001799
21 *144:9 *3713:A 0.000218679
22 *145:73 *361:14 0.000839982
23 *186:20 *3713:A 0.000106352
24 *187:14 *361:14 2.11419e-05
25 *206:10 *3713:A 1.90936e-05
26 *232:8 *3713:A 3.69047e-06
27 *258:14 *361:14 0.000323305
28 *259:36 *3713:A 0.000535907
29 *281:36 *3713:A 0.000143439
30 *281:38 *3713:A 0.00104821
31 *302:22 *3713:A 0.0010565
32 *303:36 *3713:A 0.00129272
33 *306:14 *361:14 0.00534346
34 *317:32 *361:14 0.00117865
35 *320:12 *361:14 0.000172737
36 *322:12 *361:14 0.000216921
37 *339:20 *361:14 0.000207085
38 *339:24 *361:14 0.000562113
39 *339:26 *361:14 0.000499401
40 *339:42 *361:14 0.000121926
41 *340:16 *361:14 0.000111763
*RES
1 *3795:X *361:14 44.906 
2 *361:14 *3713:A 39.4768 
*END

*D_NET *362 0.00501977
*CONN
*I *3826:A I *D sky130_fd_sc_hd__buf_12
*I *3556:X O *D sky130_fd_sc_hd__and4b_1
*CAP
1 *3826:A 0
2 *3556:X 0.00159653
3 *362:20 0.00159653
4 *362:20 *3827:A 0.000303546
5 *362:20 *372:14 1.53632e-05
6 *457:DIODE *362:20 0.000109039
7 *3556:D *362:20 1.73088e-05
8 *3606:A *362:20 0
9 *3796:A *362:20 0
10 *111:14 *362:20 0.00103909
11 *317:30 *362:20 0.000208664
12 *333:24 *362:20 0.000133696
*RES
1 *3556:X *362:20 46.8357 
2 *362:20 *3826:A 13.8 
*END

*D_NET *363 0.00871809
*CONN
*I *3827:A I *D sky130_fd_sc_hd__buf_12
*I *3557:X O *D sky130_fd_sc_hd__and4b_1
*CAP
1 *3827:A 0.000419421
2 *3557:X 0.00134357
3 *363:28 0.00176299
4 *363:28 *3556:C 9.87983e-06
5 *363:28 *367:52 4.5296e-05
6 wbs_dat_o[6] *3827:A 6.7316e-05
7 *3587:D *363:28 0.00106007
8 *3606:A *3827:A 0
9 *3636:A *3827:A 0.000312373
10 *3637:A *3827:A 0.000110441
11 *3639:A *363:28 5.41794e-05
12 *3703:A *3827:A 0.000119887
13 *3782:A *3827:A 0
14 *115:41 *3827:A 7.79062e-05
15 *118:49 *363:28 0.000306317
16 *142:19 *363:28 0.00124561
17 *181:20 *363:28 0
18 *187:14 *363:28 0.000197604
19 *315:20 *363:28 0.000228532
20 *325:8 *3827:A 0.000528744
21 *350:20 *363:28 0.000482601
22 *360:20 *363:28 1.90936e-05
23 *361:14 *363:28 2.26973e-05
24 *362:20 *3827:A 0.000303546
*RES
1 *3557:X *363:28 45.0956 
2 *363:28 *3827:A 26.3893 
*END

*D_NET *364 0.0116956
*CONN
*I *3828:A I *D sky130_fd_sc_hd__buf_12
*I *3558:X O *D sky130_fd_sc_hd__and4b_1
*CAP
1 *3828:A 0.000543417
2 *3558:X 0.00184785
3 *364:30 0.00239127
4 *364:30 *3557:A_N 1.43643e-05
5 *364:30 *3557:B 5.33005e-05
6 *364:30 *366:103 2.72887e-05
7 *364:30 *366:116 9.35794e-06
8 *364:30 *367:52 2.45832e-05
9 *462:DIODE *364:30 7.7488e-05
10 *3557:D *364:30 0.000106319
11 *3558:D *364:30 3.08382e-06
12 *3604:A *3828:A 0
13 *3605:A *3828:A 0
14 *3621:A *364:30 1.45937e-05
15 *3635:A *3828:A 2.83284e-06
16 *3748:A *3828:A 0
17 *3749:A *3828:A 0
18 *3783:A *364:30 2.47023e-05
19 *111:14 *364:30 0.000534222
20 *118:49 *364:30 0.00010629
21 *142:19 *364:30 0.0029356
22 *148:12 *3828:A 0
23 *148:12 *364:30 4.02032e-05
24 *181:30 *364:30 0.000166337
25 *316:18 *364:30 0.000117913
26 *319:12 *364:30 0.000179365
27 *332:42 *3828:A 0
28 *333:46 *3828:A 0
29 *339:20 *364:30 0.000525157
30 *343:24 *364:30 0.000668839
31 *361:14 *364:30 0.00128128
*RES
1 *3558:X *364:30 48.0312 
2 *364:30 *3828:A 22.1214 
*END

*D_NET *365 0.0105459
*CONN
*I *3829:A I *D sky130_fd_sc_hd__buf_12
*I *3559:X O *D sky130_fd_sc_hd__and4b_1
*CAP
1 *3829:A 0
2 *3559:X 0.00107838
3 *365:34 0.00109073
4 *365:24 0.00216911
5 *365:24 *3556:C 5.20232e-05
6 wbs_dat_o[10] *365:34 0.000165435
7 *460:DIODE *365:24 1.5702e-05
8 *3588:RESET_B *365:24 1.70184e-05
9 *3632:A *365:34 0
10 *3634:A *365:34 0.000479645
11 *3640:A *365:24 1.4023e-05
12 *3686:A *365:34 2.83284e-06
13 *3779:A *365:24 0
14 *3823:A *365:24 0
15 *3:13 *365:34 0
16 *141:23 *365:24 1.14483e-05
17 *317:22 *365:24 0.000519836
18 *317:30 *365:24 0.000151816
19 *330:10 *365:24 0.000674966
20 *334:32 *365:24 0.000370618
21 *334:34 *365:34 0.0015355
22 *335:12 *365:34 0.000621579
23 *335:16 *365:34 0.00157178
24 *360:20 *365:24 3.47641e-06
*RES
1 *3559:X *365:24 39.8357 
2 *365:24 *365:34 48.3929 
3 *365:34 *3829:A 13.8 
*END

*D_NET *366 0.0131217
*CONN
*I *3560:A_N I *D sky130_fd_sc_hd__and4b_1
*I *3582:A_N I *D sky130_fd_sc_hd__and4b_1
*I *3586:A_N I *D sky130_fd_sc_hd__and4b_1
*I *3584:A_N I *D sky130_fd_sc_hd__and4b_1
*I *3585:A_N I *D sky130_fd_sc_hd__and4b_1
*I *3587:A_N I *D sky130_fd_sc_hd__and4b_1
*I *3556:A_N I *D sky130_fd_sc_hd__and4b_1
*I *3557:A_N I *D sky130_fd_sc_hd__and4b_1
*I *3558:A_N I *D sky130_fd_sc_hd__and4b_1
*I *3559:A_N I *D sky130_fd_sc_hd__and4b_1
*I *3563:A_N I *D sky130_fd_sc_hd__and4b_2
*I *3561:A_N I *D sky130_fd_sc_hd__and4b_1
*I *3562:A_N I *D sky130_fd_sc_hd__and4b_2
*I *3565:A_N I *D sky130_fd_sc_hd__and4b_2
*I *3564:A_N I *D sky130_fd_sc_hd__and4b_2
*I *3593:X O *D sky130_fd_sc_hd__clkbuf_2
*CAP
1 *3560:A_N 0.000152823
2 *3582:A_N 0
3 *3586:A_N 0.000165479
4 *3584:A_N 0.000203612
5 *3585:A_N 0
6 *3587:A_N 0
7 *3556:A_N 9.51122e-05
8 *3557:A_N 5.41975e-05
9 *3558:A_N 2.35805e-05
10 *3559:A_N 8.4375e-05
11 *3563:A_N 0.000254105
12 *3561:A_N 9.83507e-05
13 *3562:A_N 0
14 *3565:A_N 0
15 *3564:A_N 0.00011062
16 *3593:X 0
17 *366:153 0.000369091
18 *366:151 0.000246634
19 *366:136 0.000411493
20 *366:129 0.000208162
21 *366:116 0.000422998
22 *366:103 0.000658741
23 *366:90 0.000357577
24 *366:75 0.000188184
25 *366:71 0.000273596
26 *366:45 0.000451541
27 *366:43 0.00022745
28 *366:32 0.000290485
29 *366:19 0.000287956
30 *366:4 0.000205456
31 *3556:A_N *370:103 0.000117457
32 *3559:A_N *370:54 6.94775e-05
33 *3560:A_N *3560:B 2.23045e-05
34 *3560:A_N *368:30 2.88045e-05
35 *3560:A_N *368:34 1.25866e-05
36 *3560:A_N *369:12 4.6025e-06
37 *3560:A_N *370:52 1.26352e-05
38 *3563:A_N *3563:C 0.000247075
39 *366:19 *3564:C 9.55684e-05
40 *366:32 *3564:C 0.000164202
41 *366:32 *368:6 0.000137179
42 *366:43 *368:34 5.37332e-06
43 *366:45 *368:34 2.84729e-05
44 *366:45 *370:54 0
45 *366:75 *3561:B 0
46 *366:75 *370:52 4.1331e-06
47 *366:75 *370:54 0
48 *366:103 *3558:B 9.90431e-05
49 *366:116 *370:90 0
50 *366:129 *370:103 7.80051e-05
51 *366:136 *3557:B 5.33005e-05
52 *366:136 *369:28 4.87854e-05
53 *366:136 *370:116 8.36572e-05
54 *366:136 *370:125 0.00038843
55 *366:151 *3582:B 5.52238e-05
56 *366:151 *3582:C 0.000221815
57 *366:151 *3583:A_N 5.33005e-05
58 *366:151 *369:28 8.55871e-05
59 *366:151 *369:35 5.96954e-05
60 *469:DIODE *3563:A_N 4.38128e-05
61 *3557:D *3556:A_N 1.77247e-05
62 *3557:D *366:129 1.37292e-05
63 *3558:D *3558:A_N 0
64 *3558:D *366:103 8.23109e-05
65 *3560:D *3560:A_N 9.54798e-06
66 *3561:D *3561:A_N 5.59013e-05
67 *3562:D *3558:A_N 0
68 *3562:D *366:43 9.6087e-05
69 *3562:D *366:103 0
70 *3563:D *3563:A_N 9.85067e-05
71 *3564:D *366:43 0.000180777
72 *3564:D *366:90 2.89114e-05
73 *3564:D *366:103 2.28499e-05
74 *3582:D *366:151 6.67396e-05
75 *3583:D *366:136 9.41642e-05
76 *3583:D *366:151 0.000111487
77 *3584:D *3584:A_N 4.82865e-05
78 *3585:D *366:136 2.3541e-05
79 *3586:D *3586:A_N 9.55638e-05
80 *3587:D *3584:A_N 2.06178e-05
81 *3587:D *366:136 0.000130944
82 *3620:A *3563:A_N 0.00018077
83 *3699:A *366:32 0.000159341
84 *3778:A *3561:A_N 9.60875e-05
85 *3791:A *3564:A_N 5.62942e-05
86 *3793:A *3561:A_N 4.52607e-05
87 *3793:A *366:45 4.46186e-06
88 *113:55 *366:151 0.000136951
89 *117:21 *366:32 0.000159341
90 *118:49 *366:116 0.000220333
91 *118:49 *366:136 0.000206737
92 *118:49 *366:151 0.000232614
93 *135:21 *3584:A_N 0.000252788
94 *135:21 *3586:A_N 0.000146589
95 *139:43 *3586:A_N 0.000122591
96 *140:19 *3584:A_N 2.15339e-05
97 *140:19 *3586:A_N 0.000155212
98 *181:20 *3561:A_N 9.80173e-05
99 *312:14 *3564:A_N 3.21371e-05
100 *315:20 *3584:A_N 6.76963e-05
101 *316:18 *366:129 0
102 *317:22 *3559:A_N 5.52302e-05
103 *317:22 *3563:A_N 0.000113994
104 *317:32 *3584:A_N 0.000221359
105 *328:16 *3564:A_N 2.78576e-05
106 *328:16 *366:19 0.000115186
107 *328:16 *366:32 0.0001501
108 *328:18 *3586:A_N 4.27133e-05
109 *334:28 *366:90 5.52302e-05
110 *334:28 *366:103 8.27532e-05
111 *336:24 *3561:A_N 0.00019384
112 *336:24 *366:45 0.000124162
113 *337:20 *3586:A_N 0.000135028
114 *339:20 *3561:A_N 4.53834e-05
115 *339:20 *3563:A_N 5.33005e-05
116 *364:30 *3557:A_N 1.43643e-05
117 *364:30 *366:103 2.72887e-05
118 *364:30 *366:116 9.35794e-06
*RES
1 *3593:X *366:4 9.3 
2 *366:4 *3564:A_N 20.4786 
3 *366:4 *366:19 2.17857 
4 *366:19 *3565:A_N 9.3 
5 *366:19 *366:32 14.25 
6 *366:32 *3562:A_N 9.3 
7 *366:32 *366:43 6.80357 
8 *366:43 *366:45 2.55357 
9 *366:45 *3561:A_N 17.3 
10 *366:45 *3563:A_N 20.2286 
11 *366:43 *366:71 0.535714 
12 *366:71 *366:75 1.375 
13 *366:75 *3559:A_N 16.2821 
14 *366:75 *366:90 5.03571 
15 *366:90 *3558:A_N 9.72857 
16 *366:90 *366:103 4.78571 
17 *366:103 *3557:A_N 10.3357 
18 *366:103 *366:116 8.03571 
19 *366:116 *3556:A_N 15.4429 
20 *366:116 *366:129 5.53571 
21 *366:129 *3587:A_N 9.3 
22 *366:129 *366:136 6.28571 
23 *366:136 *3585:A_N 9.3 
24 *366:136 *366:151 7.80357 
25 *366:151 *366:153 4.5 
26 *366:153 *3584:A_N 18.8357 
27 *366:153 *3586:A_N 18.2286 
28 *366:151 *3582:A_N 9.3 
29 *366:71 *3560:A_N 16.3536 
*END

*D_NET *367 0.0415927
*CONN
*I *3553:A I *D sky130_fd_sc_hd__clkinv_4
*I *3566:A_N I *D sky130_fd_sc_hd__and4b_1
*I *3567:A_N I *D sky130_fd_sc_hd__and4b_1
*I *3569:A_N I *D sky130_fd_sc_hd__and4b_1
*I *3577:A_N I *D sky130_fd_sc_hd__and4b_1
*I *3576:A_N I *D sky130_fd_sc_hd__and4b_1
*I *3575:A_N I *D sky130_fd_sc_hd__and4b_1
*I *3574:A_N I *D sky130_fd_sc_hd__and4b_1
*I *3573:A_N I *D sky130_fd_sc_hd__and4b_1
*I *3572:A_N I *D sky130_fd_sc_hd__and4b_1
*I *3571:A_N I *D sky130_fd_sc_hd__and4b_1
*I *3570:A_N I *D sky130_fd_sc_hd__and4b_1
*I *3568:A_N I *D sky130_fd_sc_hd__and4b_1
*I *3583:A_N I *D sky130_fd_sc_hd__and4b_1
*I *3593:A I *D sky130_fd_sc_hd__clkbuf_2
*I *3594:X O *D sky130_fd_sc_hd__buf_4
*CAP
1 *3553:A 0.000673372
2 *3566:A_N 2.63435e-05
3 *3567:A_N 0
4 *3569:A_N 0
5 *3577:A_N 0.000305646
6 *3576:A_N 0.000283068
7 *3575:A_N 0
8 *3574:A_N 0
9 *3573:A_N 2.37855e-05
10 *3572:A_N 2.37855e-05
11 *3571:A_N 3.12853e-05
12 *3570:A_N 0
13 *3568:A_N 0
14 *3583:A_N 4.53985e-05
15 *3593:A 0.000768638
16 *3594:X 0
17 *367:179 0.000615946
18 *367:172 0.000258937
19 *367:159 0.000506222
20 *367:146 0.000634566
21 *367:137 0.000613273
22 *367:128 0.000505804
23 *367:113 0.000567345
24 *367:103 0.000682613
25 *367:84 0.00102272
26 *367:68 0.00121814
27 *367:56 0.00129479
28 *367:52 0.00331165
29 *367:25 0.00253552
30 *367:4 0.00135694
31 *3553:A *371:42 0
32 *3576:A_N *371:153 7.14469e-05
33 *3577:A_N *3577:B 0.000267506
34 *3577:A_N *369:124 2.25101e-05
35 *3577:A_N *369:137 0.000680614
36 *3583:A_N *3584:B 4.14744e-05
37 *3593:A *3597:A 0.000132967
38 *3593:A *369:12 2.89016e-05
39 *3593:A *371:23 0.000427787
40 *367:25 *3583:B 0
41 *367:25 *3584:B 0.000119897
42 *367:25 *370:137 7.49961e-05
43 *367:25 *371:23 0.00111053
44 *367:56 *371:51 8.58826e-05
45 *367:68 *369:51 6.03233e-06
46 *367:68 *371:51 7.92229e-06
47 *367:103 *369:65 1.39841e-05
48 *367:103 *371:88 0.000367503
49 *367:113 *371:99 0.000282858
50 *367:128 *371:99 0.000141734
51 *367:128 *371:118 0.000433368
52 *367:137 *371:118 5.41609e-05
53 *367:137 *371:125 0.000210265
54 *367:146 *371:125 5.01883e-05
55 *367:146 *371:132 6.94611e-05
56 *367:159 *371:132 1.56e-05
57 *367:159 *371:139 0.000193657
58 *367:172 *369:113 1.16111e-05
59 *367:172 *369:124 0.000299081
60 *367:172 *371:139 7.44262e-05
61 *367:179 *369:124 0.000160187
62 *388:DIODE *367:103 5.71472e-05
63 *388:DIODE *367:113 0.000147436
64 *390:DIODE *367:128 0.000228791
65 *392:DIODE *367:137 5.49489e-05
66 *392:DIODE *367:146 0.000171041
67 *395:DIODE *3583:A_N 1.89507e-06
68 *405:DIODE *3577:A_N 0.0001839
69 *406:DIODE *367:25 5.34184e-05
70 *3566:D *367:68 0.000104521
71 *3567:D *367:68 7.98428e-06
72 *3567:D *367:84 8.6229e-06
73 *3569:D *367:113 2.6869e-05
74 *3570:D *367:128 1.19057e-05
75 *3571:D *367:137 2.3541e-05
76 *3572:D *367:146 6.71359e-05
77 *3573:D *367:159 2.524e-05
78 *3575:D *3576:A_N 0.00017827
79 *3575:D *3577:A_N 2.3541e-05
80 *3587:D *367:52 0.000382173
81 *3645:A *367:56 0.00155127
82 *3663:A *367:103 2.03997e-05
83 *3667:A *367:113 2.22674e-05
84 *3783:A *367:52 8.6229e-06
85 *3791:A *3593:A 8.6229e-06
86 *3813:A *367:159 0.000183466
87 *3815:A *3577:A_N 0.000236853
88 *113:43 *367:52 0.00022616
89 *113:57 *3583:A_N 6.90348e-06
90 *113:57 *367:25 1.89507e-06
91 *118:31 *367:56 2.14658e-05
92 *118:49 *3583:A_N 5.49544e-05
93 *120:30 *3577:A_N 0.000435839
94 *121:55 *367:68 2.8266e-06
95 *122:29 *367:146 0.000104716
96 *122:29 *367:172 0.000118855
97 *139:29 *3576:A_N 3.30638e-05
98 *142:19 *367:52 0.000423776
99 *142:19 *367:56 0.000103646
100 *142:19 *367:84 0.000767995
101 *145:22 *367:52 0.000182899
102 *145:51 *367:68 9.71197e-05
103 *145:51 *367:103 0.000168497
104 *145:73 *367:146 0.000251754
105 *145:73 *367:159 5.33334e-05
106 *170:28 *3593:A 0.000136682
107 *170:37 *3593:A 0.000250242
108 *170:37 *367:25 5.68722e-05
109 *170:39 *367:25 0.000612184
110 *181:30 *367:52 4.11112e-05
111 *192:20 *367:84 0
112 *219:28 *3576:A_N 0.000136427
113 *244:28 *3576:A_N 0.000517821
114 *258:12 *367:52 4.23868e-05
115 *300:12 *3553:A 0.000566245
116 *312:14 *3593:A 0
117 *316:20 *3553:A 0.000566245
118 *318:16 *367:56 0.0022045
119 *319:12 *367:52 6.84914e-05
120 *320:12 *367:52 0.00135947
121 *327:22 *3593:A 0.000262504
122 *327:43 *3593:A 0.0003517
123 *327:43 *367:25 4.60235e-05
124 *328:16 *367:25 5.42698e-05
125 *328:32 *3576:A_N 0.000197591
126 *329:53 *367:25 9.59532e-06
127 *332:26 *367:25 0
128 *332:42 *3553:A 0
129 *332:42 *367:52 0
130 *338:16 *367:68 0.000460259
131 *338:16 *367:103 0.000143375
132 *339:24 *367:52 0.0013559
133 *341:20 *367:103 0.000358971
134 *342:14 *367:113 0.000434114
135 *342:14 *367:128 0.000292062
136 *342:14 *367:137 0.000256985
137 *344:16 *367:128 0.000237168
138 *345:22 *367:137 0.0001399
139 *348:14 *3577:A_N 3.69551e-05
140 *348:14 *367:172 0.00040765
141 *348:14 *367:179 9.77274e-05
142 *361:14 *367:52 0.000160191
143 *363:28 *367:52 4.5296e-05
144 *364:30 *367:52 2.45832e-05
145 *366:151 *3583:A_N 5.33005e-05
*RES
1 *3594:X *367:4 9.3 
2 *367:4 *3593:A 35.3536 
3 *367:4 *367:25 21.5982 
4 *367:25 *3583:A_N 14.9161 
5 *367:25 *367:52 37.2567 
6 *367:52 *367:56 28.4464 
7 *367:56 *367:68 17.3929 
8 *367:68 *367:84 18.7165 
9 *367:84 *3568:A_N 9.3 
10 *367:84 *367:103 18.7321 
11 *367:103 *367:113 17.2679 
12 *367:113 *3570:A_N 9.3 
13 *367:113 *367:128 16.9643 
14 *367:128 *3571:A_N 9.72857 
15 *367:128 *367:137 7.10714 
16 *367:137 *3572:A_N 9.72857 
17 *367:137 *367:146 7.92857 
18 *367:146 *3573:A_N 9.72857 
19 *367:146 *367:159 6.42857 
20 *367:159 *3574:A_N 9.3 
21 *367:159 *367:172 7.67857 
22 *367:172 *3575:A_N 9.3 
23 *367:172 *367:179 1.76786 
24 *367:179 *3576:A_N 25.9071 
25 *367:179 *3577:A_N 21.3536 
26 *367:103 *3569:A_N 9.3 
27 *367:68 *3567:A_N 9.3 
28 *367:56 *3566:A_N 9.72857 
29 *367:52 *3553:A 26.9786 
*END

*D_NET *368 0.0128341
*CONN
*I *3558:C I *D sky130_fd_sc_hd__and4b_1
*I *3560:C I *D sky130_fd_sc_hd__and4b_1
*I *3585:C I *D sky130_fd_sc_hd__and4b_1
*I *3586:C I *D sky130_fd_sc_hd__and4b_1
*I *3582:C I *D sky130_fd_sc_hd__and4b_1
*I *3584:C I *D sky130_fd_sc_hd__and4b_1
*I *3587:C I *D sky130_fd_sc_hd__and4b_1
*I *3556:C I *D sky130_fd_sc_hd__and4b_1
*I *3557:C I *D sky130_fd_sc_hd__and4b_1
*I *3559:C I *D sky130_fd_sc_hd__and4b_1
*I *3562:C I *D sky130_fd_sc_hd__and4b_2
*I *3563:C I *D sky130_fd_sc_hd__and4b_2
*I *3561:C I *D sky130_fd_sc_hd__and4b_1
*I *3565:C I *D sky130_fd_sc_hd__and4b_2
*I *3564:C I *D sky130_fd_sc_hd__and4b_2
*I *3595:X O *D sky130_fd_sc_hd__clkbuf_2
*CAP
1 *3558:C 0
2 *3560:C 0.000153705
3 *3585:C 0
4 *3586:C 0
5 *3582:C 5.42924e-05
6 *3584:C 0.000107192
7 *3587:C 0
8 *3556:C 0.000157314
9 *3557:C 2.41934e-05
10 *3559:C 0.000165121
11 *3562:C 0
12 *3563:C 0.000267039
13 *3561:C 0.000184581
14 *3565:C 0
15 *3564:C 0.000245281
16 *3595:X 0
17 *368:137 0.000216715
18 *368:133 0.000359521
19 *368:123 0.000514579
20 *368:116 0.000242233
21 *368:103 0.000531901
22 *368:88 0.000767197
23 *368:67 0.00064931
24 *368:65 0.000237534
25 *368:63 0.000283197
26 *368:56 0.000283197
27 *368:34 0.000655941
28 *368:30 0.000303678
29 *368:6 0.000443747
30 *368:4 0.000297822
31 *3559:C *370:54 1.02969e-05
32 *3559:C *370:71 1.33343e-05
33 *3559:C *370:90 5.71472e-05
34 *3560:C *369:28 0.000139323
35 *3582:C *369:35 0.000221815
36 *3584:C *3584:B 0.000204939
37 *368:30 *369:28 1.24368e-05
38 *368:34 *370:48 4.00349e-05
39 *368:67 *370:52 0
40 *368:67 *370:54 3.4323e-06
41 *368:123 *370:125 0.000315165
42 *368:133 *369:28 9.41642e-05
43 *368:133 *370:133 9.23883e-05
44 *368:137 *3584:B 9.47565e-05
45 *462:DIODE *368:88 7.30885e-05
46 *462:DIODE *368:103 1.74032e-05
47 *463:DIODE *368:63 0.000268396
48 *3558:D *368:63 0.000137983
49 *3560:A_N *368:30 2.88045e-05
50 *3560:A_N *368:34 1.25866e-05
51 *3561:D *3561:C 5.33005e-05
52 *3563:A_N *3563:C 0.000247075
53 *3564:D *368:67 7.69776e-06
54 *3587:D *3556:C 0
55 *3699:A *3561:C 3.69697e-05
56 *3699:A *368:30 1.3807e-05
57 *3699:A *368:34 0.000125211
58 *3778:A *3561:C 6.26177e-05
59 *3824:A *3584:C 0.000204278
60 *3824:A *368:133 9.41642e-05
61 *3824:A *368:137 8.47743e-05
62 *118:49 *368:88 0.000314112
63 *138:19 *3556:C 0
64 *138:19 *368:133 9.39125e-05
65 *141:23 *3556:C 0.000101695
66 *141:23 *368:116 3.29363e-05
67 *142:19 *368:103 0.000121251
68 *143:31 *3560:C 1.3807e-05
69 *143:31 *368:67 6.4974e-06
70 *144:19 *3559:C 7.53786e-05
71 *144:19 *3560:C 7.14469e-05
72 *144:19 *368:67 8.6281e-05
73 *170:28 *3564:C 7.29646e-05
74 *312:14 *3564:C 7.44888e-05
75 *316:18 *3557:C 4.5894e-05
76 *317:22 *3559:C 2.59355e-05
77 *328:16 *368:6 4.08025e-05
78 *328:16 *368:30 1.38737e-05
79 *328:16 *368:133 0.000467637
80 *334:28 *3559:C 0.000142367
81 *336:24 *3561:C 7.6644e-05
82 *336:24 *368:34 0.000180778
83 *343:24 *3559:C 7.90803e-05
84 *343:24 *368:88 5.08712e-05
85 *360:20 *3556:C 1.82692e-05
86 *363:28 *3556:C 9.87983e-06
87 *365:24 *3556:C 5.20232e-05
88 *366:19 *3564:C 9.55684e-05
89 *366:32 *3564:C 0.000164202
90 *366:32 *368:6 0.000137179
91 *366:43 *368:34 5.37332e-06
92 *366:45 *368:34 2.84729e-05
93 *366:151 *3582:C 0.000221815
*RES
1 *3595:X *368:4 9.3 
2 *368:4 *368:6 2.58929 
3 *368:6 *3564:C 21.925 
4 *368:6 *3565:C 9.3 
5 *368:4 *368:30 6.07143 
6 *368:30 *368:34 4.60714 
7 *368:34 *3561:C 16.6036 
8 *368:34 *3563:C 17.2107 
9 *368:30 *368:56 4.5 
10 *368:56 *3562:C 9.3 
11 *368:56 *368:63 3.82143 
12 *368:63 *368:65 4.5 
13 *368:65 *368:67 1.1875 
14 *368:67 *3559:C 17.3982 
15 *368:67 *368:88 4.3312 
16 *368:88 *3557:C 17.7904 
17 *368:88 *368:103 4.03353 
18 *368:103 *3556:C 16.8089 
19 *368:103 *368:116 5.08036 
20 *368:116 *3587:C 9.3 
21 *368:116 *368:123 3 
22 *368:123 *368:133 15.4107 
23 *368:133 *368:137 5.83929 
24 *368:137 *3584:C 16.6571 
25 *368:137 *3582:C 15.9786 
26 *368:133 *3586:C 9.3 
27 *368:123 *3585:C 9.3 
28 *368:65 *3560:C 16.1929 
29 *368:63 *3558:C 9.3 
*END

*D_NET *369 0.0366177
*CONN
*I *3595:A I *D sky130_fd_sc_hd__clkbuf_2
*I *3570:C I *D sky130_fd_sc_hd__and4b_1
*I *3577:C I *D sky130_fd_sc_hd__and4b_1
*I *3576:C I *D sky130_fd_sc_hd__and4b_1
*I *3575:C I *D sky130_fd_sc_hd__and4b_1
*I *3574:C I *D sky130_fd_sc_hd__and4b_1
*I *3573:C I *D sky130_fd_sc_hd__and4b_1
*I *3572:C I *D sky130_fd_sc_hd__and4b_1
*I *3571:C I *D sky130_fd_sc_hd__and4b_1
*I *3569:C I *D sky130_fd_sc_hd__and4b_1
*I *3568:C I *D sky130_fd_sc_hd__and4b_1
*I *3567:C I *D sky130_fd_sc_hd__and4b_1
*I *3566:C I *D sky130_fd_sc_hd__and4b_1
*I *3555:B I *D sky130_fd_sc_hd__and2_4
*I *3583:C I *D sky130_fd_sc_hd__and4b_1
*I *3596:X O *D sky130_fd_sc_hd__clkbuf_4
*CAP
1 *3595:A 0
2 *3570:C 0
3 *3577:C 0.000558093
4 *3576:C 0
5 *3575:C 0
6 *3574:C 0
7 *3573:C 0
8 *3572:C 0
9 *3571:C 0
10 *3569:C 0
11 *3568:C 0
12 *3567:C 0
13 *3566:C 0
14 *3555:B 3.27985e-05
15 *3583:C 0
16 *3596:X 0.000157311
17 *369:137 0.000758781
18 *369:124 0.00047735
19 *369:113 0.000726399
20 *369:100 0.000985561
21 *369:93 0.00104097
22 *369:86 0.000864136
23 *369:72 0.000895166
24 *369:65 0.00104072
25 *369:58 0.00100525
26 *369:51 0.000999531
27 *369:44 0.00251021
28 *369:35 0.00405385
29 *369:28 0.00337824
30 *369:12 0.00152589
31 *3555:B *371:51 3.45371e-05
32 *369:28 *370:133 7.29646e-05
33 *369:44 *371:51 0.00288852
34 *369:44 *371:69 2.23592e-05
35 *369:51 *371:69 0.000534229
36 *369:51 *371:76 5.71472e-05
37 *369:58 *3568:B 5.33005e-05
38 *369:58 *371:76 0.00064854
39 *369:65 *371:88 0.000578035
40 *369:65 *371:99 5.52238e-05
41 *369:72 *371:99 0.000411479
42 *369:93 *371:125 0.000699333
43 *369:93 *371:132 5.49489e-05
44 *369:100 *371:132 0.000784669
45 *369:100 *371:139 5.52238e-05
46 *369:113 *371:139 0.000555683
47 *369:113 *371:153 3.04082e-05
48 *369:124 *371:160 5.52238e-05
49 *369:137 *3576:B 7.29712e-05
50 *369:137 *3577:B 4.17433e-05
51 *369:137 *371:160 0.000649384
52 *390:DIODE *369:72 0.000230155
53 *3560:A_N *369:12 4.6025e-06
54 *3560:C *369:28 0.000139323
55 *3560:D *369:12 3.31891e-05
56 *3560:D *369:28 0.000194669
57 *3566:D *369:51 2.02681e-05
58 *3568:D *369:65 1.61783e-05
59 *3574:D *369:113 3.23542e-05
60 *3577:A_N *369:124 2.25101e-05
61 *3577:A_N *369:137 0.000680614
62 *3582:C *369:35 0.000221815
63 *3593:A *369:12 2.89016e-05
64 *3621:A *369:28 1.98839e-05
65 *3699:A *369:12 1.65758e-05
66 *113:43 *369:35 0.000708701
67 *113:55 *369:35 0.000195775
68 *117:21 *369:12 0
69 *118:49 *369:35 6.00726e-05
70 *118:49 *369:44 7.92229e-06
71 *125:29 *369:86 0.00011333
72 *126:27 *369:86 0.00011333
73 *129:42 *369:113 7.65336e-06
74 *131:56 *369:137 9.23883e-05
75 *132:37 *3577:C 1.5702e-05
76 *139:39 *369:86 0.000730713
77 *142:19 *369:124 0.000145807
78 *145:22 *369:35 0.000271831
79 *145:51 *369:51 2.12087e-05
80 *145:51 *369:58 1.98839e-05
81 *187:14 *369:35 5.52238e-05
82 *241:24 *369:86 3.47641e-06
83 *244:24 *369:86 0.000730713
84 *244:28 *3577:C 0.000683436
85 *316:18 *369:28 0.000396626
86 *327:43 *369:12 8.6229e-06
87 *328:16 *369:28 0.000343557
88 *339:42 *3577:C 7.29646e-05
89 *366:136 *369:28 4.87854e-05
90 *366:151 *369:28 8.55871e-05
91 *366:151 *369:35 5.96954e-05
92 *367:68 *369:51 6.03233e-06
93 *367:103 *369:65 1.39841e-05
94 *367:172 *369:113 1.16111e-05
95 *367:172 *369:124 0.000299081
96 *367:179 *369:124 0.000160187
97 *368:30 *369:28 1.24368e-05
98 *368:133 *369:28 9.41642e-05
*RES
1 *3596:X *369:12 20.7821 
2 *369:12 *369:28 28.5179 
3 *369:28 *3583:C 9.3 
4 *369:28 *369:35 27.2321 
5 *369:35 *3555:B 10.0321 
6 *369:35 *369:44 28.4643 
7 *369:44 *3566:C 9.3 
8 *369:44 *369:51 7.10714 
9 *369:51 *3567:C 9.3 
10 *369:51 *369:58 7.10714 
11 *369:58 *3568:C 9.3 
12 *369:58 *369:65 7.10714 
13 *369:65 *3569:C 9.3 
14 *369:65 *369:72 7.10714 
15 *369:72 *369:86 28.3929 
16 *369:86 *3571:C 9.3 
17 *369:86 *369:93 7.10714 
18 *369:93 *3572:C 9.3 
19 *369:93 *369:100 7.92857 
20 *369:100 *3573:C 9.3 
21 *369:100 *369:113 15.6071 
22 *369:113 *3574:C 9.3 
23 *369:113 *369:124 7.25 
24 *369:124 *3575:C 9.3 
25 *369:124 *369:137 17.0357 
26 *369:137 *3576:C 9.3 
27 *369:137 *3577:C 26.0321 
28 *369:72 *3570:C 9.3 
29 *369:12 *3595:A 9.3 
*END

*D_NET *370 0.0136586
*CONN
*I *3565:B I *D sky130_fd_sc_hd__and4b_2
*I *3562:B I *D sky130_fd_sc_hd__and4b_2
*I *3560:B I *D sky130_fd_sc_hd__and4b_1
*I *3558:B I *D sky130_fd_sc_hd__and4b_1
*I *3585:B I *D sky130_fd_sc_hd__and4b_1
*I *3582:B I *D sky130_fd_sc_hd__and4b_1
*I *3586:B I *D sky130_fd_sc_hd__and4b_1
*I *3584:B I *D sky130_fd_sc_hd__and4b_1
*I *3587:B I *D sky130_fd_sc_hd__and4b_1
*I *3557:B I *D sky130_fd_sc_hd__and4b_1
*I *3556:B I *D sky130_fd_sc_hd__and4b_1
*I *3559:B I *D sky130_fd_sc_hd__and4b_1
*I *3561:B I *D sky130_fd_sc_hd__and4b_1
*I *3563:B I *D sky130_fd_sc_hd__and4b_2
*I *3564:B I *D sky130_fd_sc_hd__and4b_2
*I *3597:X O *D sky130_fd_sc_hd__clkbuf_2
*CAP
1 *3565:B 0
2 *3562:B 4.16254e-05
3 *3560:B 7.61907e-05
4 *3558:B 1.74874e-05
5 *3585:B 0
6 *3582:B 0.00022801
7 *3586:B 0
8 *3584:B 0.000198043
9 *3587:B 0
10 *3557:B 0.000155649
11 *3556:B 3.48264e-05
12 *3559:B 2.30826e-05
13 *3561:B 0.000171239
14 *3563:B 8.56899e-05
15 *3564:B 9.16566e-05
16 *3597:X 4.95087e-05
17 *370:137 0.000239636
18 *370:133 0.000636858
19 *370:125 0.00047937
20 *370:116 0.000166488
21 *370:103 0.00034281
22 *370:90 0.000678571
23 *370:71 0.000593565
24 *370:54 0.000335828
25 *370:52 0.000183739
26 *370:48 0.000575888
27 *370:38 0.000682527
28 *370:16 0.000274135
29 *370:12 0.000371631
30 *370:8 0.000121959
31 *3582:B *371:42 0.000262679
32 *3584:B *3583:B 4.60232e-06
33 *370:133 *371:42 0.000140088
34 *370:137 *3583:B 1.85008e-05
35 *395:DIODE *3582:B 3.47641e-06
36 *406:DIODE *3582:B 3.95166e-05
37 *460:DIODE *370:90 9.54798e-06
38 *463:DIODE *3562:B 4.08637e-05
39 *463:DIODE *370:38 0.000219711
40 *3556:A_N *370:103 0.000117457
41 *3556:D *3556:B 2.89114e-05
42 *3557:D *3557:B 2.3541e-05
43 *3558:D *3558:B 2.44318e-05
44 *3559:A_N *370:54 6.94775e-05
45 *3559:C *370:54 1.02969e-05
46 *3559:C *370:71 1.33343e-05
47 *3559:C *370:90 5.71472e-05
48 *3559:D *370:90 2.3541e-05
49 *3560:A_N *3560:B 2.23045e-05
50 *3560:A_N *370:52 1.26352e-05
51 *3564:D *3558:B 5.52302e-05
52 *3564:D *3560:B 3.47641e-06
53 *3564:D *3564:B 5.33005e-05
54 *3564:D *370:16 0.000124521
55 *3564:D *370:38 1.54142e-05
56 *3564:D *370:52 7.69776e-06
57 *3583:A_N *3584:B 4.14744e-05
58 *3584:C *3584:B 0.000204939
59 *3586:D *3582:B 0.000209378
60 *3586:D *370:133 0.000110129
61 *3620:A *3563:B 5.52238e-05
62 *3621:A *370:103 0
63 *3699:A *370:48 4.1879e-05
64 *3778:A *3561:B 9.41642e-05
65 *3779:A *370:90 3.19953e-05
66 *3793:A *3561:B 0.000167368
67 *3793:A *370:54 1.00375e-05
68 *113:55 *3582:B 1.90936e-05
69 *113:57 *3582:B 1.26641e-05
70 *116:19 *370:8 0.000148352
71 *116:19 *370:12 0.000114854
72 *118:49 *3557:B 6.60028e-05
73 *118:49 *3582:B 5.71472e-05
74 *135:21 *3582:B 0.000220646
75 *138:19 *370:133 3.57718e-05
76 *139:43 *3582:B 5.33005e-05
77 *141:23 *370:90 4.47218e-05
78 *141:23 *370:103 0.000220328
79 *143:31 *3560:B 9.39125e-05
80 *170:28 *3563:B 0.000220441
81 *181:20 *3561:B 9.60939e-05
82 *312:14 *3564:B 3.69047e-06
83 *317:22 *3563:B 5.33005e-05
84 *317:22 *370:71 2.61099e-05
85 *317:22 *370:90 0.000149131
86 *317:30 *3556:B 9.60939e-05
87 *327:20 *3563:B 0.000218726
88 *328:16 *370:133 0.00017673
89 *329:26 *370:8 0.000138804
90 *329:26 *370:12 0.000116371
91 *331:12 *3584:B 3.56764e-05
92 *334:28 *3561:B 4.99256e-05
93 *334:28 *370:54 0.000171368
94 *336:24 *370:48 6.11846e-05
95 *337:18 *3582:B 7.40571e-05
96 *339:20 *370:48 0
97 *360:20 *3584:B 3.10819e-05
98 *364:30 *3557:B 5.33005e-05
99 *366:45 *370:54 0
100 *366:75 *3561:B 0
101 *366:75 *370:52 4.1331e-06
102 *366:75 *370:54 0
103 *366:103 *3558:B 9.90431e-05
104 *366:116 *370:90 0
105 *366:129 *370:103 7.80051e-05
106 *366:136 *3557:B 5.33005e-05
107 *366:136 *370:116 8.36572e-05
108 *366:136 *370:125 0.00038843
109 *366:151 *3582:B 5.52238e-05
110 *367:25 *3584:B 0.000119897
111 *367:25 *370:137 7.49961e-05
112 *368:34 *370:48 4.00349e-05
113 *368:67 *370:52 0
114 *368:67 *370:54 3.4323e-06
115 *368:123 *370:125 0.000315165
116 *368:133 *370:133 9.23883e-05
117 *368:137 *3584:B 9.47565e-05
118 *369:28 *370:133 7.29646e-05
*RES
1 *3597:X *370:8 15.7464 
2 *370:8 *370:12 6.14286 
3 *370:12 *370:16 1.78571 
4 *370:16 *3564:B 10.6571 
5 *370:16 *3563:B 21.6929 
6 *370:12 *370:38 2.58929 
7 *370:38 *370:48 12.4518 
8 *370:48 *370:52 1.11607 
9 *370:52 *370:54 2.85714 
10 *370:54 *3561:B 17.9429 
11 *370:54 *370:71 5.44643 
12 *370:71 *3559:B 9.72857 
13 *370:71 *370:90 12.6071 
14 *370:90 *3556:B 14.7464 
15 *370:90 *370:103 7.66071 
16 *370:103 *3557:B 12.4429 
17 *370:103 *370:116 0.946429 
18 *370:116 *3587:B 9.3 
19 *370:116 *370:125 4.25 
20 *370:125 *370:133 15.8929 
21 *370:133 *370:137 5.53571 
22 *370:137 *3584:B 18.175 
23 *370:137 *3586:B 13.8 
24 *370:133 *3582:B 24.5857 
25 *370:125 *3585:B 9.3 
26 *370:52 *3558:B 14.7464 
27 *370:48 *3560:B 15.2911 
28 *370:38 *3562:B 9.83571 
29 *370:8 *3565:B 13.8 
*END

*D_NET *371 0.0384136
*CONN
*I *3566:B I *D sky130_fd_sc_hd__and4b_1
*I *3568:B I *D sky130_fd_sc_hd__and4b_1
*I *3574:B I *D sky130_fd_sc_hd__and4b_1
*I *3577:B I *D sky130_fd_sc_hd__and4b_1
*I *3576:B I *D sky130_fd_sc_hd__and4b_1
*I *3575:B I *D sky130_fd_sc_hd__and4b_1
*I *3573:B I *D sky130_fd_sc_hd__and4b_1
*I *3572:B I *D sky130_fd_sc_hd__and4b_1
*I *3571:B I *D sky130_fd_sc_hd__and4b_1
*I *3570:B I *D sky130_fd_sc_hd__and4b_1
*I *3569:B I *D sky130_fd_sc_hd__and4b_1
*I *3567:B I *D sky130_fd_sc_hd__and4b_1
*I *3555:A I *D sky130_fd_sc_hd__and2_4
*I *3583:B I *D sky130_fd_sc_hd__and4b_1
*I *3597:A I *D sky130_fd_sc_hd__clkbuf_2
*I *3598:X O *D sky130_fd_sc_hd__clkbuf_4
*CAP
1 *3566:B 0
2 *3568:B 1.37021e-05
3 *3574:B 0
4 *3577:B 0.000523166
5 *3576:B 6.6727e-05
6 *3575:B 0
7 *3573:B 0
8 *3572:B 0
9 *3571:B 0
10 *3570:B 0
11 *3569:B 0
12 *3567:B 0
13 *3555:A 0
14 *3583:B 0.000131514
15 *3597:A 0.000314705
16 *3598:X 0
17 *371:160 0.00108318
18 *371:153 0.00108699
19 *371:139 0.000731932
20 *371:132 0.000263868
21 *371:125 0.000306649
22 *371:118 0.000563214
23 *371:99 0.000630702
24 *371:88 0.000692264
25 *371:76 0.000556387
26 *371:69 0.000477276
27 *371:51 0.00091001
28 *371:42 0.00263168
29 *371:23 0.00265677
30 *371:4 0.000739925
31 *388:DIODE *371:88 0.000169205
32 *388:DIODE *371:99 1.69961e-05
33 *390:DIODE *371:99 2.2351e-05
34 *3553:A *371:42 0
35 *3555:B *371:51 3.45371e-05
36 *3566:D *371:51 4.60153e-05
37 *3566:D *371:69 5.49544e-05
38 *3569:D *371:99 6.44047e-05
39 *3571:D *371:125 1.14548e-05
40 *3572:D *371:132 3.55505e-05
41 *3573:D *371:139 1.40749e-05
42 *3574:D *371:153 2.53281e-05
43 *3576:A_N *371:153 7.14469e-05
44 *3577:A_N *3577:B 0.000267506
45 *3577:D *3577:B 5.33433e-05
46 *3582:B *371:42 0.000262679
47 *3584:B *3583:B 4.60232e-06
48 *3593:A *3597:A 0.000132967
49 *3593:A *371:23 0.000427787
50 *3663:A *371:88 8.19176e-05
51 *3824:A *3583:B 0.000119174
52 *118:31 *371:51 0.00247011
53 *118:49 *371:51 1.59373e-05
54 *120:30 *3577:B 2.13481e-06
55 *124:23 *3583:B 0.000228377
56 *124:23 *371:23 8.67459e-05
57 *129:40 *371:153 4.6025e-06
58 *129:42 *371:153 4.02873e-05
59 *139:29 *371:153 7.29646e-05
60 *139:43 *371:42 3.53079e-05
61 *143:27 *371:23 3.34295e-05
62 *143:31 *371:23 5.48248e-05
63 *145:51 *3568:B 4.17433e-05
64 *145:51 *371:51 0.000103646
65 *145:51 *371:69 0.000557013
66 *145:51 *371:76 0.000693999
67 *145:51 *371:88 0.000109812
68 *145:73 *371:132 0.000535248
69 *148:12 *371:42 0.000150767
70 *170:28 *371:23 5.33072e-05
71 *244:28 *371:153 0.000694136
72 *312:24 *371:42 0.00239982
73 *327:22 *3597:A 0.000136958
74 *327:43 *3597:A 0.000230475
75 *327:43 *371:23 0.00154025
76 *332:26 *371:23 1.17968e-05
77 *332:42 *371:42 5.85902e-05
78 *337:40 *371:69 1.34009e-05
79 *342:14 *371:99 7.09928e-05
80 *342:14 *371:118 0.000145558
81 *344:16 *371:118 1.98839e-05
82 *367:25 *3583:B 0
83 *367:25 *371:23 0.00111053
84 *367:56 *371:51 8.58826e-05
85 *367:68 *371:51 7.92229e-06
86 *367:103 *371:88 0.000367503
87 *367:113 *371:99 0.000282858
88 *367:128 *371:99 0.000141734
89 *367:128 *371:118 0.000433368
90 *367:137 *371:118 5.41609e-05
91 *367:137 *371:125 0.000210265
92 *367:146 *371:125 5.01883e-05
93 *367:146 *371:132 6.94611e-05
94 *367:159 *371:132 1.56e-05
95 *367:159 *371:139 0.000193657
96 *367:172 *371:139 7.44262e-05
97 *369:44 *371:51 0.00288852
98 *369:44 *371:69 2.23592e-05
99 *369:51 *371:69 0.000534229
100 *369:51 *371:76 5.71472e-05
101 *369:58 *3568:B 5.33005e-05
102 *369:58 *371:76 0.00064854
103 *369:65 *371:88 0.000578035
104 *369:65 *371:99 5.52238e-05
105 *369:72 *371:99 0.000411479
106 *369:93 *371:125 0.000699333
107 *369:93 *371:132 5.49489e-05
108 *369:100 *371:132 0.000784669
109 *369:100 *371:139 5.52238e-05
110 *369:113 *371:139 0.000555683
111 *369:113 *371:153 3.04082e-05
112 *369:124 *371:160 5.52238e-05
113 *369:137 *3576:B 7.29712e-05
114 *369:137 *3577:B 4.17433e-05
115 *369:137 *371:160 0.000649384
116 *370:133 *371:42 0.000140088
117 *370:137 *3583:B 1.85008e-05
*RES
1 *3598:X *371:4 9.3 
2 *371:4 *3597:A 15.175 
3 *371:4 *371:23 30.7857 
4 *371:23 *3583:B 16.9607 
5 *371:23 *371:42 43.8929 
6 *371:42 *3555:A 9.3 
7 *371:42 *371:51 28.0714 
8 *371:51 *371:69 18.375 
9 *371:69 *3567:B 9.3 
10 *371:69 *371:76 6.69643 
11 *371:76 *371:88 19.0179 
12 *371:88 *3569:B 9.3 
13 *371:88 *371:99 7.96429 
14 *371:99 *3570:B 9.3 
15 *371:99 *371:118 17.2143 
16 *371:118 *3571:B 9.3 
17 *371:118 *371:125 7.10714 
18 *371:125 *3572:B 9.3 
19 *371:125 *371:132 7.92857 
20 *371:132 *3573:B 9.3 
21 *371:132 *371:139 5.875 
22 *371:139 *371:153 27.0714 
23 *371:153 *3575:B 9.3 
24 *371:153 *371:160 6.69643 
25 *371:160 *3576:B 19.3357 
26 *371:160 *3577:B 15.9964 
27 *371:139 *3574:B 9.3 
28 *371:76 *3568:B 9.83571 
29 *371:51 *3566:B 9.3 
*END

*D_NET *372 0.0534872
*CONN
*I *3705:A I *D sky130_fd_sc_hd__dlygate4sd3_1
*I *3796:X O *D sky130_fd_sc_hd__buf_4
*CAP
1 *3705:A 0.00177307
2 *3796:X 0.00850113
3 *372:14 0.0102742
4 *3674:A *3705:A 0.00737271
5 *3702:A *3705:A 0.00709317
6 *3713:A *3705:A 0.000174615
7 *3796:A *372:14 1.59145e-05
8 *3812:A *372:14 0.000216736
9 *111:14 *372:14 0.000227799
10 *120:42 *372:14 0.000555946
11 *121:40 *372:14 0.000345474
12 *121:46 *372:14 0.000274338
13 *122:29 *372:14 0
14 *192:20 *372:14 0.000720196
15 *203:8 *372:14 0.000128759
16 *292:18 *3705:A 0.00026144
17 *305:10 *3705:A 0.000259357
18 *306:14 *372:14 0.0107617
19 *320:16 *372:14 0.000365777
20 *322:18 *372:14 0.00028096
21 *333:24 *372:14 0.000119216
22 *350:20 *372:14 0.00190695
23 *350:30 *372:14 0.000386331
24 *350:42 *372:14 0.000218967
25 *361:14 *372:14 0.00123705
26 *362:20 *372:14 1.53632e-05
*RES
1 *3796:X *372:14 44.4168 
2 *372:14 *3705:A 40.0425 
*END

*D_NET *373 0.00149026
*CONN
*I *3737:SM I *D CF_SRAM_1024x32
*I *3738:LO O *D sky130_fd_sc_hd__conb_1
*CAP
1 *3737:SM 0.000745131
2 *3738:LO 0.000745131
3 *3737:SM *3737:WLOFF 0
4 *3737:SM *3737:ScanInDR 0
*RES
1 *3738:LO *3737:SM 20.6705 
*END

*D_NET *374 0.00190065
*CONN
*I *3737:ScanInCC I *D CF_SRAM_1024x32
*I *3739:LO O *D sky130_fd_sc_hd__conb_1
*CAP
1 *3737:ScanInCC 0.000669736
2 *3739:LO 0.000669736
3 *3737:AD[3] *3737:ScanInCC 0.000547842
4 *113:9 *3737:ScanInCC 0
5 *226:17 *3737:ScanInCC 1.33343e-05
*RES
1 *3739:LO *3737:ScanInCC 20.6304 
*END

*D_NET *375 0.00184897
*CONN
*I *3737:ScanInDL I *D CF_SRAM_1024x32
*I *3740:LO O *D sky130_fd_sc_hd__conb_1
*CAP
1 *3737:ScanInDL 0.000648516
2 *3740:LO 0.000648516
3 *3737:DI[0] *3737:ScanInDL 0.000551937
*RES
1 *3740:LO *3737:ScanInDL 21.3625 
*END

*D_NET *376 0.00184887
*CONN
*I *3737:ScanInDR I *D CF_SRAM_1024x32
*I *3741:LO O *D sky130_fd_sc_hd__conb_1
*CAP
1 *3737:ScanInDR 0.000627237
2 *3741:LO 0.000627237
3 *3737:SM *3737:ScanInDR 0
4 *120:16 *3737:ScanInDR 0.000594395
*RES
1 *3741:LO *3737:ScanInDR 21.5857 
*END

*D_NET *377 0.00270898
*CONN
*I *3737:TM I *D CF_SRAM_1024x32
*I *3742:LO O *D sky130_fd_sc_hd__conb_1
*CAP
1 *3737:TM 0.000673732
2 *3742:LO 0.000673732
3 *3737:TM *3737:WLBI 1.86074e-05
4 *3737:CLKin *3737:TM 0
5 *3737:DI[17] *3737:TM 0.000180951
6 *121:20 *3737:TM 0.000958174
7 *248:27 *3737:TM 0.000203787
*RES
1 *3742:LO *3737:TM 32.0946 
*END

*D_NET *378 0.00208263
*CONN
*I *3737:WLBI I *D CF_SRAM_1024x32
*I *3743:LO O *D sky130_fd_sc_hd__conb_1
*CAP
1 *3737:WLBI 0.000681612
2 *3743:LO 0.000681612
3 *3737:TM *3737:WLBI 1.86074e-05
4 *121:20 *3737:WLBI 0.000700799
5 *248:27 *3737:WLBI 0
*RES
1 *3743:LO *3737:WLBI 22.9473 
*END

*D_NET *379 0.00177691
*CONN
*I *3737:WLOFF I *D CF_SRAM_1024x32
*I *3744:LO O *D sky130_fd_sc_hd__conb_1
*CAP
1 *3737:WLOFF 0.000847156
2 *3744:LO 0.000847156
3 *3737:EN *3737:WLOFF 8.25976e-05
4 *3737:R_WB *3737:WLOFF 0
5 *3737:SM *3737:WLOFF 0
6 *195:26 *3737:WLOFF 0
*RES
1 *3744:LO *3737:WLOFF 31.4473 
*END

*D_NET *380 0.0413705
*CONN
*I *3737:vpwrac I *D CF_SRAM_1024x32
*I *3745:HI O *D sky130_fd_sc_hd__conb_1
*CAP
1 *3737:vpwrac 0.00633861
2 *3745:HI 6.0542e-05
3 *380:14 0.00639915
4 *3737:vpwrac *3737:vpwrpc 0.0111544
5 *3732:A *3737:vpwrac 0.0102228
6 *127:27 *3737:vpwrac 9.67558e-05
7 *160:10 *3737:vpwrac 0.000145456
8 *160:12 *3737:vpwrac 0.000331509
9 *160:12 *380:14 2.11419e-05
10 *184:12 *3737:vpwrac 0.000376948
11 *195:24 *3737:vpwrac 0.000212251
12 *217:10 *3737:vpwrac 0.000837869
13 *237:12 *3737:vpwrac 0.000778602
14 *237:14 *3737:vpwrac 0.000402685
15 *237:14 *380:14 2.26973e-05
16 *239:8 *3737:vpwrac 0.00173938
17 *317:50 *3737:vpwrac 0.000320474
18 *339:52 *3737:vpwrac 0.000367398
19 *339:54 *3737:vpwrac 0.000727733
20 *350:60 *3737:vpwrac 0.00081406
*RES
1 *3745:HI *380:14 20.9798 
2 *380:14 *3737:vpwrac 43.6432 
*END

*D_NET *381 0.0472716
*CONN
*I *3737:vpwrpc I *D CF_SRAM_1024x32
*I *3746:HI O *D sky130_fd_sc_hd__conb_1
*CAP
1 *3737:vpwrpc 0.00684694
2 *3746:HI 8.18219e-05
3 *381:14 0.00692877
4 *3685:A *3737:vpwrpc 0.000405664
5 *3713:A *3737:vpwrpc 1.66624e-05
6 *3720:A *3737:vpwrpc 0.00601833
7 *3732:A *3737:vpwrpc 1.49122e-05
8 *3737:vpwrac *3737:vpwrpc 0.0111544
9 *118:11 *3737:vpwrpc 0.000331525
10 *118:19 *3737:vpwrpc 0.000129372
11 *127:27 *3737:vpwrpc 0.00213217
12 *135:13 *3737:vpwrpc 0.000376948
13 *157:12 *3737:vpwrpc 0.00040647
14 *162:24 *3737:vpwrpc 6.94174e-05
15 *168:10 *3737:vpwrpc 0.000450528
16 *193:12 *3737:vpwrpc 0.000493734
17 *193:14 *3737:vpwrpc 0.000843289
18 *206:10 *3737:vpwrpc 0.00145872
19 *215:16 *3737:vpwrpc 0.00137017
20 *219:42 *3737:vpwrpc 0.00189832
21 *230:10 *3737:vpwrpc 0.000648911
22 *230:10 *381:14 1.01912e-05
23 *232:10 *3737:vpwrpc 0.0017412
24 *239:8 *381:14 2.26973e-05
25 *248:10 *3737:vpwrpc 0.00061185
26 *251:8 *3737:vpwrpc 0.00023328
27 *258:30 *3737:vpwrpc 0.00115146
28 *270:38 *3737:vpwrpc 0.0014238
*RES
1 *3746:HI *381:14 21.0519 
2 *381:14 *3737:vpwrpc 44.6846 
*END

*D_NET *382 9.83585e-05
*CONN
*I *3757:A I *D sky130_fd_sc_hd__buf_2
*I *3599:X O *D sky130_fd_sc_hd__dlygate4sd3_1
*CAP
1 *3757:A 2.06056e-05
2 *3599:X 2.06056e-05
3 *159:10 *3757:A 5.71472e-05
*RES
1 *3599:X *3757:A 19.1357 
*END
