*SPEF "ieee 1481-1999"
*DESIGN "user_project_wrapper"
*DATE "18:44:42 Monday October 05, 2026"
*VENDOR "The OpenROAD Project"
*PROGRAM "OpenROAD"
*VERSION "dcf36133a369abc8f3c5e5738cd4d82e4903c0e0"
*DESIGN_FLOW "NAME_SCOPE LOCAL" "PIN_CAP NONE"
*DIVIDER /
*DELIMITER :
*BUS_DELIMITER []
*T_UNIT 1 NS
*C_UNIT 1 PF
*R_UNIT 1 OHM
*L_UNIT 1 HENRY

*NAME_MAP
*1 analog_io[0]
*2 analog_io[10]
*3 analog_io[11]
*4 analog_io[12]
*5 analog_io[13]
*6 analog_io[14]
*7 analog_io[15]
*8 analog_io[16]
*9 analog_io[17]
*10 analog_io[18]
*11 analog_io[19]
*12 analog_io[1]
*13 analog_io[20]
*14 analog_io[21]
*15 analog_io[22]
*16 analog_io[23]
*17 analog_io[24]
*18 analog_io[25]
*19 analog_io[26]
*20 analog_io[27]
*21 analog_io[28]
*22 analog_io[2]
*23 analog_io[3]
*24 analog_io[4]
*25 analog_io[5]
*26 analog_io[6]
*27 analog_io[7]
*28 analog_io[8]
*29 analog_io[9]
*30 io_in[0]
*31 io_in[10]
*32 io_in[11]
*33 io_in[12]
*34 io_in[13]
*35 io_in[14]
*36 io_in[15]
*37 io_in[16]
*38 io_in[17]
*39 io_in[18]
*40 io_in[19]
*41 io_in[1]
*42 io_in[20]
*43 io_in[21]
*44 io_in[22]
*45 io_in[23]
*46 io_in[24]
*47 io_in[25]
*48 io_in[26]
*49 io_in[27]
*50 io_in[28]
*51 io_in[29]
*52 io_in[2]
*53 io_in[30]
*54 io_in[31]
*55 io_in[32]
*56 io_in[33]
*57 io_in[34]
*58 io_in[35]
*59 io_in[36]
*60 io_in[37]
*61 io_in[3]
*62 io_in[4]
*63 io_in[5]
*64 io_in[6]
*65 io_in[7]
*66 io_in[8]
*67 io_in[9]
*68 io_oeb[0]
*69 io_oeb[10]
*70 io_oeb[11]
*71 io_oeb[12]
*72 io_oeb[13]
*73 io_oeb[14]
*74 io_oeb[15]
*75 io_oeb[16]
*76 io_oeb[17]
*77 io_oeb[18]
*78 io_oeb[19]
*79 io_oeb[1]
*80 io_oeb[20]
*81 io_oeb[21]
*82 io_oeb[22]
*83 io_oeb[23]
*84 io_oeb[24]
*85 io_oeb[25]
*86 io_oeb[26]
*87 io_oeb[27]
*88 io_oeb[28]
*89 io_oeb[29]
*90 io_oeb[2]
*91 io_oeb[30]
*92 io_oeb[31]
*93 io_oeb[32]
*94 io_oeb[33]
*95 io_oeb[34]
*96 io_oeb[35]
*97 io_oeb[36]
*98 io_oeb[37]
*99 io_oeb[3]
*100 io_oeb[4]
*101 io_oeb[5]
*102 io_oeb[6]
*103 io_oeb[7]
*104 io_oeb[8]
*105 io_oeb[9]
*106 io_out[0]
*107 io_out[10]
*108 io_out[11]
*109 io_out[12]
*110 io_out[13]
*111 io_out[14]
*112 io_out[15]
*113 io_out[16]
*114 io_out[17]
*115 io_out[18]
*116 io_out[19]
*117 io_out[1]
*118 io_out[20]
*119 io_out[21]
*120 io_out[22]
*121 io_out[23]
*122 io_out[24]
*123 io_out[25]
*124 io_out[26]
*125 io_out[27]
*126 io_out[28]
*127 io_out[29]
*128 io_out[2]
*129 io_out[30]
*130 io_out[31]
*131 io_out[32]
*132 io_out[33]
*133 io_out[34]
*134 io_out[35]
*135 io_out[36]
*136 io_out[37]
*137 io_out[3]
*138 io_out[4]
*139 io_out[5]
*140 io_out[6]
*141 io_out[7]
*142 io_out[8]
*143 io_out[9]
*144 la_data_in[0]
*145 la_data_in[100]
*146 la_data_in[101]
*147 la_data_in[102]
*148 la_data_in[103]
*149 la_data_in[104]
*150 la_data_in[105]
*151 la_data_in[106]
*152 la_data_in[107]
*153 la_data_in[108]
*154 la_data_in[109]
*155 la_data_in[10]
*156 la_data_in[110]
*157 la_data_in[111]
*158 la_data_in[112]
*159 la_data_in[113]
*160 la_data_in[114]
*161 la_data_in[115]
*162 la_data_in[116]
*163 la_data_in[117]
*164 la_data_in[118]
*165 la_data_in[119]
*166 la_data_in[11]
*167 la_data_in[120]
*168 la_data_in[121]
*169 la_data_in[122]
*170 la_data_in[123]
*171 la_data_in[124]
*172 la_data_in[125]
*173 la_data_in[126]
*174 la_data_in[127]
*175 la_data_in[12]
*176 la_data_in[13]
*177 la_data_in[14]
*178 la_data_in[15]
*179 la_data_in[16]
*180 la_data_in[17]
*181 la_data_in[18]
*182 la_data_in[19]
*183 la_data_in[1]
*184 la_data_in[20]
*185 la_data_in[21]
*186 la_data_in[22]
*187 la_data_in[23]
*188 la_data_in[24]
*189 la_data_in[25]
*190 la_data_in[26]
*191 la_data_in[27]
*192 la_data_in[28]
*193 la_data_in[29]
*194 la_data_in[2]
*195 la_data_in[30]
*196 la_data_in[31]
*197 la_data_in[32]
*198 la_data_in[33]
*199 la_data_in[34]
*200 la_data_in[35]
*201 la_data_in[36]
*202 la_data_in[37]
*203 la_data_in[38]
*204 la_data_in[39]
*205 la_data_in[3]
*206 la_data_in[40]
*207 la_data_in[41]
*208 la_data_in[42]
*209 la_data_in[43]
*210 la_data_in[44]
*211 la_data_in[45]
*212 la_data_in[46]
*213 la_data_in[47]
*214 la_data_in[48]
*215 la_data_in[49]
*216 la_data_in[4]
*217 la_data_in[50]
*218 la_data_in[51]
*219 la_data_in[52]
*220 la_data_in[53]
*221 la_data_in[54]
*222 la_data_in[55]
*223 la_data_in[56]
*224 la_data_in[57]
*225 la_data_in[58]
*226 la_data_in[59]
*227 la_data_in[5]
*228 la_data_in[60]
*229 la_data_in[61]
*230 la_data_in[62]
*231 la_data_in[63]
*232 la_data_in[64]
*233 la_data_in[65]
*234 la_data_in[66]
*235 la_data_in[67]
*236 la_data_in[68]
*237 la_data_in[69]
*238 la_data_in[6]
*239 la_data_in[70]
*240 la_data_in[71]
*241 la_data_in[72]
*242 la_data_in[73]
*243 la_data_in[74]
*244 la_data_in[75]
*245 la_data_in[76]
*246 la_data_in[77]
*247 la_data_in[78]
*248 la_data_in[79]
*249 la_data_in[7]
*250 la_data_in[80]
*251 la_data_in[81]
*252 la_data_in[82]
*253 la_data_in[83]
*254 la_data_in[84]
*255 la_data_in[85]
*256 la_data_in[86]
*257 la_data_in[87]
*258 la_data_in[88]
*259 la_data_in[89]
*260 la_data_in[8]
*261 la_data_in[90]
*262 la_data_in[91]
*263 la_data_in[92]
*264 la_data_in[93]
*265 la_data_in[94]
*266 la_data_in[95]
*267 la_data_in[96]
*268 la_data_in[97]
*269 la_data_in[98]
*270 la_data_in[99]
*271 la_data_in[9]
*272 la_data_out[0]
*273 la_data_out[100]
*274 la_data_out[101]
*275 la_data_out[102]
*276 la_data_out[103]
*277 la_data_out[104]
*278 la_data_out[105]
*279 la_data_out[106]
*280 la_data_out[107]
*281 la_data_out[108]
*282 la_data_out[109]
*283 la_data_out[10]
*284 la_data_out[110]
*285 la_data_out[111]
*286 la_data_out[112]
*287 la_data_out[113]
*288 la_data_out[114]
*289 la_data_out[115]
*290 la_data_out[116]
*291 la_data_out[117]
*292 la_data_out[118]
*293 la_data_out[119]
*294 la_data_out[11]
*295 la_data_out[120]
*296 la_data_out[121]
*297 la_data_out[122]
*298 la_data_out[123]
*299 la_data_out[124]
*300 la_data_out[125]
*301 la_data_out[126]
*302 la_data_out[127]
*303 la_data_out[12]
*304 la_data_out[13]
*305 la_data_out[14]
*306 la_data_out[15]
*307 la_data_out[16]
*308 la_data_out[17]
*309 la_data_out[18]
*310 la_data_out[19]
*311 la_data_out[1]
*312 la_data_out[20]
*313 la_data_out[21]
*314 la_data_out[22]
*315 la_data_out[23]
*316 la_data_out[24]
*317 la_data_out[25]
*318 la_data_out[26]
*319 la_data_out[27]
*320 la_data_out[28]
*321 la_data_out[29]
*322 la_data_out[2]
*323 la_data_out[30]
*324 la_data_out[31]
*325 la_data_out[32]
*326 la_data_out[33]
*327 la_data_out[34]
*328 la_data_out[35]
*329 la_data_out[36]
*330 la_data_out[37]
*331 la_data_out[38]
*332 la_data_out[39]
*333 la_data_out[3]
*334 la_data_out[40]
*335 la_data_out[41]
*336 la_data_out[42]
*337 la_data_out[43]
*338 la_data_out[44]
*339 la_data_out[45]
*340 la_data_out[46]
*341 la_data_out[47]
*342 la_data_out[48]
*343 la_data_out[49]
*344 la_data_out[4]
*345 la_data_out[50]
*346 la_data_out[51]
*347 la_data_out[52]
*348 la_data_out[53]
*349 la_data_out[54]
*350 la_data_out[55]
*351 la_data_out[56]
*352 la_data_out[57]
*353 la_data_out[58]
*354 la_data_out[59]
*355 la_data_out[5]
*356 la_data_out[60]
*357 la_data_out[61]
*358 la_data_out[62]
*359 la_data_out[63]
*360 la_data_out[64]
*361 la_data_out[65]
*362 la_data_out[66]
*363 la_data_out[67]
*364 la_data_out[68]
*365 la_data_out[69]
*366 la_data_out[6]
*367 la_data_out[70]
*368 la_data_out[71]
*369 la_data_out[72]
*370 la_data_out[73]
*371 la_data_out[74]
*372 la_data_out[75]
*373 la_data_out[76]
*374 la_data_out[77]
*375 la_data_out[78]
*376 la_data_out[79]
*377 la_data_out[7]
*378 la_data_out[80]
*379 la_data_out[81]
*380 la_data_out[82]
*381 la_data_out[83]
*382 la_data_out[84]
*383 la_data_out[85]
*384 la_data_out[86]
*385 la_data_out[87]
*386 la_data_out[88]
*387 la_data_out[89]
*388 la_data_out[8]
*389 la_data_out[90]
*390 la_data_out[91]
*391 la_data_out[92]
*392 la_data_out[93]
*393 la_data_out[94]
*394 la_data_out[95]
*395 la_data_out[96]
*396 la_data_out[97]
*397 la_data_out[98]
*398 la_data_out[99]
*399 la_data_out[9]
*400 la_oenb[0]
*401 la_oenb[100]
*402 la_oenb[101]
*403 la_oenb[102]
*404 la_oenb[103]
*405 la_oenb[104]
*406 la_oenb[105]
*407 la_oenb[106]
*408 la_oenb[107]
*409 la_oenb[108]
*410 la_oenb[109]
*411 la_oenb[10]
*412 la_oenb[110]
*413 la_oenb[111]
*414 la_oenb[112]
*415 la_oenb[113]
*416 la_oenb[114]
*417 la_oenb[115]
*418 la_oenb[116]
*419 la_oenb[117]
*420 la_oenb[118]
*421 la_oenb[119]
*422 la_oenb[11]
*423 la_oenb[120]
*424 la_oenb[121]
*425 la_oenb[122]
*426 la_oenb[123]
*427 la_oenb[124]
*428 la_oenb[125]
*429 la_oenb[126]
*430 la_oenb[127]
*431 la_oenb[12]
*432 la_oenb[13]
*433 la_oenb[14]
*434 la_oenb[15]
*435 la_oenb[16]
*436 la_oenb[17]
*437 la_oenb[18]
*438 la_oenb[19]
*439 la_oenb[1]
*440 la_oenb[20]
*441 la_oenb[21]
*442 la_oenb[22]
*443 la_oenb[23]
*444 la_oenb[24]
*445 la_oenb[25]
*446 la_oenb[26]
*447 la_oenb[27]
*448 la_oenb[28]
*449 la_oenb[29]
*450 la_oenb[2]
*451 la_oenb[30]
*452 la_oenb[31]
*453 la_oenb[32]
*454 la_oenb[33]
*455 la_oenb[34]
*456 la_oenb[35]
*457 la_oenb[36]
*458 la_oenb[37]
*459 la_oenb[38]
*460 la_oenb[39]
*461 la_oenb[3]
*462 la_oenb[40]
*463 la_oenb[41]
*464 la_oenb[42]
*465 la_oenb[43]
*466 la_oenb[44]
*467 la_oenb[45]
*468 la_oenb[46]
*469 la_oenb[47]
*470 la_oenb[48]
*471 la_oenb[49]
*472 la_oenb[4]
*473 la_oenb[50]
*474 la_oenb[51]
*475 la_oenb[52]
*476 la_oenb[53]
*477 la_oenb[54]
*478 la_oenb[55]
*479 la_oenb[56]
*480 la_oenb[57]
*481 la_oenb[58]
*482 la_oenb[59]
*483 la_oenb[5]
*484 la_oenb[60]
*485 la_oenb[61]
*486 la_oenb[62]
*487 la_oenb[63]
*488 la_oenb[64]
*489 la_oenb[65]
*490 la_oenb[66]
*491 la_oenb[67]
*492 la_oenb[68]
*493 la_oenb[69]
*494 la_oenb[6]
*495 la_oenb[70]
*496 la_oenb[71]
*497 la_oenb[72]
*498 la_oenb[73]
*499 la_oenb[74]
*500 la_oenb[75]
*501 la_oenb[76]
*502 la_oenb[77]
*503 la_oenb[78]
*504 la_oenb[79]
*505 la_oenb[7]
*506 la_oenb[80]
*507 la_oenb[81]
*508 la_oenb[82]
*509 la_oenb[83]
*510 la_oenb[84]
*511 la_oenb[85]
*512 la_oenb[86]
*513 la_oenb[87]
*514 la_oenb[88]
*515 la_oenb[89]
*516 la_oenb[8]
*517 la_oenb[90]
*518 la_oenb[91]
*519 la_oenb[92]
*520 la_oenb[93]
*521 la_oenb[94]
*522 la_oenb[95]
*523 la_oenb[96]
*524 la_oenb[97]
*525 la_oenb[98]
*526 la_oenb[99]
*527 la_oenb[9]
*528 user_clock2
*529 user_irq[0]
*530 user_irq[1]
*531 user_irq[2]
*540 wb_clk_i
*541 wb_rst_i
*542 wbs_ack_o
*543 wbs_adr_i[0]
*544 wbs_adr_i[10]
*545 wbs_adr_i[11]
*546 wbs_adr_i[12]
*547 wbs_adr_i[13]
*548 wbs_adr_i[14]
*549 wbs_adr_i[15]
*550 wbs_adr_i[16]
*551 wbs_adr_i[17]
*552 wbs_adr_i[18]
*553 wbs_adr_i[19]
*554 wbs_adr_i[1]
*555 wbs_adr_i[20]
*556 wbs_adr_i[21]
*557 wbs_adr_i[22]
*558 wbs_adr_i[23]
*559 wbs_adr_i[24]
*560 wbs_adr_i[25]
*561 wbs_adr_i[26]
*562 wbs_adr_i[27]
*563 wbs_adr_i[28]
*564 wbs_adr_i[29]
*565 wbs_adr_i[2]
*566 wbs_adr_i[30]
*567 wbs_adr_i[31]
*568 wbs_adr_i[3]
*569 wbs_adr_i[4]
*570 wbs_adr_i[5]
*571 wbs_adr_i[6]
*572 wbs_adr_i[7]
*573 wbs_adr_i[8]
*574 wbs_adr_i[9]
*575 wbs_cyc_i
*576 wbs_dat_i[0]
*577 wbs_dat_i[10]
*578 wbs_dat_i[11]
*579 wbs_dat_i[12]
*580 wbs_dat_i[13]
*581 wbs_dat_i[14]
*582 wbs_dat_i[15]
*583 wbs_dat_i[16]
*584 wbs_dat_i[17]
*585 wbs_dat_i[18]
*586 wbs_dat_i[19]
*587 wbs_dat_i[1]
*588 wbs_dat_i[20]
*589 wbs_dat_i[21]
*590 wbs_dat_i[22]
*591 wbs_dat_i[23]
*592 wbs_dat_i[24]
*593 wbs_dat_i[25]
*594 wbs_dat_i[26]
*595 wbs_dat_i[27]
*596 wbs_dat_i[28]
*597 wbs_dat_i[29]
*598 wbs_dat_i[2]
*599 wbs_dat_i[30]
*600 wbs_dat_i[31]
*601 wbs_dat_i[3]
*602 wbs_dat_i[4]
*603 wbs_dat_i[5]
*604 wbs_dat_i[6]
*605 wbs_dat_i[7]
*606 wbs_dat_i[8]
*607 wbs_dat_i[9]
*608 wbs_dat_o[0]
*609 wbs_dat_o[10]
*610 wbs_dat_o[11]
*611 wbs_dat_o[12]
*612 wbs_dat_o[13]
*613 wbs_dat_o[14]
*614 wbs_dat_o[15]
*615 wbs_dat_o[16]
*616 wbs_dat_o[17]
*617 wbs_dat_o[18]
*618 wbs_dat_o[19]
*619 wbs_dat_o[1]
*620 wbs_dat_o[20]
*621 wbs_dat_o[21]
*622 wbs_dat_o[22]
*623 wbs_dat_o[23]
*624 wbs_dat_o[24]
*625 wbs_dat_o[25]
*626 wbs_dat_o[26]
*627 wbs_dat_o[27]
*628 wbs_dat_o[28]
*629 wbs_dat_o[29]
*630 wbs_dat_o[2]
*631 wbs_dat_o[30]
*632 wbs_dat_o[31]
*633 wbs_dat_o[3]
*634 wbs_dat_o[4]
*635 wbs_dat_o[5]
*636 wbs_dat_o[6]
*637 wbs_dat_o[7]
*638 wbs_dat_o[8]
*639 wbs_dat_o[9]
*640 wbs_sel_i[0]
*641 wbs_sel_i[1]
*642 wbs_sel_i[2]
*643 wbs_sel_i[3]
*644 wbs_stb_i
*645 wbs_we_i
*646 afe_chopclk
*647 afe_dout\[0\]
*648 afe_dout\[1\]
*649 afe_dout\[2\]
*650 afe_dout\[3\]
*651 afe_dout\[4\]
*652 afe_dout\[5\]
*653 afe_dout\[6\]
*654 afe_dout\[7\]
*655 afe_ibias
*656 afe_nbias
*657 afe_out1
*658 afe_ov_one
*659 afe_ov_zero
*660 afe_scanout
*661 afe_test\[0\]
*662 afe_test\[1\]
*663 afe_test\[2\]
*664 afe_test\[3\]
*665 afe_test\[4\]
*666 afe_test\[5\]
*667 afe_test\[6\]
*668 afe_test\[7\]
*669 afe_test_dig
*670 afe_vref
*671 analog_ctrl\[0\]
*672 analog_ctrl\[100\]
*673 analog_ctrl\[101\]
*674 analog_ctrl\[102\]
*675 analog_ctrl\[103\]
*676 analog_ctrl\[104\]
*677 analog_ctrl\[105\]
*678 analog_ctrl\[106\]
*679 analog_ctrl\[107\]
*680 analog_ctrl\[108\]
*681 analog_ctrl\[109\]
*682 analog_ctrl\[10\]
*683 analog_ctrl\[110\]
*684 analog_ctrl\[111\]
*685 analog_ctrl\[112\]
*686 analog_ctrl\[113\]
*687 analog_ctrl\[114\]
*688 analog_ctrl\[115\]
*689 analog_ctrl\[116\]
*690 analog_ctrl\[117\]
*691 analog_ctrl\[118\]
*692 analog_ctrl\[119\]
*693 analog_ctrl\[11\]
*694 analog_ctrl\[120\]
*695 analog_ctrl\[121\]
*696 analog_ctrl\[122\]
*697 analog_ctrl\[123\]
*698 analog_ctrl\[124\]
*699 analog_ctrl\[125\]
*700 analog_ctrl\[126\]
*701 analog_ctrl\[127\]
*702 analog_ctrl\[128\]
*703 analog_ctrl\[129\]
*704 analog_ctrl\[12\]
*705 analog_ctrl\[130\]
*706 analog_ctrl\[131\]
*707 analog_ctrl\[132\]
*708 analog_ctrl\[133\]
*709 analog_ctrl\[134\]
*710 analog_ctrl\[135\]
*711 analog_ctrl\[136\]
*712 analog_ctrl\[137\]
*713 analog_ctrl\[138\]
*714 analog_ctrl\[139\]
*715 analog_ctrl\[13\]
*716 analog_ctrl\[140\]
*717 analog_ctrl\[141\]
*718 analog_ctrl\[142\]
*719 analog_ctrl\[143\]
*720 analog_ctrl\[144\]
*721 analog_ctrl\[145\]
*722 analog_ctrl\[146\]
*723 analog_ctrl\[147\]
*724 analog_ctrl\[148\]
*725 analog_ctrl\[149\]
*726 analog_ctrl\[14\]
*727 analog_ctrl\[150\]
*728 analog_ctrl\[151\]
*729 analog_ctrl\[152\]
*730 analog_ctrl\[153\]
*731 analog_ctrl\[154\]
*732 analog_ctrl\[155\]
*733 analog_ctrl\[156\]
*734 analog_ctrl\[157\]
*735 analog_ctrl\[158\]
*736 analog_ctrl\[159\]
*737 analog_ctrl\[15\]
*738 analog_ctrl\[160\]
*739 analog_ctrl\[161\]
*740 analog_ctrl\[162\]
*741 analog_ctrl\[163\]
*742 analog_ctrl\[164\]
*743 analog_ctrl\[165\]
*744 analog_ctrl\[166\]
*745 analog_ctrl\[167\]
*746 analog_ctrl\[168\]
*747 analog_ctrl\[169\]
*748 analog_ctrl\[16\]
*749 analog_ctrl\[170\]
*750 analog_ctrl\[171\]
*751 analog_ctrl\[172\]
*752 analog_ctrl\[173\]
*753 analog_ctrl\[174\]
*754 analog_ctrl\[175\]
*755 analog_ctrl\[176\]
*756 analog_ctrl\[177\]
*757 analog_ctrl\[178\]
*758 analog_ctrl\[179\]
*759 analog_ctrl\[17\]
*760 analog_ctrl\[180\]
*761 analog_ctrl\[181\]
*762 analog_ctrl\[182\]
*763 analog_ctrl\[183\]
*764 analog_ctrl\[184\]
*765 analog_ctrl\[185\]
*766 analog_ctrl\[186\]
*767 analog_ctrl\[187\]
*768 analog_ctrl\[188\]
*769 analog_ctrl\[189\]
*770 analog_ctrl\[18\]
*771 analog_ctrl\[190\]
*772 analog_ctrl\[191\]
*773 analog_ctrl\[192\]
*774 analog_ctrl\[193\]
*775 analog_ctrl\[194\]
*776 analog_ctrl\[195\]
*777 analog_ctrl\[196\]
*778 analog_ctrl\[197\]
*779 analog_ctrl\[198\]
*780 analog_ctrl\[199\]
*781 analog_ctrl\[19\]
*782 analog_ctrl\[1\]
*783 analog_ctrl\[200\]
*784 analog_ctrl\[201\]
*785 analog_ctrl\[202\]
*786 analog_ctrl\[203\]
*787 analog_ctrl\[204\]
*788 analog_ctrl\[205\]
*789 analog_ctrl\[206\]
*790 analog_ctrl\[20\]
*791 analog_ctrl\[21\]
*792 analog_ctrl\[22\]
*793 analog_ctrl\[23\]
*794 analog_ctrl\[24\]
*795 analog_ctrl\[25\]
*796 analog_ctrl\[26\]
*797 analog_ctrl\[27\]
*798 analog_ctrl\[28\]
*799 analog_ctrl\[29\]
*800 analog_ctrl\[2\]
*801 analog_ctrl\[30\]
*802 analog_ctrl\[31\]
*803 analog_ctrl\[32\]
*804 analog_ctrl\[33\]
*805 analog_ctrl\[34\]
*806 analog_ctrl\[35\]
*807 analog_ctrl\[36\]
*808 analog_ctrl\[37\]
*809 analog_ctrl\[38\]
*810 analog_ctrl\[39\]
*811 analog_ctrl\[3\]
*812 analog_ctrl\[40\]
*813 analog_ctrl\[41\]
*814 analog_ctrl\[42\]
*815 analog_ctrl\[43\]
*816 analog_ctrl\[44\]
*817 analog_ctrl\[45\]
*818 analog_ctrl\[46\]
*819 analog_ctrl\[47\]
*820 analog_ctrl\[48\]
*821 analog_ctrl\[49\]
*822 analog_ctrl\[4\]
*823 analog_ctrl\[50\]
*824 analog_ctrl\[51\]
*825 analog_ctrl\[52\]
*826 analog_ctrl\[53\]
*827 analog_ctrl\[54\]
*828 analog_ctrl\[55\]
*829 analog_ctrl\[56\]
*830 analog_ctrl\[57\]
*831 analog_ctrl\[58\]
*832 analog_ctrl\[59\]
*833 analog_ctrl\[5\]
*834 analog_ctrl\[60\]
*835 analog_ctrl\[61\]
*836 analog_ctrl\[62\]
*837 analog_ctrl\[63\]
*838 analog_ctrl\[64\]
*839 analog_ctrl\[65\]
*840 analog_ctrl\[66\]
*841 analog_ctrl\[67\]
*842 analog_ctrl\[68\]
*843 analog_ctrl\[69\]
*844 analog_ctrl\[6\]
*845 analog_ctrl\[70\]
*846 analog_ctrl\[71\]
*847 analog_ctrl\[72\]
*848 analog_ctrl\[73\]
*849 analog_ctrl\[74\]
*850 analog_ctrl\[75\]
*851 analog_ctrl\[76\]
*852 analog_ctrl\[77\]
*853 analog_ctrl\[78\]
*854 analog_ctrl\[79\]
*855 analog_ctrl\[7\]
*856 analog_ctrl\[80\]
*857 analog_ctrl\[81\]
*858 analog_ctrl\[82\]
*859 analog_ctrl\[83\]
*860 analog_ctrl\[84\]
*861 analog_ctrl\[85\]
*862 analog_ctrl\[86\]
*863 analog_ctrl\[87\]
*864 analog_ctrl\[88\]
*865 analog_ctrl\[89\]
*866 analog_ctrl\[8\]
*867 analog_ctrl\[90\]
*868 analog_ctrl\[91\]
*869 analog_ctrl\[92\]
*870 analog_ctrl\[93\]
*871 analog_ctrl\[94\]
*872 analog_ctrl\[95\]
*873 analog_ctrl\[96\]
*874 analog_ctrl\[97\]
*875 analog_ctrl\[98\]
*876 analog_ctrl\[99\]
*877 analog_ctrl\[9\]
*878 dsm_sumn
*879 dsm_sump
*880 sram_ack
*881 sram_adr\[0\]
*882 sram_adr\[10\]
*883 sram_adr\[11\]
*884 sram_adr\[12\]
*885 sram_adr\[13\]
*886 sram_adr\[14\]
*887 sram_adr\[15\]
*888 sram_adr\[16\]
*889 sram_adr\[17\]
*890 sram_adr\[18\]
*891 sram_adr\[19\]
*892 sram_adr\[1\]
*893 sram_adr\[20\]
*894 sram_adr\[21\]
*895 sram_adr\[22\]
*896 sram_adr\[23\]
*897 sram_adr\[24\]
*898 sram_adr\[25\]
*899 sram_adr\[26\]
*900 sram_adr\[27\]
*901 sram_adr\[28\]
*902 sram_adr\[29\]
*903 sram_adr\[2\]
*904 sram_adr\[30\]
*905 sram_adr\[31\]
*906 sram_adr\[3\]
*907 sram_adr\[4\]
*908 sram_adr\[5\]
*909 sram_adr\[6\]
*910 sram_adr\[7\]
*911 sram_adr\[8\]
*912 sram_adr\[9\]
*913 sram_cyc
*914 sram_rdat\[0\]
*915 sram_rdat\[10\]
*916 sram_rdat\[11\]
*917 sram_rdat\[12\]
*918 sram_rdat\[13\]
*919 sram_rdat\[14\]
*920 sram_rdat\[15\]
*921 sram_rdat\[16\]
*922 sram_rdat\[17\]
*923 sram_rdat\[18\]
*924 sram_rdat\[19\]
*925 sram_rdat\[1\]
*926 sram_rdat\[20\]
*927 sram_rdat\[21\]
*928 sram_rdat\[22\]
*929 sram_rdat\[23\]
*930 sram_rdat\[24\]
*931 sram_rdat\[25\]
*932 sram_rdat\[26\]
*933 sram_rdat\[27\]
*934 sram_rdat\[28\]
*935 sram_rdat\[29\]
*936 sram_rdat\[2\]
*937 sram_rdat\[30\]
*938 sram_rdat\[31\]
*939 sram_rdat\[3\]
*940 sram_rdat\[4\]
*941 sram_rdat\[5\]
*942 sram_rdat\[6\]
*943 sram_rdat\[7\]
*944 sram_rdat\[8\]
*945 sram_rdat\[9\]
*946 sram_sel\[0\]
*947 sram_sel\[1\]
*948 sram_sel\[2\]
*949 sram_sel\[3\]
*950 sram_stb
*951 sram_wdat\[0\]
*952 sram_wdat\[10\]
*953 sram_wdat\[11\]
*954 sram_wdat\[12\]
*955 sram_wdat\[13\]
*956 sram_wdat\[14\]
*957 sram_wdat\[15\]
*958 sram_wdat\[16\]
*959 sram_wdat\[17\]
*960 sram_wdat\[18\]
*961 sram_wdat\[19\]
*962 sram_wdat\[1\]
*963 sram_wdat\[20\]
*964 sram_wdat\[21\]
*965 sram_wdat\[22\]
*966 sram_wdat\[23\]
*967 sram_wdat\[24\]
*968 sram_wdat\[25\]
*969 sram_wdat\[26\]
*970 sram_wdat\[27\]
*971 sram_wdat\[28\]
*972 sram_wdat\[29\]
*973 sram_wdat\[2\]
*974 sram_wdat\[30\]
*975 sram_wdat\[31\]
*976 sram_wdat\[3\]
*977 sram_wdat\[4\]
*978 sram_wdat\[5\]
*979 sram_wdat\[6\]
*980 sram_wdat\[7\]
*981 sram_wdat\[8\]
*982 sram_wdat\[9\]
*983 sram_we
*984 u_cf_adc_dsm20
*985 u_cf_bgr
*986 u_cf_buf_hiz
*987 u_cf_refbuf
*988 u_soc_sys
*989 u_sram

*PORTS
analog_io[0] I
analog_io[10] I
analog_io[11] I
analog_io[12] I
analog_io[13] I
analog_io[14] I
analog_io[15] I
analog_io[16] I
analog_io[17] I
analog_io[18] I
analog_io[19] I
analog_io[1] I
analog_io[20] I
analog_io[21] I
analog_io[22] I
analog_io[23] I
analog_io[24] I
analog_io[25] I
analog_io[26] I
analog_io[27] I
analog_io[28] I
analog_io[2] I
analog_io[3] I
analog_io[4] I
analog_io[5] I
analog_io[6] I
analog_io[7] I
analog_io[8] I
analog_io[9] I
io_in[0] I
io_in[10] I
io_in[11] I
io_in[12] I
io_in[13] I
io_in[14] I
io_in[15] I
io_in[16] I
io_in[17] I
io_in[18] I
io_in[19] I
io_in[1] I
io_in[20] I
io_in[21] I
io_in[22] I
io_in[23] I
io_in[24] I
io_in[25] I
io_in[26] I
io_in[27] I
io_in[28] I
io_in[29] I
io_in[2] I
io_in[30] I
io_in[31] I
io_in[32] I
io_in[33] I
io_in[34] I
io_in[35] I
io_in[36] I
io_in[37] I
io_in[3] I
io_in[4] I
io_in[5] I
io_in[6] I
io_in[7] I
io_in[8] I
io_in[9] I
io_oeb[0] O
io_oeb[10] O
io_oeb[11] O
io_oeb[12] O
io_oeb[13] O
io_oeb[14] O
io_oeb[15] O
io_oeb[16] O
io_oeb[17] O
io_oeb[18] O
io_oeb[19] O
io_oeb[1] O
io_oeb[20] O
io_oeb[21] O
io_oeb[22] O
io_oeb[23] O
io_oeb[24] O
io_oeb[25] O
io_oeb[26] O
io_oeb[27] O
io_oeb[28] O
io_oeb[29] O
io_oeb[2] O
io_oeb[30] O
io_oeb[31] O
io_oeb[32] O
io_oeb[33] O
io_oeb[34] O
io_oeb[35] O
io_oeb[36] O
io_oeb[37] O
io_oeb[3] O
io_oeb[4] O
io_oeb[5] O
io_oeb[6] O
io_oeb[7] O
io_oeb[8] O
io_oeb[9] O
io_out[0] O
io_out[10] O
io_out[11] O
io_out[12] O
io_out[13] O
io_out[14] O
io_out[15] O
io_out[16] O
io_out[17] O
io_out[18] O
io_out[19] O
io_out[1] O
io_out[20] O
io_out[21] O
io_out[22] O
io_out[23] O
io_out[24] O
io_out[25] O
io_out[26] O
io_out[27] O
io_out[28] O
io_out[29] O
io_out[2] O
io_out[30] O
io_out[31] O
io_out[32] O
io_out[33] O
io_out[34] O
io_out[35] O
io_out[36] O
io_out[37] O
io_out[3] O
io_out[4] O
io_out[5] O
io_out[6] O
io_out[7] O
io_out[8] O
io_out[9] O
la_data_in[0] I
la_data_in[100] I
la_data_in[101] I
la_data_in[102] I
la_data_in[103] I
la_data_in[104] I
la_data_in[105] I
la_data_in[106] I
la_data_in[107] I
la_data_in[108] I
la_data_in[109] I
la_data_in[10] I
la_data_in[110] I
la_data_in[111] I
la_data_in[112] I
la_data_in[113] I
la_data_in[114] I
la_data_in[115] I
la_data_in[116] I
la_data_in[117] I
la_data_in[118] I
la_data_in[119] I
la_data_in[11] I
la_data_in[120] I
la_data_in[121] I
la_data_in[122] I
la_data_in[123] I
la_data_in[124] I
la_data_in[125] I
la_data_in[126] I
la_data_in[127] I
la_data_in[12] I
la_data_in[13] I
la_data_in[14] I
la_data_in[15] I
la_data_in[16] I
la_data_in[17] I
la_data_in[18] I
la_data_in[19] I
la_data_in[1] I
la_data_in[20] I
la_data_in[21] I
la_data_in[22] I
la_data_in[23] I
la_data_in[24] I
la_data_in[25] I
la_data_in[26] I
la_data_in[27] I
la_data_in[28] I
la_data_in[29] I
la_data_in[2] I
la_data_in[30] I
la_data_in[31] I
la_data_in[32] I
la_data_in[33] I
la_data_in[34] I
la_data_in[35] I
la_data_in[36] I
la_data_in[37] I
la_data_in[38] I
la_data_in[39] I
la_data_in[3] I
la_data_in[40] I
la_data_in[41] I
la_data_in[42] I
la_data_in[43] I
la_data_in[44] I
la_data_in[45] I
la_data_in[46] I
la_data_in[47] I
la_data_in[48] I
la_data_in[49] I
la_data_in[4] I
la_data_in[50] I
la_data_in[51] I
la_data_in[52] I
la_data_in[53] I
la_data_in[54] I
la_data_in[55] I
la_data_in[56] I
la_data_in[57] I
la_data_in[58] I
la_data_in[59] I
la_data_in[5] I
la_data_in[60] I
la_data_in[61] I
la_data_in[62] I
la_data_in[63] I
la_data_in[64] I
la_data_in[65] I
la_data_in[66] I
la_data_in[67] I
la_data_in[68] I
la_data_in[69] I
la_data_in[6] I
la_data_in[70] I
la_data_in[71] I
la_data_in[72] I
la_data_in[73] I
la_data_in[74] I
la_data_in[75] I
la_data_in[76] I
la_data_in[77] I
la_data_in[78] I
la_data_in[79] I
la_data_in[7] I
la_data_in[80] I
la_data_in[81] I
la_data_in[82] I
la_data_in[83] I
la_data_in[84] I
la_data_in[85] I
la_data_in[86] I
la_data_in[87] I
la_data_in[88] I
la_data_in[89] I
la_data_in[8] I
la_data_in[90] I
la_data_in[91] I
la_data_in[92] I
la_data_in[93] I
la_data_in[94] I
la_data_in[95] I
la_data_in[96] I
la_data_in[97] I
la_data_in[98] I
la_data_in[99] I
la_data_in[9] I
la_data_out[0] O
la_data_out[100] O
la_data_out[101] O
la_data_out[102] O
la_data_out[103] O
la_data_out[104] O
la_data_out[105] O
la_data_out[106] O
la_data_out[107] O
la_data_out[108] O
la_data_out[109] O
la_data_out[10] O
la_data_out[110] O
la_data_out[111] O
la_data_out[112] O
la_data_out[113] O
la_data_out[114] O
la_data_out[115] O
la_data_out[116] O
la_data_out[117] O
la_data_out[118] O
la_data_out[119] O
la_data_out[11] O
la_data_out[120] O
la_data_out[121] O
la_data_out[122] O
la_data_out[123] O
la_data_out[124] O
la_data_out[125] O
la_data_out[126] O
la_data_out[127] O
la_data_out[12] O
la_data_out[13] O
la_data_out[14] O
la_data_out[15] O
la_data_out[16] O
la_data_out[17] O
la_data_out[18] O
la_data_out[19] O
la_data_out[1] O
la_data_out[20] O
la_data_out[21] O
la_data_out[22] O
la_data_out[23] O
la_data_out[24] O
la_data_out[25] O
la_data_out[26] O
la_data_out[27] O
la_data_out[28] O
la_data_out[29] O
la_data_out[2] O
la_data_out[30] O
la_data_out[31] O
la_data_out[32] O
la_data_out[33] O
la_data_out[34] O
la_data_out[35] O
la_data_out[36] O
la_data_out[37] O
la_data_out[38] O
la_data_out[39] O
la_data_out[3] O
la_data_out[40] O
la_data_out[41] O
la_data_out[42] O
la_data_out[43] O
la_data_out[44] O
la_data_out[45] O
la_data_out[46] O
la_data_out[47] O
la_data_out[48] O
la_data_out[49] O
la_data_out[4] O
la_data_out[50] O
la_data_out[51] O
la_data_out[52] O
la_data_out[53] O
la_data_out[54] O
la_data_out[55] O
la_data_out[56] O
la_data_out[57] O
la_data_out[58] O
la_data_out[59] O
la_data_out[5] O
la_data_out[60] O
la_data_out[61] O
la_data_out[62] O
la_data_out[63] O
la_data_out[64] O
la_data_out[65] O
la_data_out[66] O
la_data_out[67] O
la_data_out[68] O
la_data_out[69] O
la_data_out[6] O
la_data_out[70] O
la_data_out[71] O
la_data_out[72] O
la_data_out[73] O
la_data_out[74] O
la_data_out[75] O
la_data_out[76] O
la_data_out[77] O
la_data_out[78] O
la_data_out[79] O
la_data_out[7] O
la_data_out[80] O
la_data_out[81] O
la_data_out[82] O
la_data_out[83] O
la_data_out[84] O
la_data_out[85] O
la_data_out[86] O
la_data_out[87] O
la_data_out[88] O
la_data_out[89] O
la_data_out[8] O
la_data_out[90] O
la_data_out[91] O
la_data_out[92] O
la_data_out[93] O
la_data_out[94] O
la_data_out[95] O
la_data_out[96] O
la_data_out[97] O
la_data_out[98] O
la_data_out[99] O
la_data_out[9] O
la_oenb[0] I
la_oenb[100] I
la_oenb[101] I
la_oenb[102] I
la_oenb[103] I
la_oenb[104] I
la_oenb[105] I
la_oenb[106] I
la_oenb[107] I
la_oenb[108] I
la_oenb[109] I
la_oenb[10] I
la_oenb[110] I
la_oenb[111] I
la_oenb[112] I
la_oenb[113] I
la_oenb[114] I
la_oenb[115] I
la_oenb[116] I
la_oenb[117] I
la_oenb[118] I
la_oenb[119] I
la_oenb[11] I
la_oenb[120] I
la_oenb[121] I
la_oenb[122] I
la_oenb[123] I
la_oenb[124] I
la_oenb[125] I
la_oenb[126] I
la_oenb[127] I
la_oenb[12] I
la_oenb[13] I
la_oenb[14] I
la_oenb[15] I
la_oenb[16] I
la_oenb[17] I
la_oenb[18] I
la_oenb[19] I
la_oenb[1] I
la_oenb[20] I
la_oenb[21] I
la_oenb[22] I
la_oenb[23] I
la_oenb[24] I
la_oenb[25] I
la_oenb[26] I
la_oenb[27] I
la_oenb[28] I
la_oenb[29] I
la_oenb[2] I
la_oenb[30] I
la_oenb[31] I
la_oenb[32] I
la_oenb[33] I
la_oenb[34] I
la_oenb[35] I
la_oenb[36] I
la_oenb[37] I
la_oenb[38] I
la_oenb[39] I
la_oenb[3] I
la_oenb[40] I
la_oenb[41] I
la_oenb[42] I
la_oenb[43] I
la_oenb[44] I
la_oenb[45] I
la_oenb[46] I
la_oenb[47] I
la_oenb[48] I
la_oenb[49] I
la_oenb[4] I
la_oenb[50] I
la_oenb[51] I
la_oenb[52] I
la_oenb[53] I
la_oenb[54] I
la_oenb[55] I
la_oenb[56] I
la_oenb[57] I
la_oenb[58] I
la_oenb[59] I
la_oenb[5] I
la_oenb[60] I
la_oenb[61] I
la_oenb[62] I
la_oenb[63] I
la_oenb[64] I
la_oenb[65] I
la_oenb[66] I
la_oenb[67] I
la_oenb[68] I
la_oenb[69] I
la_oenb[6] I
la_oenb[70] I
la_oenb[71] I
la_oenb[72] I
la_oenb[73] I
la_oenb[74] I
la_oenb[75] I
la_oenb[76] I
la_oenb[77] I
la_oenb[78] I
la_oenb[79] I
la_oenb[7] I
la_oenb[80] I
la_oenb[81] I
la_oenb[82] I
la_oenb[83] I
la_oenb[84] I
la_oenb[85] I
la_oenb[86] I
la_oenb[87] I
la_oenb[88] I
la_oenb[89] I
la_oenb[8] I
la_oenb[90] I
la_oenb[91] I
la_oenb[92] I
la_oenb[93] I
la_oenb[94] I
la_oenb[95] I
la_oenb[96] I
la_oenb[97] I
la_oenb[98] I
la_oenb[99] I
la_oenb[9] I
user_clock2 I
user_irq[0] O
user_irq[1] O
user_irq[2] O
wb_clk_i I
wb_rst_i I
wbs_ack_o O
wbs_adr_i[0] I
wbs_adr_i[10] I
wbs_adr_i[11] I
wbs_adr_i[12] I
wbs_adr_i[13] I
wbs_adr_i[14] I
wbs_adr_i[15] I
wbs_adr_i[16] I
wbs_adr_i[17] I
wbs_adr_i[18] I
wbs_adr_i[19] I
wbs_adr_i[1] I
wbs_adr_i[20] I
wbs_adr_i[21] I
wbs_adr_i[22] I
wbs_adr_i[23] I
wbs_adr_i[24] I
wbs_adr_i[25] I
wbs_adr_i[26] I
wbs_adr_i[27] I
wbs_adr_i[28] I
wbs_adr_i[29] I
wbs_adr_i[2] I
wbs_adr_i[30] I
wbs_adr_i[31] I
wbs_adr_i[3] I
wbs_adr_i[4] I
wbs_adr_i[5] I
wbs_adr_i[6] I
wbs_adr_i[7] I
wbs_adr_i[8] I
wbs_adr_i[9] I
wbs_cyc_i I
wbs_dat_i[0] I
wbs_dat_i[10] I
wbs_dat_i[11] I
wbs_dat_i[12] I
wbs_dat_i[13] I
wbs_dat_i[14] I
wbs_dat_i[15] I
wbs_dat_i[16] I
wbs_dat_i[17] I
wbs_dat_i[18] I
wbs_dat_i[19] I
wbs_dat_i[1] I
wbs_dat_i[20] I
wbs_dat_i[21] I
wbs_dat_i[22] I
wbs_dat_i[23] I
wbs_dat_i[24] I
wbs_dat_i[25] I
wbs_dat_i[26] I
wbs_dat_i[27] I
wbs_dat_i[28] I
wbs_dat_i[29] I
wbs_dat_i[2] I
wbs_dat_i[30] I
wbs_dat_i[31] I
wbs_dat_i[3] I
wbs_dat_i[4] I
wbs_dat_i[5] I
wbs_dat_i[6] I
wbs_dat_i[7] I
wbs_dat_i[8] I
wbs_dat_i[9] I
wbs_dat_o[0] O
wbs_dat_o[10] O
wbs_dat_o[11] O
wbs_dat_o[12] O
wbs_dat_o[13] O
wbs_dat_o[14] O
wbs_dat_o[15] O
wbs_dat_o[16] O
wbs_dat_o[17] O
wbs_dat_o[18] O
wbs_dat_o[19] O
wbs_dat_o[1] O
wbs_dat_o[20] O
wbs_dat_o[21] O
wbs_dat_o[22] O
wbs_dat_o[23] O
wbs_dat_o[24] O
wbs_dat_o[25] O
wbs_dat_o[26] O
wbs_dat_o[27] O
wbs_dat_o[28] O
wbs_dat_o[29] O
wbs_dat_o[2] O
wbs_dat_o[30] O
wbs_dat_o[31] O
wbs_dat_o[3] O
wbs_dat_o[4] O
wbs_dat_o[5] O
wbs_dat_o[6] O
wbs_dat_o[7] O
wbs_dat_o[8] O
wbs_dat_o[9] O
wbs_sel_i[0] I
wbs_sel_i[1] I
wbs_sel_i[2] I
wbs_sel_i[3] I
wbs_stb_i I
wbs_we_i I

*D_NET *1 0.345685
*CONN
*P analog_io[0] I
*I *985:vb2_fast I *D CF_BGR
*CAP
1 analog_io[0] 0.0515847
2 *985:vb2_fast 3.66911e-05
3 *1:13 0.0780971
4 *1:11 0.0780604
5 *1:9 0.0321583
6 *1:7 0.0321583
7 *1:5 0.0515847
8 *1:13 *867:21 0.0220051
*RES
1 analog_io[0] *1:5 171.804 
2 *1:5 *1:7 8 
3 *1:7 *1:9 742.638 
4 *1:9 *1:11 15 
5 *1:11 *1:13 1744.73 
6 *1:13 *985:vb2_fast 0.776786 
*END

*D_NET *12 0.158805
*CONN
*P analog_io[1] I
*I *986:vinp1 I *D CF_BUF_HIZ
*CAP
1 analog_io[1] 0.0207768
2 *986:vinp1 0.000279259
3 *12:9 0.00758538
4 *12:7 0.00730612
5 *12:5 0.0207768
6 *12:9 *25:9 0.0510393
7 *12:9 *26:9 0.0510418
*RES
1 analog_io[1] *12:5 69.9664 
2 *12:5 *12:7 8 
3 *12:7 *12:9 648.088 
4 *12:9 *986:vinp1 16.9147 
*END

*D_NET *13 0.59066
*CONN
*P analog_io[20] I
*I *984:INN I *D CF_ADC_DSM20
*I *984:PBUF_INN I *D CF_ADC_DSM20
*I *986:out2 O *D CF_BUF_HIZ
*CAP
1 analog_io[20] 0.000641391
2 *984:INN 0.00136937
3 *984:PBUF_INN 0.0012009
4 *986:out2 0.000117618
5 *13:56 0.0316756
6 *13:54 0.0310342
7 *13:52 0.0523592
8 *13:38 0.0536102
9 *13:34 0.00251927
10 *13:32 0.00246913
11 *13:30 0.000639944
12 *13:22 0.00230563
13 *13:18 0.00543604
14 *13:16 0.00513973
15 *13:14 0.0287226
16 *13:12 0.0287226
17 *13:10 0.00935464
18 *13:8 0.00947225
19 analog_io[20] *46:9 0.000325813
20 *984:INN *984:INP 0.000135588
21 *984:PBUF_INN *984:PBUF_INP 0.00020577
22 *13:8 *986:bypass_n 5.77328e-05
23 *13:10 *22:17 0.00497051
24 *13:14 *104:29 0.00774492
25 *13:14 *656:65 0.127082
26 *13:14 *658:19 0.0499398
27 *13:14 *712:15 0.00870281
28 *13:14 *718:13 0.00185655
29 *13:14 *719:13 0.00234368
30 *13:14 *721:13 0.000546508
31 *13:14 *722:13 0.000943145
32 *13:14 *812:13 0.022312
33 *13:14 *817:13 0
34 *13:18 *18:15 0.000668066
35 *13:18 *683:17 0.00728209
36 *13:18 *684:17 0.0121103
37 *13:18 *688:13 0.00171152
38 *13:18 *690:9 0
39 *13:18 *714:17 0.000271484
40 *13:18 *723:33 0.00165995
41 *13:18 *726:17 0.0144099
42 *13:18 *738:17 0.0111918
43 *13:30 *19:15 0
44 *13:30 *716:41 0.000233674
45 *13:30 *719:17 0.00111561
46 *13:34 *18:41 0.00084039
47 *13:34 *19:15 0.0152687
48 *13:34 *717:17 0.0168932
49 *13:34 *728:33 0.00296335
50 *13:38 *18:41 7.43939e-05
51 *13:38 *717:17 3.09427e-05
52 *13:52 *18:41 0.00667399
53 *13:52 *717:17 0.00230993
54 *13:52 *718:17 7.8399e-05
55 *13:52 *722:17 0
56 *13:52 *727:17 0
57 *13:52 *728:33 0.000915973
*RES
1 *986:out2 *13:8 16.3995 
2 *13:8 *13:10 238.898 
3 *13:10 *13:12 8 
4 *13:12 *13:14 240.053 
5 *13:14 *13:16 8 
6 *13:16 *13:18 366.198 
7 *13:18 *13:22 18.9564 
8 *13:22 *13:30 48.6636 
9 *13:30 *13:32 15 
10 *13:32 *13:34 214.507 
11 *13:34 *13:38 1.56393 
12 *13:38 *984:PBUF_INN 33.5393 
13 *13:38 *13:52 1253.42 
14 *13:52 *13:54 15 
15 *13:54 *13:56 658.093 
16 *13:56 analog_io[20] 31.2562 
17 *13:22 *984:INN 21.9882 
*END

*D_NET *14 0.512636
*CONN
*P analog_io[21] I
*I *986:vcm I *D CF_BUF_HIZ
*I *984:VCM I *D CF_ADC_DSM20
*CAP
1 analog_io[21] 0.00227694
2 *986:vcm 0.000358084
3 *984:VCM 0.00160051
4 *14:39 0.0177983
5 *14:37 0.0174402
6 *14:35 0.0893752
7 *14:33 0.0893752
8 *14:21 0.00490539
9 *14:19 0.00710909
10 *14:17 0.00387317
11 *14:15 0.0366541
12 *14:13 0.0365851
13 *14:11 0.0338151
14 *14:9 0.0360921
15 *986:vcm *986:iref_casc 0.000393983
16 *986:vcm *655:65 1.04117e-05
17 *14:19 *721:17 0.000396696
18 *14:21 *714:17 0.0223945
19 *14:21 *721:17 0.0225412
20 *14:21 *723:33 0.00403731
21 *14:35 *18:63 0
22 *14:35 *657:14 0.0584734
23 *14:35 *719:21 0
24 *14:35 *730:21 0
25 *14:35 *731:21 0
26 *14:35 *738:35 0.000972871
27 *14:35 *745:21 0
28 *14:35 *764:29 0
29 *14:35 *765:21 0.0256448
30 *14:35 *774:21 2.98648e-05
31 *14:35 *775:21 0
32 *14:35 *775:27 0.000124762
33 *14:35 *776:21 0.000110316
34 *14:35 *788:31 6.69394e-05
35 *14:35 *789:29 0.000111675
36 *14:35 *828:37 6.74969e-06
37 *14:39 *25:9 0
38 *14:39 *656:69 6.24949e-05
*RES
1 analog_io[21] *14:9 6.57627 
2 *14:9 *14:11 111.468 
3 *14:11 *14:13 8 
4 *14:13 *14:15 844.439 
5 *14:15 *14:17 1.57429 
6 *14:17 *14:19 85.6846 
7 *14:19 *14:21 286.437 
8 *14:21 *984:VCM 39.215 
9 *14:19 *14:33 15 
10 *14:33 *14:35 1982.09 
11 *14:35 *14:37 15 
12 *14:37 *14:39 404.053 
13 *14:39 *986:vcm 38.6379 
*END

*D_NET *15 0.291118
*CONN
*P analog_io[22] I
*I *984:refout O *D CF_ADC_DSM20
*CAP
1 analog_io[22] 0.00213042
2 *984:refout 0.00130414
3 *15:49 0.0918485
4 *15:47 0.0897181
5 *15:45 0.0413903
6 *15:43 0.0416584
7 *15:37 0.0022213
8 *15:35 0.00198036
9 *15:33 0.0013387
10 *15:31 0.00219678
11 *15:23 0.00218944
12 analog_io[22] *46:9 0.000325813
13 *15:23 *984:ODET_TH[2] 0.000116538
14 *15:23 *984:ODET_TH[0] 9.19907e-05
15 *15:23 *984:RESET3 2.14724e-05
16 *15:23 *984:dig_test_sel[2] 1.15724e-05
17 *15:23 *984:dig_test_sel[1] 5.10636e-05
18 *15:23 *984:qlev[0] 7.60955e-05
19 *15:23 *984:vpwr_cp 6.10551e-06
20 *15:23 *984:bypass_n 1.94021e-05
21 *15:23 *984:BUF_FCHOP[0] 0.000183893
22 *15:23 *756:45 0.000573347
23 *15:23 *795:17 0.00127379
24 *15:23 *798:17 0.000634897
25 *15:23 *806:17 4.92808e-05
26 *15:31 *756:45 2.34364e-05
27 *15:31 *756:47 0.00136409
28 *15:33 *984:clk 3.39618e-05
29 *15:33 *984:NONOV[1] 0.000225929
30 *15:33 *755:33 0.000961898
31 *15:33 *756:47 0.00393507
32 *15:37 *984:iso 2.65696e-05
33 *15:37 *755:33 0.000490203
34 *15:37 *756:47 0.00264507
35 *15:43 *984:iso 0
36 *15:45 *755:33 0
*RES
1 *984:refout *15:23 45.7777 
2 *15:23 *15:31 29.7043 
3 *15:31 *15:33 50.17 
4 *15:33 *15:35 0.621429 
5 *15:35 *15:37 64.9186 
6 *15:37 *15:43 16.7 
7 *15:43 *15:45 142.221 
8 *15:45 *15:47 8 
9 *15:47 *15:49 298.314 
10 *15:49 analog_io[22] 38.0106 
*END

*D_NET *17 0.038973
*CONN
*P analog_io[24] I
*I *985:dft_curr_in I *D CF_BGR
*CAP
1 analog_io[24] 0.00375098
2 *985:dft_curr_in 0.0028579
3 *17:11 0.0145165
4 *17:9 0.0154095
5 *985:dft_curr_in *45:13 0
6 *17:11 *126:27 0.00243814
*RES
1 analog_io[24] *17:9 18.9013 
2 *17:9 *17:11 269.886 
3 *17:11 *985:dft_curr_in 24.4779 
*END

*D_NET *18 0.390343
*CONN
*P analog_io[25] I
*I *984:vpwrd_int I *D CF_ADC_DSM20
*I *984:vpwr_ext I *D CF_ADC_DSM20
*I *984:vpwr_int I *D CF_ADC_DSM20
*CAP
1 analog_io[25] 0.00252678
2 *984:vpwrd_int 0.000122524
3 *984:vpwr_ext 0.000557009
4 *984:vpwr_int 0.000611107
5 *18:75 0.000957616
6 *18:73 0.000835092
7 *18:71 0.00316764
8 *18:69 0.00324721
9 *18:63 0.00129201
10 *18:61 0.00121244
11 *18:49 0.00197607
12 *18:45 0.0222853
13 *18:43 0.0208662
14 *18:41 0.00493489
15 *18:39 0.00541952
16 *18:23 0.00195082
17 *18:15 0.00665493
18 *18:13 0.00531522
19 *18:11 0.0359956
20 *18:9 0.0380377
21 *984:vpwr_int *731:17 8.77554e-05
22 *18:15 *684:17 0.00849759
23 *18:15 *688:13 0.000774114
24 *18:15 *714:17 0.0354207
25 *18:15 *723:33 0.00376145
26 *18:15 *726:17 0.0256279
27 *18:23 *692:13 2.11066e-05
28 *18:23 *736:13 0
29 *18:41 *19:15 0.00515867
30 *18:41 *716:41 0.000120267
31 *18:41 *719:17 0
32 *18:41 *728:33 0.00206426
33 *18:45 *826:13 0.0695454
34 *18:45 *828:29 0.0133951
35 *18:63 *714:21 0.000260396
36 *18:63 *730:21 0.000644941
37 *18:63 *738:35 0.000107226
38 *18:63 *775:27 0.000677706
39 *18:63 *784:29 0.00165417
40 *18:63 *788:31 0.000594509
41 *18:69 *984:FCAP3[3] 0.000134077
42 *18:69 *984:FCAP3[2] 5.94125e-05
43 *18:69 *984:FCAP3[0] 3.16789e-05
44 *18:71 *718:31 0.000801673
45 *18:71 *756:63 0.00443702
46 *18:71 *758:17 0.000201174
47 *18:71 *763:21 0.0203812
48 *18:71 *771:37 0.0215856
49 *18:75 *19:53 1.80959e-05
50 *18:75 *755:33 0.000476498
51 *18:75 *756:59 0.00376517
52 *18:75 *785:49 0.00381546
53 *13:18 *18:15 0.000668066
54 *13:34 *18:41 0.00084039
55 *13:38 *18:41 7.43939e-05
56 *13:52 *18:41 0.00667399
57 *14:35 *18:63 0
*RES
1 analog_io[25] *18:9 6.57627 
2 *18:9 *18:11 111.554 
3 *18:11 *18:13 8 
4 *18:13 *18:15 450.712 
5 *18:15 *18:23 49.9996 
6 *18:23 *984:vpwr_int 19.1859 
7 *18:11 *18:39 9.17227 
8 *18:39 *18:41 172.519 
9 *18:41 *18:43 15 
10 *18:43 *18:45 742.421 
11 *18:45 *18:49 39.0907 
12 *18:49 *984:vpwr_ext 22.9646 
13 *18:49 *18:61 15 
14 *18:61 *18:63 37.3064 
15 *18:63 *18:69 31.9057 
16 *18:69 *18:71 237.406 
17 *18:71 *18:73 15 
18 *18:73 *18:75 49.6211 
19 *18:75 *984:vpwrd_int 16.3995 
*END

*D_NET *19 0.337315
*CONN
*P analog_io[26] I
*I *984:vgnde_vnb I *D CF_ADC_DSM20
*I *984:VGND_DAC I *D CF_ADC_DSM20
*I *984:vgnde I *D CF_ADC_DSM20
*I *984:vgndd_vnb I *D CF_ADC_DSM20
*CAP
1 analog_io[26] 0.00255337
2 *984:vgnde_vnb 0.000743966
3 *984:VGND_DAC 0.000905453
4 *984:vgnde 0.000766423
5 *984:vgndd_vnb 7.535e-05
6 *19:53 0.00297735
7 *19:51 0.0035346
8 *19:35 0.000786101
9 *19:31 0.00226805
10 *19:29 0.002137
11 *19:27 0.0287815
12 *19:25 0.0287815
13 *19:23 0.00421582
14 *19:21 0.00421582
15 *19:19 0.00128304
16 *19:15 0.00881025
17 *19:13 0.00843266
18 *19:11 0.036023
19 *19:9 0.0385763
20 *984:vgnde_vnb *984:enable_hv 4.52005e-05
21 *984:vgnde_vnb *755:33 0.000415466
22 *984:vgnde_vnb *756:47 0.000935007
23 *19:15 *717:17 0.00581965
24 *19:15 *719:17 0
25 *19:15 *728:33 0.00548572
26 *19:23 *699:21 3.74769e-05
27 *19:23 *701:21 0.00623836
28 *19:23 *712:17 0
29 *19:23 *727:17 0
30 *19:23 *729:17 0
31 *19:23 *743:17 0
32 *19:27 *141:18 0.0202724
33 *19:27 *825:13 0.068665
34 *19:27 *827:13 0.010363
35 *19:35 *662:11 0.000174996
36 *19:51 *661:17 0.00469938
37 *19:51 *662:11 0.0012855
38 *19:51 *663:25 0.00023712
39 *19:51 *667:17 0.00470285
40 *19:53 *647:11 0.000188889
41 *19:53 *648:11 5.08741e-05
42 *19:53 *653:13 0.00149574
43 *19:53 *654:11 8.63641e-05
44 *19:53 *755:33 0.00116564
45 *19:53 *756:47 0.000386267
46 *19:53 *756:51 0.0047592
47 *19:53 *756:59 0.00348436
48 *19:53 *785:49 7.82891e-06
49 *13:30 *19:15 0
50 *13:34 *19:15 0.0152687
51 *18:41 *19:15 0.00515867
52 *18:75 *19:53 1.80959e-05
*RES
1 analog_io[26] *19:9 6.57627 
2 *19:9 *19:11 112.756 
3 *19:11 *19:13 8 
4 *19:13 *19:15 335.209 
5 *19:15 *19:19 20.3857 
6 *19:19 *19:21 15 
7 *19:21 *19:23 114.591 
8 *19:23 *19:25 15 
9 *19:25 *19:27 959.672 
10 *19:27 *19:29 15 
11 *19:29 *19:31 37.8243 
12 *19:31 *19:35 18.48 
13 *19:35 *984:vgndd_vnb 1.48107 
14 *19:35 *19:51 39.8779 
15 *19:51 *19:53 115.648 
16 *19:53 *984:vgnde 1.02536 
17 *19:19 *984:VGND_DAC 12.9361 
18 *984:vgnde *984:vgnde_vnb 24.7329 
*END

*D_NET *20 0.442884
*CONN
*P analog_io[27] I
*I *984:vpwr_cp_dc I *D CF_ADC_DSM20
*I *984:vpwr_cp I *D CF_ADC_DSM20
*CAP
1 analog_io[27] 0.00260296
2 *984:vpwr_cp_dc 0.000121266
3 *984:vpwr_cp 0.0007731
4 *20:55 0.00642529
5 *20:49 0.00630402
6 *20:47 0.00375158
7 *20:45 0.0039875
8 *20:39 0.00114643
9 *20:23 0.0037908
10 *20:21 0.00261792
11 *20:15 0.00501418
12 *20:13 0.00450347
13 *20:11 0.0703082
14 *20:9 0.0729112
15 *984:vpwr_cp *984:BUF_FCHOP[1] 0.000106552
16 *984:vpwr_cp *807:21 1.12487e-05
17 *984:vpwr_cp *815:25 8.73233e-05
18 *20:11 *31:13 0
19 *20:11 *669:19 0.00922231
20 *20:11 *783:13 0
21 *20:11 *785:13 0
22 *20:11 *794:45 0
23 *20:11 *873:13 0.111235
24 *20:11 *877:13 0
25 *20:15 *758:13 0.0292305
26 *20:15 *770:47 0.0029758
27 *20:15 *775:17 0
28 *20:15 *809:17 0
29 *20:15 *872:25 0.0285078
30 *20:23 *789:23 0
31 *20:39 *750:13 0.000312315
32 *20:39 *756:39 0.00117842
33 *20:39 *771:33 0
34 *20:39 *785:33 0.00144903
35 *20:39 *816:17 0
36 *20:39 *817:17 2.2924e-05
37 *20:47 *652:13 0.0159933
38 *20:47 *654:13 0.0168232
39 *20:47 *704:17 0.00049486
40 *20:47 *755:33 0.000999756
41 *20:47 *771:33 0.00193616
42 *20:47 *786:17 0.00251115
43 *20:55 *984:SUMCAPFB[0] 4.51815e-05
44 *20:55 *984:refsel[1] 0.000486359
45 *20:55 *984:refsel[0] 0.000179913
46 *20:55 *984:FCAP2[3] 5.32194e-05
47 *20:55 *984:IPCAP1[6] 0.000118189
48 *20:55 *984:IPCAP1[1] 0.000776495
49 *20:55 *984:TESTMODE 0.000223402
50 *20:55 *664:19 0.00748665
51 *20:55 *667:17 0.00673144
52 *20:55 *698:21 0.000466251
53 *20:55 *703:43 8.99889e-05
54 *20:55 *707:21 0.00136358
55 *20:55 *734:21 0.000380793
56 *20:55 *739:21 0.0114426
57 *20:55 *739:41 0.000993657
58 *20:55 *740:17 0
59 *20:55 *741:33 0.00374323
60 *20:55 *742:37 6.96714e-05
61 *20:55 *744:21 8.64719e-05
62 *20:55 *747:25 0.000137886
63 *20:55 *755:55 5.30156e-05
64 *20:55 *758:35 9.79696e-05
65 *20:55 *821:29 0.000496491
66 *15:23 *984:vpwr_cp 6.10551e-06
*RES
1 analog_io[27] *20:9 6.57627 
2 *20:9 *20:11 303.723 
3 *20:11 *20:13 8 
4 *20:13 *20:15 371.832 
5 *20:15 *20:21 22.1775 
6 *20:21 *20:23 29.9218 
7 *20:23 *984:vpwr_cp 26.2479 
8 *20:23 *20:39 46.4857 
9 *20:39 *20:45 33.9564 
10 *20:45 *20:47 276.049 
11 *20:47 *20:49 8 
12 *20:49 *20:55 48.7648 
13 *20:55 *984:vpwr_cp_dc 24.8021 
*END

*D_NET *22 0.191631
*CONN
*P analog_io[2] I
*I *986:vinp2 I *D CF_BUF_HIZ
*CAP
1 analog_io[2] 0.00120761
2 *986:vinp2 4.49146e-05
3 *22:17 0.0376771
4 *22:15 0.0376321
5 *22:13 0.0544347
6 *22:11 0.0556423
7 *22:11 *67:9 0
8 *22:17 *986:bypass_n 2.18413e-05
9 *13:10 *22:17 0.00497051
*RES
1 analog_io[2] *22:11 34.8535 
2 *22:11 *22:13 185.786 
3 *22:13 *22:15 8 
4 *22:15 *22:17 893.531 
5 *22:17 *986:vinp2 1.02536 
*END

*D_NET *23 0.269737
*CONN
*P analog_io[3] I
*I *986:vpwr_core I *D CF_BUF_HIZ
*I *986:vpwr_acore I *D CF_BUF_HIZ
*CAP
1 analog_io[3] 0.0203921
2 *986:vpwr_core 0
3 *986:vpwr_acore 0.00135963
4 *23:36 0.0102676
5 *23:34 0.0102676
6 *23:32 0.00896252
7 *23:30 0.00900924
8 *23:9 0.0486836
9 *23:7 0.0473707
10 *23:5 0.0203921
11 *986:vpwr_acore *26:9 0
12 *23:32 *657:10 0.000103082
13 *23:32 *822:17 0.0191122
14 *23:36 *986:vgnd1 0.000112629
15 *23:36 *986:vpwrb 0.000617311
16 *23:36 *24:13 0.0351482
17 *23:36 *25:13 0.000238354
18 *23:36 *70:33 0.00167371
19 *23:36 *112:48 0.0360263
*RES
1 analog_io[3] *23:5 67.4763 
2 *23:5 *23:7 8 
3 *23:7 *23:9 1096.01 
4 *23:9 *986:vpwr_acore 24.0552 
5 *986:vpwr_acore *23:30 16.0989 
6 *23:30 *23:32 45.6885 
7 *23:32 *23:34 8 
8 *23:34 *23:36 84.5059 
9 *23:36 *986:vpwr_core 8 
*END

*D_NET *24 0.24537
*CONN
*P analog_io[4] I
*I *986:vpwrb_clk I *D CF_BUF_HIZ
*I *986:vpwrb I *D CF_BUF_HIZ
*CAP
1 analog_io[4] 0.019182
2 *986:vpwrb_clk 0
3 *986:vpwrb 0.00022357
4 *24:13 0.0142914
5 *24:11 0.0140678
6 *24:9 0.0702936
7 *24:7 0.0702936
8 *24:5 0.019182
9 *986:vpwrb *655:57 0
10 *24:13 *112:48 0.00207045
11 *24:13 *655:57 0
12 *23:36 *986:vpwrb 0.000617311
13 *23:36 *24:13 0.0351482
*RES
1 analog_io[4] *24:5 63.6123 
2 *24:5 *24:7 8 
3 *24:7 *24:9 1628.45 
4 *24:9 *24:11 8 
5 *24:11 *24:13 74.6741 
6 *24:13 *986:vpwrb 9.17227 
7 *24:13 *986:vpwrb_clk 8 
*END

*D_NET *25 0.328151
*CONN
*P analog_io[5] I
*I *986:vgnd1 I *D CF_BUF_HIZ
*CAP
1 analog_io[5] 0.0206193
2 *986:vgnd1 0.000130425
3 *25:13 0.00882067
4 *25:11 0.00869025
5 *25:9 0.0549079
6 *25:7 0.0549079
7 *25:5 0.0206193
8 *986:vgnd1 *70:33 9.78824e-05
9 *25:9 *26:9 0.0518651
10 *25:9 *656:69 0
11 *25:13 *70:33 0.0378259
12 *25:13 *112:48 0.0182761
13 *12:9 *25:9 0.0510393
14 *14:39 *25:9 0
15 *23:36 *986:vgnd1 0.000112629
16 *23:36 *25:13 0.000238354
*RES
1 analog_io[5] *25:5 69.8805 
2 *25:5 *25:7 8 
3 *25:7 *25:9 1906.65 
4 *25:9 *25:11 8 
5 *25:11 *25:13 71.7117 
6 *25:13 *986:vgnd1 8.62533 
*END

*D_NET *26 0.384177
*CONN
*P analog_io[6] I
*I *986:vgnd_core I *D CF_BUF_HIZ
*CAP
1 analog_io[6] 0.0210577
2 *986:vgnd_core 0.000120761
3 *26:13 0.00716749
4 *26:11 0.00704673
5 *26:9 0.0668373
6 *26:7 0.0668373
7 *26:5 0.0210577
8 *26:9 *655:61 0
9 *26:9 *655:65 0
10 *26:13 *32:13 0.0384412
11 *26:13 *69:37 0.0142627
12 *26:13 *70:33 0.0384412
13 *986:vpwr_acore *26:9 0
14 *12:9 *26:9 0.0510418
15 *25:9 *26:9 0.0518651
*RES
1 analog_io[6] *26:5 70.0523 
2 *26:5 *26:7 8 
3 *26:7 *26:9 2182.73 
4 *26:9 *26:11 8 
5 *26:11 *26:13 72.8709 
6 *26:13 *986:vgnd_core 10.1854 
*END

*D_NET *27 0.346776
*CONN
*P analog_io[7] I
*I *987:ch2 I *D CF_REFBUF
*I *987:ch1 I *D CF_REFBUF
*I *987:out O *D CF_REFBUF
*CAP
1 analog_io[7] 0.112012
2 *987:ch2 0.000217043
3 *987:ch1 0.00240447
4 *987:out 6.49993e-05
5 *27:19 0.112012
6 *27:17 0.0585582
7 *27:7 0.00218742
8 *27:5 0.0586232
9 *987:ch1 *987:switchon 0.000696595
*RES
1 *987:out *27:5 1.305 
2 *27:5 *27:7 15 
3 *27:7 *987:ch1 46.1825 
4 *27:5 *27:17 1322.27 
5 *27:17 *27:19 8 
6 *27:19 analog_io[7] 374.535 
7 *987:ch1 *987:ch2 19.2775 
*END

*D_NET *28 0.364608
*CONN
*P analog_io[8] I
*I *987:ng I *D CF_REFBUF
*I *987:vpwre I *D CF_REFBUF
*CAP
1 analog_io[8] 0.0673416
2 *987:ng 4.49146e-05
3 *987:vpwre 0.00392767
4 *28:27 0.00567975
5 *28:25 0.00563484
6 *28:13 0.00441016
7 *28:9 0.105355
8 *28:7 0.104873
9 *28:5 0.0673416
*RES
1 analog_io[8] *28:5 1560.77 
2 *28:5 *28:7 8 
3 *28:7 *28:9 350.778 
4 *28:9 *28:13 1.82747 
5 *28:13 *987:vpwre 22.9323 
6 *28:13 *28:25 8 
7 *28:25 *28:27 130.438 
8 *28:27 *987:ng 1.02536 
*END

*D_NET *31 0.963503
*CONN
*P io_in[10] I
*I *988:io_in[3] I *D soc_sys
*CAP
1 io_in[10] 0.000267309
2 *988:io_in[3] 0.00213425
3 *31:39 0.00309808
4 *31:29 0.0177807
5 *31:27 0.0170983
6 *31:17 0.0334423
7 *31:15 0.033161
8 *31:13 0.0776151
9 *31:11 0.0776151
10 *31:9 0.0212512
11 *31:7 0.0215185
12 *988:io_in[3] *988:io_in[0] 0.00019843
13 *988:io_in[3] *988:io_in[1] 0.0051621
14 *988:io_in[3] *988:io_in[2] 0
15 *988:io_in[3] *988:io_in[4] 0
16 *988:io_in[3] *44:41 0.000838301
17 *988:io_in[3] *69:9 0.000434797
18 *988:io_in[3] *113:21 0.00517263
19 *31:9 io_out[7] 0.000127201
20 *31:9 *32:9 0.112387
21 *31:9 *33:9 0
22 *31:9 *66:11 0.000330096
23 *31:9 *67:9 0.0928551
24 *31:9 *108:17 0
25 *31:13 *751:13 0.00734499
26 *31:13 *761:13 0.00623189
27 *31:13 *791:21 0.00262137
28 *31:13 *794:45 0.0363993
29 *31:13 *809:13 0.0366033
30 *31:13 *872:21 5.29092e-05
31 *31:17 *33:17 0.0602756
32 *31:17 *69:33 0.011725
33 *31:17 *889:9 0.00397347
34 *31:17 *898:9 0.00418087
35 *31:17 *917:17 0.00282207
36 *31:17 *951:9 0.00022347
37 *31:17 *959:9 0.00398503
38 *31:27 *912:9 0
39 *31:27 *951:9 0.000223131
40 *31:27 *960:27 0.000303234
41 *31:27 *978:13 0.000308406
42 *31:29 *40:29 0.00073935
43 *31:29 *69:29 0.117226
44 *31:29 *111:29 0.000485596
45 *31:29 *113:29 0.115778
46 *31:29 *115:25 0
47 *31:29 *540:25 0.000490962
48 *31:29 *541:27 0.0209063
49 *31:39 *988:io_in[20] 0.000632647
50 *31:39 *988:wb_clk_i 4.87899e-06
51 *31:39 *40:39 0.00313258
52 *31:39 *42:47 0.00358626
53 *31:39 *111:21 0.000215193
54 *31:39 *111:29 0.000539397
55 *31:39 *540:21 4.15283e-06
56 *20:11 *31:13 0
*RES
1 io_in[10] *31:7 8.58613 
2 *31:7 *31:9 1454.49 
3 *31:9 *31:11 8 
4 *31:11 *31:13 302.435 
5 *31:13 *31:15 8 
6 *31:15 *31:17 143.745 
7 *31:17 *31:27 34.7523 
8 *31:27 *31:29 1293.65 
9 *31:29 *31:39 38.1176 
10 *31:39 *988:io_in[3] 48.461 
*END

*D_NET *32 1.01747
*CONN
*P io_in[11] I
*I *988:io_in[4] I *D soc_sys
*CAP
1 io_in[11] 0.000210973
2 *988:io_in[4] 0.000516333
3 *32:39 0.0020414
4 *32:37 0.10203
5 *32:27 0.10217
6 *32:17 0.0282368
7 *32:15 0.0265718
8 *32:13 0.0501327
9 *32:11 0.0501327
10 *32:9 0.0239212
11 *32:7 0.0241322
12 *988:io_in[4] *988:io_in[5] 0
13 *32:9 *33:9 2.63815e-05
14 *32:9 *66:11 0.000402719
15 *32:9 *66:13 0.00765335
16 *32:9 *69:41 0.123113
17 *32:9 *70:37 0.00568304
18 *32:9 *72:32 0.00863021
19 *32:13 *70:33 0.0429621
20 *32:13 *104:29 0
21 *32:13 *656:65 0.0354421
22 *32:13 *660:18 0.0329696
23 *32:13 *662:23 0.00700449
24 *32:13 *663:31 0.00606707
25 *32:13 *664:31 0.014009
26 *32:17 *33:17 0.0617632
27 *32:17 *914:17 0.000705394
28 *32:17 *926:21 0.0251997
29 *32:17 *950:11 0
30 *32:27 *33:29 0.000291935
31 *32:27 *884:19 0.00290708
32 *32:27 *885:19 4.1352e-05
33 *32:27 *887:19 0.00166864
34 *32:27 *890:19 0.00032193
35 *32:37 *988:wbs_cyc_i 0.000748309
36 *32:37 *988:wbs_sel_i[0] 0.000730391
37 *32:37 *34:33 0.00180529
38 *32:37 *105:44 0.00309853
39 *32:37 *115:15 0.000736221
40 *32:37 *115:17 0.000505643
41 *32:37 *143:13 0.0282387
42 *32:37 *542:15 0.000794415
43 *32:37 *544:15 0.00224883
44 *32:37 *559:15 0.00450154
45 *32:37 *570:17 0.00213979
46 *32:37 *572:15 0.00215134
47 *32:37 *576:17 0.000843751
48 *32:37 *581:15 0.00535386
49 *32:37 *589:15 0.00461628
50 *32:37 *633:13 0.00260733
51 *32:37 *634:15 0.00259535
52 *32:37 *882:13 0.000939154
53 *32:37 *906:13 0.000505643
54 *32:37 *918:19 0.000393037
55 *32:37 *956:19 0.000170291
56 *32:39 *33:41 0.00685152
57 *32:39 *34:37 0.00700877
58 *32:39 *105:40 0
59 *32:39 *115:9 0.000102253
60 *988:io_in[3] *988:io_in[4] 0
61 *26:13 *32:13 0.0384412
62 *31:9 *32:9 0.112387
*RES
1 io_in[11] *32:7 8.50027 
2 *32:7 *32:9 1702.4 
3 *32:9 *32:11 8 
4 *32:11 *32:13 302.178 
5 *32:13 *32:15 8 
6 *32:15 *32:17 150.599 
7 *32:17 *32:27 23.1779 
8 *32:27 *32:37 45.6636 
9 *32:37 *32:39 92.4064 
10 *32:39 *988:io_in[4] 9.02293 
*END

*D_NET *33 1.24756
*CONN
*P io_in[12] I
*I *988:io_in[5] I *D soc_sys
*CAP
1 io_in[12] 9.32527e-05
2 *988:io_in[5] 0.000549647
3 *33:41 0.00203109
4 *33:39 0.00148144
5 *33:37 0.0265729
6 *33:35 0.0265901
7 *33:29 0.00205439
8 *33:27 0.00229103
9 *33:17 0.0176408
10 *33:15 0.017387
11 *33:13 0.0292999
12 *33:11 0.0292999
13 *33:9 0.0257043
14 *33:7 0.0257975
15 *988:io_in[5] *988:io_in[6] 3.06026e-05
16 *33:9 *34:13 0.00567575
17 *33:9 *66:11 0.000584186
18 *33:9 *66:13 0.0104426
19 *33:9 *69:41 4.15283e-06
20 *33:9 *70:37 0.144786
21 *33:9 *72:32 0.0132468
22 *33:9 *108:17 0.140455
23 *33:13 *35:13 0.162004
24 *33:13 *66:17 0.163462
25 *33:13 *104:29 0
26 *33:13 *734:13 0.00702452
27 *33:13 *739:13 0.00608442
28 *33:13 *791:21 0.00262137
29 *33:17 *948:9 0.00112938
30 *33:17 *953:9 0.00310908
31 *33:27 *890:19 0.000168544
32 *33:27 *948:19 0.000226911
33 *33:27 *951:23 0.000229212
34 *33:27 *979:13 0.000348943
35 *33:29 *35:29 0
36 *33:29 *37:29 0
37 *33:29 *115:25 0
38 *33:29 *893:13 0
39 *33:35 *933:21 2.33476e-05
40 *33:37 *37:37 0.120572
41 *33:37 *38:33 0.121443
42 *33:37 *66:25 3.41808e-05
43 *33:37 *118:13 7.45219e-05
44 *33:37 *884:19 0.000432445
45 *33:41 *34:37 0.000160509
46 *33:41 *115:9 0.0071826
47 *988:io_in[4] *988:io_in[5] 0
48 *31:9 *33:9 0
49 *31:17 *33:17 0.0602756
50 *32:9 *33:9 2.63815e-05
51 *32:17 *33:17 0.0617632
52 *32:27 *33:29 0.000291935
53 *32:39 *33:41 0.00685152
*RES
1 io_in[12] *33:7 8.24267 
2 *33:7 *33:9 1989.75 
3 *33:9 *33:11 8 
4 *33:11 *33:13 302.607 
5 *33:13 *33:15 8 
6 *33:15 *33:17 147.679 
7 *33:17 *33:27 34.8382 
8 *33:27 *33:29 38.2593 
9 *33:29 *33:35 23.3211 
10 *33:35 *33:37 232.669 
11 *33:37 *33:39 8 
12 *33:39 *33:41 93.1107 
13 *33:41 *988:io_in[5] 9.1088 
*END

*D_NET *34 0.953397
*CONN
*P io_in[13] I
*I *988:io_in[6] I *D soc_sys
*CAP
1 io_in[13] 0.000534754
2 *988:io_in[6] 0.000693906
3 *34:37 0.00232421
4 *34:35 0.0016303
5 *34:33 0.00254606
6 *34:25 0.0222345
7 *34:23 0.0196885
8 *34:21 0.0196076
9 *34:19 0.0196076
10 *34:17 0.0730758
11 *34:15 0.0730758
12 *34:13 0.0675398
13 *34:11 0.0680746
14 *988:io_in[6] *988:io_in[7] 0
15 *34:11 *72:32 0.00016546
16 *34:13 *66:11 0.000437651
17 *34:13 *66:13 0.0140184
18 *34:13 *72:32 0.0254142
19 *34:13 *105:56 0.102589
20 *34:13 *108:17 0.0197951
21 *34:17 *38:17 0.00267353
22 *34:17 *66:17 0.059523
23 *34:17 *734:13 0.0332922
24 *34:17 *746:13 0.000474847
25 *34:21 *35:17 0.00711419
26 *34:21 *37:25 0.0639147
27 *34:21 *887:9 0.0211786
28 *34:25 *35:29 0.0610802
29 *34:25 *36:25 0.00378839
30 *34:25 *36:29 0.104759
31 *34:25 *37:29 0.00321196
32 *34:25 *38:29 0.00101597
33 *34:25 *38:33 0.00023358
34 *34:25 *39:17 0.0192249
35 *34:25 *40:29 0
36 *34:25 *890:19 0.000102817
37 *34:33 *115:15 0.00244067
38 *34:33 *115:17 0.00406162
39 *34:33 *118:13 0.0100738
40 *34:33 *568:11 9.4361e-05
41 *34:37 *35:33 0.00724175
42 *34:37 *37:41 9.78523e-05
43 *34:37 *115:9 6.53406e-05
44 *988:io_in[5] *988:io_in[6] 3.06026e-05
45 *32:37 *34:33 0.00180529
46 *32:39 *34:37 0.00700877
47 *33:9 *34:13 0.00567575
48 *33:41 *34:37 0.000160509
*RES
1 io_in[13] *34:11 19.3395 
2 *34:11 *34:13 2254.8 
3 *34:13 *34:15 15 
4 *34:15 *34:17 1696.71 
5 *34:17 *34:19 15 
6 *34:19 *34:21 819.229 
7 *34:21 *34:23 15 
8 *34:23 *34:25 1211.23 
9 *34:25 *34:33 46.6739 
10 *34:33 *34:35 8 
11 *34:35 *34:37 98.0407 
12 *34:37 *988:io_in[6] 9.31787 
*END

*D_NET *35 1.22458
*CONN
*P io_in[14] I
*I *988:io_in[7] I *D soc_sys
*CAP
1 io_in[14] 0.00093648
2 *988:io_in[7] 0.000408739
3 *35:33 0.00207759
4 *35:31 0.00166885
5 *35:29 0.0430394
6 *35:27 0.0432492
7 *35:17 0.0398376
8 *35:15 0.0396278
9 *35:13 0.0311399
10 *35:11 0.0311399
11 *35:9 0.045658
12 *35:7 0.0465945
13 *988:io_in[7] *988:io_in[8] 0
14 *35:9 *107:37 0.0113682
15 *35:9 *110:26 0.0196143
16 *35:9 *111:41 0.200054
17 *35:9 *143:25 0.0970818
18 *35:13 *36:9 0.152789
19 *35:13 *66:17 0.000708772
20 *35:13 *104:29 0
21 *35:13 *734:13 0.000219701
22 *35:13 *739:13 0.000253646
23 *35:13 *746:13 0.0074151
24 *35:13 *747:13 0.006336
25 *35:13 *791:21 0.00262137
26 *35:13 *816:13 4.11979e-05
27 *35:17 *989:wbs_adr_i[11] 0
28 *35:17 *36:13 0.0617419
29 *35:17 *37:25 0.00527214
30 *35:17 *40:25 0.009864
31 *35:17 *70:29 0.00590846
32 *35:17 *111:33 0.0079663
33 *35:17 *883:11 0
34 *35:17 *887:9 0.00153119
35 *35:17 *924:13 0.00376986
36 *35:17 *944:21 0.00207731
37 *35:27 *36:23 0.000528929
38 *35:27 *890:19 0.000535526
39 *35:27 *949:9 3.87221e-06
40 *35:29 *36:29 0.00335098
41 *35:29 *37:29 0.00291958
42 *35:29 *39:17 0.0499894
43 *35:29 *890:19 0.000130115
44 *35:33 *37:41 0.00767445
45 *988:io_in[6] *988:io_in[7] 0
46 *33:13 *35:13 0.162004
47 *33:29 *35:29 0
48 *34:21 *35:17 0.00711419
49 *34:25 *35:29 0.0610802
50 *34:37 *35:33 0.00724175
*RES
1 io_in[14] *35:7 10.9904 
2 *35:7 *35:9 2539.8 
3 *35:9 *35:11 8 
4 *35:11 *35:13 302.435 
5 *35:13 *35:15 8 
6 *35:15 *35:17 147.933 
7 *35:17 *35:27 32.3645 
8 *35:27 *35:29 1311.28 
9 *35:29 *35:31 15 
10 *35:31 *35:33 99.6254 
11 *35:33 *988:io_in[7] 8.8512 
*END

*D_NET *36 0.91123
*CONN
*P io_in[15] I
*I *988:io_in[8] I *D soc_sys
*CAP
1 io_in[15] 0.11701
2 *988:io_in[8] 0.000119241
3 *36:33 0.00318298
4 *36:31 0.00306373
5 *36:29 0.0362068
6 *36:27 0.0362304
7 *36:25 0.00322517
8 *36:23 0.0034799
9 *36:13 0.0321104
10 *36:11 0.0318321
11 *36:9 0.0503212
12 *36:7 0.0503212
13 *36:5 0.11701
14 *988:io_in[8] *988:io_in[9] 0
15 *36:9 *37:21 0.0107605
16 *36:9 *38:17 0.0125298
17 *36:9 *104:29 0
18 *36:9 *741:13 0.00058987
19 *36:9 *791:21 0.00262137
20 *36:9 *816:13 0.0345122
21 *36:13 *961:13 0.00378144
22 *36:23 *890:19 3.88523e-05
23 *36:23 *949:9 1.05364e-05
24 *36:23 *979:13 0.000601133
25 *36:25 *38:29 0.00101348
26 *36:25 *40:29 0
27 *36:25 *66:25 0.000695314
28 *36:25 *979:13 0.00015022
29 *36:29 *40:29 0
30 *36:29 *42:29 0
31 *36:29 *43:25 0
32 *36:29 *44:25 0
33 *36:29 *66:25 0.0239145
34 *36:29 *113:29 0
35 *36:29 *541:19 0
36 *36:29 *608:27 0.000337335
37 *36:33 *988:io_in[20] 0.00059805
38 *36:33 *39:21 0.00800393
39 *988:io_in[7] *988:io_in[8] 0
40 *34:25 *36:25 0.00378839
41 *34:25 *36:29 0.104759
42 *35:13 *36:9 0.152789
43 *35:17 *36:13 0.0617419
44 *35:27 *36:23 0.000528929
45 *35:29 *36:29 0.00335098
*RES
1 io_in[15] *36:5 2709.46 
2 *36:5 *36:7 8 
3 *36:7 *36:9 282.944 
4 *36:9 *36:11 8 
5 *36:11 *36:13 147.933 
6 *36:13 *36:23 32.8884 
7 *36:23 *36:25 86.1404 
8 *36:25 *36:27 0.497143 
9 *36:27 *36:29 1222.42 
10 *36:29 *36:31 15 
11 *36:31 *36:33 102.795 
12 *36:33 *988:io_in[8] 8.336 
*END

*D_NET *37 1.01804
*CONN
*P io_in[16] I
*I *988:io_in[9] I *D soc_sys
*CAP
1 io_in[16] 0.00128859
2 *988:io_in[9] 0.000347348
3 *37:41 0.00227192
4 *37:39 0.00192457
5 *37:37 0.0300841
6 *37:35 0.0301695
7 *37:29 0.000902227
8 *37:27 0.000816878
9 *37:25 0.0110586
10 *37:23 0.0110586
11 *37:21 0.0126286
12 *37:19 0.0126286
13 *37:17 0.0737501
14 *37:15 0.0737501
15 *37:13 0.0178197
16 *37:11 0.0191083
17 *988:io_in[9] *988:io_in[10] 0
18 *37:13 io_out[17] 0.00348211
19 *37:13 *38:9 0.000361879
20 *37:13 *113:45 0.0421737
21 *37:13 *113:49 0.00213717
22 *37:17 *38:13 0.213339
23 *37:21 *38:17 0.0587635
24 *37:21 *777:13 0.0351956
25 *37:25 *40:25 1.9405e-05
26 *37:25 *70:29 0.0629488
27 *37:25 *111:33 0.000377095
28 *37:25 *887:9 8.30566e-06
29 *37:25 *924:13 0
30 *37:29 *39:17 0.000100139
31 *37:29 *890:19 0.000114879
32 *37:35 *911:15 0.000227043
33 *37:35 *955:9 0.000229143
34 *37:37 *115:17 0.0168912
35 *37:37 *118:13 0.0551074
36 *37:37 *581:15 0.00158481
37 *37:37 *882:13 0.00044599
38 *37:37 *884:19 0.00208226
39 *37:41 *38:37 0.00842362
40 *988:io_in[8] *988:io_in[9] 0
41 *33:29 *37:29 0
42 *33:37 *37:37 0.120572
43 *34:21 *37:25 0.0639147
44 *34:25 *37:29 0.00321196
45 *34:37 *37:41 9.78523e-05
46 *35:17 *37:25 0.00527214
47 *35:29 *37:29 0.00291958
48 *35:33 *37:41 0.00767445
49 *36:9 *37:21 0.0107605
*RES
1 io_in[16] *37:11 42.0839 
2 *37:11 *37:13 568.286 
3 *37:13 *37:15 15 
4 *37:15 *37:17 2709.18 
5 *37:17 *37:19 15 
6 *37:19 *37:21 642.847 
7 *37:21 *37:23 15 
8 *37:23 *37:25 821.694 
9 *37:25 *37:27 15 
10 *37:27 *37:29 35.8771 
11 *37:29 *37:35 26.1382 
12 *37:35 *37:37 230.522 
13 *37:37 *37:39 8 
14 *37:39 *37:41 110.718 
15 *37:41 *988:io_in[9] 8.76533 
*END

*D_NET *38 0.962425
*CONN
*P io_in[17] I
*I *988:io_in[10] I *D soc_sys
*CAP
1 io_in[17] 4.35597e-05
2 *988:io_in[10] 0.000286604
3 *38:37 0.00221124
4 *38:35 0.00192463
5 *38:33 0.0326897
6 *38:31 0.0326897
7 *38:29 0.000350395
8 *38:21 0.0119011
9 *38:19 0.0115507
10 *38:17 0.0118497
11 *38:15 0.0118497
12 *38:13 0.0737383
13 *38:11 0.0737383
14 *38:9 0.00759852
15 *38:7 0.00764208
16 *988:io_in[10] *988:io_in[11] 0
17 *38:9 io_out[17] 0.00448524
18 *38:9 *113:45 0.0228651
19 *38:17 *746:13 0.000795796
20 *38:17 *747:13 0.0344212
21 *38:17 *777:13 0.000737657
22 *38:17 *816:13 0.000251574
23 *38:21 *39:13 0.0637512
24 *38:21 *66:21 0.00525001
25 *38:21 *113:33 0.0615436
26 *38:21 *900:9 6.79627e-05
27 *38:29 *66:25 0.000100139
28 *38:29 *890:9 0.00011643
29 *38:29 *933:21 2.50873e-05
30 *38:33 *39:17 0.0595635
31 *38:33 *66:25 3.67617e-05
32 *38:33 *627:23 4.93993e-05
33 *38:33 *884:19 1.31877e-05
34 *38:33 *890:19 7.53071e-05
35 *38:37 *39:21 8.27396e-05
36 *38:37 *40:41 0.00833166
37 *988:io_in[9] *988:io_in[10] 0
38 *33:37 *38:33 0.121443
39 *34:17 *38:17 0.00267353
40 *34:25 *38:29 0.00101597
41 *34:25 *38:33 0.00023358
42 *36:9 *38:17 0.0125298
43 *36:25 *38:29 0.00101348
44 *37:13 *38:9 0.000361879
45 *37:17 *38:13 0.213339
46 *37:21 *38:17 0.0587635
47 *37:41 *38:37 0.00842362
*RES
1 io_in[17] *38:7 15.6007 
2 *38:7 *38:9 256.94 
3 *38:9 *38:11 15 
4 *38:11 *38:13 2708.83 
5 *38:13 *38:15 15 
6 *38:15 *38:17 657.616 
7 *38:17 *38:19 15 
8 *38:19 *38:21 820.638 
9 *38:21 *38:29 43.5368 
10 *38:29 *38:31 8 
11 *38:31 *38:33 232.325 
12 *38:33 *38:35 8 
13 *38:35 *38:37 113.535 
14 *38:37 *988:io_in[10] 8.67947 
*END

*D_NET *39 0.808874
*CONN
*P io_in[18] I
*I *988:io_in[11] I *D soc_sys
*CAP
1 io_in[18] 0.117213
2 *988:io_in[11] 0.000141411
3 *39:21 0.0025054
4 *39:19 0.00236399
5 *39:17 0.0337789
6 *39:15 0.0337789
7 *39:13 0.0215718
8 *39:11 0.0215718
9 *39:9 0.0176803
10 *39:7 0.0176803
11 *39:5 0.117213
12 *988:io_in[11] *988:io_in[12] 0
13 *39:9 *66:17 0.0560759
14 *39:9 *791:21 0.00272539
15 *39:9 *797:13 0
16 *39:9 *807:13 0.00975329
17 *39:9 *814:13 0.000427216
18 *39:13 *66:21 0.0133107
19 *39:13 *900:9 0
20 *39:13 *909:9 0.0122388
21 *39:17 *66:25 0.122272
22 *39:17 *627:23 4.62843e-05
23 *39:17 *890:19 0.00105553
24 *39:17 *979:13 3.13284e-05
25 *39:21 *988:io_in[20] 0.000490203
26 *39:21 *40:41 0.00423284
27 *988:io_in[10] *988:io_in[11] 0
28 *34:25 *39:17 0.0192249
29 *35:29 *39:17 0.0499894
30 *36:33 *39:21 0.00800393
31 *37:29 *39:17 0.000100139
32 *38:21 *39:13 0.0637512
33 *38:33 *39:17 0.0595635
34 *38:37 *39:21 8.27396e-05
*RES
1 io_in[18] *39:5 2712.28 
2 *39:5 *39:7 8 
3 *39:7 *39:9 104.384 
4 *39:9 *39:11 8 
5 *39:11 *39:13 818.525 
6 *39:13 *39:15 8 
7 *39:15 *39:17 233.957 
8 *39:17 *39:19 8 
9 *39:19 *39:21 116.352 
10 *39:21 *988:io_in[11] 8.42187 
*END

*D_NET *40 0.822271
*CONN
*P io_in[19] I
*I *988:io_in[12] I *D soc_sys
*CAP
1 io_in[19] 0.00872652
2 *988:io_in[12] 0.000224367
3 *40:41 0.00261594
4 *40:39 0.00337819
5 *40:29 0.0298839
6 *40:27 0.0288972
7 *40:25 0.0173164
8 *40:23 0.0173164
9 *40:21 0.0142631
10 *40:19 0.0142631
11 *40:17 0.130472
12 *40:15 0.139199
13 *988:io_in[12] *988:io_in[13] 0
14 *40:17 *984:RESET1 0.0016491
15 *40:17 *764:25 0.00265007
16 *40:17 *765:17 0.00264039
17 *40:17 *766:25 0.00372416
18 *40:17 *767:17 0.00264039
19 *40:17 *768:17 0.00336293
20 *40:17 *775:17 0.00267264
21 *40:17 *781:17 1.58513e-05
22 *40:17 *790:41 0.0298157
23 *40:17 *794:57 0.000292422
24 *40:17 *797:17 0.0257706
25 *40:21 *766:21 0.0375807
26 *40:21 *815:13 0
27 *40:25 *111:33 0.0613662
28 *40:25 *924:13 0.0252234
29 *40:25 *961:13 3.38806e-05
30 *40:29 *42:29 0.000555591
31 *40:29 *43:25 0.0463437
32 *40:29 *44:39 0.000286258
33 *40:29 *113:29 0.114647
34 *40:29 *541:19 0.00012774
35 *40:29 *541:27 0.00857366
36 *40:29 *631:13 0.00937599
37 *40:29 *638:15 0.00378069
38 *40:39 *988:io_in[20] 0.000667427
39 *40:39 *988:wb_rst_i 9.85586e-06
40 *40:39 *42:47 2.81192e-05
41 *40:39 *44:39 0.00336697
42 *40:39 *111:21 0.000913543
43 *40:39 *113:29 0.000170252
44 *40:39 *540:25 0.00110977
45 *988:io_in[11] *988:io_in[12] 0
46 *31:29 *40:29 0.00073935
47 *31:39 *40:39 0.00313258
48 *34:25 *40:29 0
49 *35:17 *40:25 0.009864
50 *36:25 *40:29 0
51 *36:29 *40:29 0
52 *37:25 *40:25 1.9405e-05
53 *38:37 *40:41 0.00833166
54 *39:21 *40:41 0.00423284
*RES
1 io_in[19] *40:15 47.5023 
2 *40:15 *40:17 494.081 
3 *40:17 *40:19 8 
4 *40:19 *40:21 69.8227 
5 *40:21 *40:23 8 
6 *40:23 *40:25 785.6 
7 *40:25 *40:27 15 
8 *40:27 *40:29 1270.78 
9 *40:29 *40:39 39.3627 
10 *40:39 *40:41 116.352 
11 *40:41 *988:io_in[12] 8.5936 
*END

*D_NET *42 0.653573
*CONN
*P io_in[20] I
*I *988:io_in[13] I *D soc_sys
*CAP
1 io_in[20] 9.90887e-05
2 *988:io_in[13] 0.0010786
3 *42:49 0.00281639
4 *42:47 0.00356544
5 *42:43 0.00236891
6 *42:29 0.0070362
7 *42:27 0.00676196
8 *42:17 0.186744
9 *42:15 0.186477
10 *42:13 0.0261303
11 *42:11 0.0262294
12 *988:io_in[13] *988:io_in[14] 0
13 *42:13 *81:28 0.0145495
14 *42:13 *118:21 0.0220767
15 *42:17 *867:17 0.0199686
16 *42:17 *871:17 0.0191659
17 *42:17 *876:9 0.000490193
18 *42:17 *876:13 0.00371512
19 *42:27 *541:27 0.000608876
20 *42:27 *579:15 3.87221e-06
21 *42:27 *626:13 0.000293527
22 *42:29 *988:wbs_adr_i[3] 0.00223661
23 *42:29 *988:wbs_stb_i 0.000182169
24 *42:29 *43:25 0.0443908
25 *42:29 *44:25 0.0440345
26 *42:29 *541:19 0.00155583
27 *42:29 *541:27 0.0014935
28 *42:29 *638:15 0.00264399
29 *42:29 *639:15 0.00170742
30 *42:43 *988:wbs_stb_i 0.000588903
31 *42:43 *43:35 0.00059563
32 *42:43 *69:25 0.000230636
33 *42:43 *608:23 4.07138e-06
34 *42:47 *988:io_in[20] 0.000711014
35 *42:47 *46:29 0
36 *42:47 *69:25 0.00227038
37 *42:47 *111:21 4.22794e-05
38 *42:47 *540:25 0.000907466
39 *42:49 *45:29 2.95125e-05
40 *42:49 *46:33 0.00881942
41 *42:49 *111:9 0.000675905
42 *42:49 *118:9 0.00456033
43 *42:49 *136:9 0.0015429
44 *42:49 *143:9 0
45 *988:io_in[12] *988:io_in[13] 0
46 *31:39 *42:47 0.00358626
47 *36:29 *42:29 0
48 *40:29 *42:29 0.000555591
49 *40:39 *42:47 2.81192e-05
*RES
1 io_in[20] *42:11 10.7239 
2 *42:11 *42:13 117.822 
3 *42:13 *42:15 8 
4 *42:15 *42:17 635.738 
5 *42:17 *42:27 32.4504 
6 *42:27 *42:29 497.06 
7 *42:29 *42:43 42.1975 
8 *42:43 *42:47 17.3725 
9 *42:47 *42:49 119.169 
10 *42:49 *988:io_in[13] 10.3109 
*END

*D_NET *43 0.599811
*CONN
*P io_in[21] I
*I *988:io_in[14] I *D soc_sys
*CAP
1 io_in[21] 0.000119599
2 *988:io_in[14] 0.000776563
3 *43:37 0.00242524
4 *43:35 0.00369601
5 *43:25 0.008748
6 *43:23 0.00691794
7 *43:13 0.197747
8 *43:11 0.19753
9 *43:9 0.0106597
10 *43:7 0.0107793
11 *988:io_in[14] *988:io_in[15] 0
12 *43:9 *81:28 0.000505907
13 *43:9 *118:21 0.0279497
14 *43:23 *541:27 0.000659671
15 *43:23 *626:13 0.000316139
16 *43:25 *541:27 0.00464704
17 *43:25 *638:15 0.00435656
18 *43:35 *988:wbs_stb_i 0.00118383
19 *43:35 *66:25 0.00596094
20 *43:35 *69:25 5.25168e-05
21 *43:35 *113:21 0.00209169
22 *43:35 *587:11 4.13527e-05
23 *43:35 *608:23 0.000954471
24 *43:37 *44:41 0.00990418
25 *43:37 *105:40 0.00724828
26 *43:37 *112:9 0.00143977
27 *43:37 *113:21 0.00176936
28 *43:37 *115:9 0
29 *988:io_in[13] *988:io_in[14] 0
30 *36:29 *43:25 0
31 *40:29 *43:25 0.0463437
32 *42:29 *43:25 0.0443908
33 *42:43 *43:35 0.00059563
*RES
1 io_in[21] *43:7 10.1854 
2 *43:7 *43:9 53.508 
3 *43:9 *43:11 8 
4 *43:11 *43:13 635.357 
5 *43:13 *43:23 32.5363 
6 *43:23 *43:25 507.541 
7 *43:25 *43:35 45.2537 
8 *43:35 *43:37 127.621 
9 *43:37 *988:io_in[14] 9.70987 
*END

*D_NET *44 0.497839
*CONN
*P io_in[22] I
*I *988:io_in[15] I *D soc_sys
*CAP
1 io_in[22] 0.000348423
2 *988:io_in[15] 0.000718173
3 *44:41 0.00272832
4 *44:39 0.00403052
5 *44:25 0.0158512
6 *44:23 0.0139325
7 *44:13 0.185258
8 *44:11 0.185505
9 *988:io_in[15] *988:io_in[16] 0
10 *988:io_in[15] *105:30 5.76856e-06
11 *44:11 *81:28 0.000189465
12 *44:13 *874:9 0.00530419
13 *44:23 *988:wbs_adr_i[12] 2.11505e-05
14 *44:23 *541:27 9.24631e-05
15 *44:23 *624:13 2.83822e-05
16 *44:25 *988:wbs_adr_i[3] 0.00257392
17 *44:25 *988:wbs_stb_i 0.000210316
18 *44:25 *541:27 0.00132117
19 *44:25 *638:15 0.00229014
20 *44:25 *639:15 0.00196296
21 *44:39 *988:io_in[20] 0.000794996
22 *44:39 *988:wbs_cyc_i 4.51797e-05
23 *44:39 *988:wbs_stb_i 0.00482945
24 *44:39 *111:21 0.00137696
25 *44:39 *113:21 0.00166731
26 *44:39 *113:29 0.000247776
27 *44:39 *540:25 0.000957919
28 *44:39 *541:27 0.000161701
29 *44:39 *587:25 9.51734e-05
30 *44:39 *619:21 5.10636e-05
31 *44:41 *69:9 0.00208022
32 *44:41 *105:32 0.00310463
33 *44:41 *112:9 0.000102251
34 *44:41 *113:21 0.00152272
35 *44:41 *115:9 0
36 *988:io_in[14] *988:io_in[15] 0
37 *988:io_in[3] *44:41 0.000838301
38 *36:29 *44:25 0
39 *40:29 *44:39 0.000286258
40 *40:39 *44:39 0.00336697
41 *42:29 *44:25 0.0440345
42 *43:37 *44:41 0.00990418
*RES
1 io_in[22] *44:11 19.8472 
2 *44:11 *44:13 635.23 
3 *44:13 *44:23 31.858 
4 *44:23 *44:25 471.809 
5 *44:25 *44:39 44.934 
6 *44:39 *44:41 130.438 
7 *44:41 *988:io_in[15] 9.624 
*END

*D_NET *45 0.61403
*CONN
*P io_in[23] I
*I *988:io_in[16] I *D soc_sys
*CAP
1 io_in[23] 0.00185912
2 *988:io_in[16] 0.000891625
3 *45:29 0.00266573
4 *45:27 0.00177411
5 *45:25 0.00955359
6 *45:23 0.00955359
7 *45:21 0.121119
8 *45:19 0.126254
9 *45:13 0.0526632
10 *45:11 0.0493871
11 *988:io_in[16] *988:io_in[17] 0
12 *988:io_in[16] *105:30 0.000282537
13 *45:11 io_out[23] 0.00257312
14 *45:11 *82:28 0.0108044
15 *45:11 *120:41 0.000486198
16 *45:11 *120:43 0.0073189
17 *45:13 *71:27 0.0164314
18 *45:13 *121:22 0.13678
19 *45:13 *670:13 0
20 *45:13 *670:15 0.00030974
21 *45:19 *107:33 0
22 *45:19 *109:18 0
23 *45:19 *110:22 0
24 *45:19 *655:14 0.00038255
25 *45:19 *656:19 0.0155355
26 *45:19 *670:19 0.00574892
27 *45:21 *141:14 0
28 *45:25 *46:29 0.0246768
29 *45:25 *69:25 0
30 *45:25 *540:25 0
31 *45:25 *587:25 0
32 *45:25 *619:21 0
33 *45:29 *46:33 0.00981257
34 *45:29 *98:21 0.00195899
35 *45:29 *105:24 6.43972e-05
36 *45:29 *143:9 0.00511231
37 *985:dft_curr_in *45:13 0
38 *988:io_in[15] *988:io_in[16] 0
39 *42:49 *45:29 2.95125e-05
*RES
1 io_in[23] *45:11 38.0766 
2 *45:11 *45:13 1745.36 
3 *45:13 *45:19 44.5208 
4 *45:19 *45:21 319.293 
5 *45:21 *45:23 8 
6 *45:23 *45:25 45.78 
7 *45:25 *45:27 8 
8 *45:27 *45:29 125.508 
9 *45:29 *988:io_in[16] 10.1392 
*END

*D_NET *46 0.71583
*CONN
*P io_in[24] I
*I *988:io_in[17] I *D soc_sys
*CAP
1 io_in[24] 0.0001396
2 *988:io_in[17] 0.000992403
3 *46:33 0.00253544
4 *46:31 0.00154303
5 *46:29 0.00609592
6 *46:27 0.00609592
7 *46:25 0.0277209
8 *46:23 0.0277209
9 *46:21 0.0128026
10 *46:19 0.0128026
11 *46:17 0.0206994
12 *46:15 0.0210939
13 *46:9 0.037991
14 *46:7 0.0377361
15 *46:9 io_oeb[27] 0.000325813
16 *46:9 io_out[25] 0.000325813
17 *46:9 io_out[26] 0.000325813
18 *46:9 io_out[29] 0.000325813
19 *46:9 *50:9 0.000325813
20 *46:9 *122:17 0.128335
21 *46:9 *123:21 0.107619
22 *46:17 *50:11 0.00791625
23 *46:17 *55:15 0.00476043
24 *46:17 *122:9 0.0727819
25 *46:17 *123:13 0.0677307
26 *46:17 *132:29 0.00632581
27 *46:21 *65:13 0.0270015
28 *46:21 *67:13 1.67025e-05
29 *46:25 *821:17 0.000295347
30 *46:29 *114:13 0.0289018
31 *46:33 *98:21 0.00172042
32 *46:33 *105:24 0.000173255
33 *46:33 *111:9 0.000692831
34 analog_io[20] *46:9 0.000325813
35 analog_io[22] *46:9 0.000325813
36 *988:io_in[16] *988:io_in[17] 0
37 *42:47 *46:29 0
38 *42:49 *46:33 0.00881942
39 *45:25 *46:29 0.0246768
40 *45:29 *46:33 0.00981257
*RES
1 io_in[24] *46:7 8.53573 
2 *46:7 *46:9 314.978 
3 *46:9 *46:15 16.9576 
4 *46:15 *46:17 1138.27 
5 *46:17 *46:19 8 
6 *46:19 *46:21 53.0787 
7 *46:21 *46:23 8 
8 *46:23 *46:25 95.5099 
9 *46:25 *46:27 8 
10 *46:27 *46:29 53.5939 
11 *46:29 *46:31 8 
12 *46:31 *46:33 129.029 
13 *46:33 *988:io_in[17] 10.2251 
*END

*D_NET *47 0.453522
*CONN
*P io_in[25] I
*I *988:io_in[18] I *D soc_sys
*CAP
1 io_in[25] 0.00530334
2 *988:io_in[18] 0.00947989
3 *47:23 0.0354144
4 *47:21 0.0275182
5 *47:15 0.133291
6 *47:13 0.13701
7 *988:io_in[18] *988:io_in[20] 0.000127617
8 *47:15 *82:24 0
9 *47:15 *86:26 0.0929626
10 *47:15 *120:35 0.00602343
11 *47:21 *108:13 0.000598378
12 *47:21 *671:13 9.39922e-05
13 *47:21 *693:13 0.00146945
14 *47:21 *715:29 0.000137382
15 *47:21 *844:15 0.000546273
16 *47:23 *72:24 0.00354666
*RES
1 io_in[25] *47:13 24.5928 
2 *47:13 *47:15 474.152 
3 *47:15 *47:21 22.9253 
4 *47:21 *47:23 69.8693 
5 *47:23 *988:io_in[18] 13.0271 
*END

*D_NET *48 0.525303
*CONN
*P io_in[26] I
*I *988:io_in[19] I *D soc_sys
*CAP
1 io_in[26] 0.00563657
2 *988:io_in[19] 0.000150351
3 *48:53 0.00320006
4 *48:51 0.0153291
5 *48:29 0.0201601
6 *48:15 0.0530608
7 *48:13 0.0508168
8 *48:15 *49:15 0.160266
9 *48:15 *71:27 0.00234619
10 *48:15 *82:24 0.181095
11 *48:29 *49:21 0.000942242
12 *48:29 *51:17 1.31537e-05
13 *48:29 *72:24 0.00218622
14 *48:29 *76:23 0.000344466
15 *48:51 io_out[36] 0
16 *48:51 *56:43 0.000145689
17 *48:51 *71:27 0.00149121
18 *48:51 *82:24 0.00106777
19 *48:51 *103:12 0.00250951
20 *48:51 *105:22 0.000136545
21 *48:51 *116:33 0.000389294
22 *48:51 *133:13 1.82523e-05
23 *48:51 *134:23 5.20709e-06
24 *48:53 *50:19 0.0123235
25 *48:53 *53:19 0.0116693
*RES
1 io_in[26] *48:13 25.6232 
2 *48:13 *48:15 427.948 
3 *48:15 *48:29 39.0569 
4 *48:29 *48:51 42.0107 
5 *48:51 *48:53 168.117 
6 *48:53 *988:io_in[19] 8.53387 
*END

*D_NET *49 0.491152
*CONN
*P io_in[27] I
*I *988:io_in[20] I *D soc_sys
*CAP
1 io_in[27] 0.00588393
2 *988:io_in[20] 0.0273246
3 *49:23 0.0540492
4 *49:21 0.0332774
5 *49:15 0.05491
6 *49:13 0.0542411
7 *988:io_in[20] *69:25 0.00051237
8 *988:io_in[20] *111:21 0.000155759
9 *988:io_in[20] *540:25 0.000976284
10 *988:io_in[20] *541:27 0.00366388
11 *988:io_in[20] *587:25 0.00128076
12 *988:io_in[20] *619:21 0.00185849
13 *988:io_in[20] *638:15 0.000369613
14 *49:15 *71:27 0.0603166
15 *49:15 *121:22 0.0174967
16 *49:15 *656:15 0.00242233
17 *49:15 *670:15 0.000882438
18 *49:21 *51:17 0.00630043
19 *49:21 *770:15 0
20 *988:io_in[18] *988:io_in[20] 0.000127617
21 *31:39 *988:io_in[20] 0.000632647
22 *36:33 *988:io_in[20] 0.00059805
23 *39:21 *988:io_in[20] 0.000490203
24 *40:39 *988:io_in[20] 0.000667427
25 *42:47 *988:io_in[20] 0.000711014
26 *44:39 *988:io_in[20] 0.000794996
27 *48:15 *49:15 0.160266
28 *48:29 *49:21 0.000942242
*RES
1 io_in[27] *49:13 25.7949 
2 *49:13 *49:15 378.825 
3 *49:15 *49:21 42.3312 
4 *49:21 *49:23 92.7173 
5 *49:23 *988:io_in[20] 42.5547 
*END

*D_NET *50 0.368943
*CONN
*P io_in[28] I
*I *988:io_in[21] I *D soc_sys
*CAP
1 io_in[28] 0.000575326
2 *988:io_in[21] 0.000121867
3 *50:19 0.017399
4 *50:17 0.0178792
5 *50:11 0.0363059
6 *50:9 0.0362791
7 *50:11 *53:11 0.0415657
8 *50:11 *55:13 0.00011471
9 *50:11 *122:9 0.0032413
10 *50:11 *124:17 0.025305
11 *50:11 *130:25 0.00841021
12 *50:19 io_out[35] 2.04774e-05
13 *50:19 *53:19 0.00151658
14 *50:19 *54:11 0.00861558
15 *50:19 *56:35 0.00513456
16 *50:19 *56:43 0.000381583
17 *50:19 *71:13 0.00221453
18 *50:19 *78:9 0.0694991
19 *50:19 *80:9 0.068339
20 *50:19 *116:13 0.00218338
21 *50:19 *129:11 0.00303298
22 *50:19 *129:27 0.000242068
23 *46:9 *50:9 0.000325813
24 *46:17 *50:11 0.00791625
25 *48:53 *50:19 0.0123235
*RES
1 io_in[28] *50:9 9.62213 
2 *50:9 *50:11 194.899 
3 *50:11 *50:17 17.2152 
4 *50:17 *50:19 1107.99 
5 *50:19 *988:io_in[21] 8.42187 
*END

*D_NET *51 0.326131
*CONN
*P io_in[29] I
*I *988:io_in[22] I *D soc_sys
*CAP
1 io_in[29] 0.00461066
2 *988:io_in[22] 0.0109469
3 *51:19 0.028617
4 *51:17 0.0215755
5 *51:11 0.0387972
6 *51:9 0.0395024
7 *51:11 *73:37 0.118995
8 *51:11 *88:12 0.0403911
9 *51:11 *800:19 0.0117056
10 *51:17 *770:15 0.000356479
11 *51:19 *75:14 0.00432003
12 *51:19 *121:14 0
13 *51:19 *129:29 0
14 *48:29 *51:17 1.31537e-05
15 *49:21 *51:17 0.00630043
*RES
1 io_in[29] *51:9 21.6061 
2 *51:9 *51:11 281.213 
3 *51:11 *51:17 32.0272 
4 *51:17 *51:19 64.9189 
5 *51:19 *988:io_in[22] 13.5856 
*END

*D_NET *53 0.281071
*CONN
*P io_in[30] I
*I *988:io_in[23] I *D soc_sys
*CAP
1 io_in[30] 0.000561713
2 *988:io_in[23] 0.000214609
3 *53:19 0.0166111
4 *53:17 0.0168123
5 *53:11 0.0389715
6 *53:9 0.0391174
7 *988:io_in[23] *988:io_in[24] 0
8 *53:11 *55:13 1.31066e-05
9 *53:11 *55:15 0.020446
10 *53:17 *56:17 2.79505e-05
11 *53:19 *54:19 0.0438549
12 *53:19 *71:13 0.00222067
13 *53:19 *80:9 0.0474677
14 *48:53 *53:19 0.0116693
15 *50:11 *53:11 0.0415657
16 *50:19 *53:19 0.00151658
*RES
1 io_in[30] *53:9 9.41307 
2 *53:9 *53:11 146.537 
3 *53:11 *53:17 16.8717 
4 *53:17 *53:19 831.202 
5 *53:19 *988:io_in[23] 8.5936 
*END

*D_NET *54 0.254423
*CONN
*P io_in[31] I
*I *988:io_in[24] I *D soc_sys
*CAP
1 io_in[31] 0.00112885
2 *988:io_in[24] 0.00026329
3 *54:19 0.0118532
4 *54:17 0.0117672
5 *54:11 0.0369677
6 *54:9 0.0379193
7 *988:io_in[24] *988:io_in[25] 0
8 *54:9 *91:17 0.000248617
9 *54:11 *78:9 0.0128797
10 *54:11 *127:25 0.0610495
11 *54:17 *56:33 0.000162824
12 *54:19 *55:23 0.00022284
13 *54:19 *65:17 0.0274891
14 *988:io_in[23] *988:io_in[24] 0
15 *50:19 *54:11 0.00861558
16 *53:19 *54:19 0.0438549
*RES
1 io_in[31] *54:9 10.6973 
2 *54:9 *54:11 144.379 
3 *54:11 *54:17 16.3565 
4 *54:17 *54:19 566.391 
5 *54:19 *988:io_in[24] 8.67947 
*END

*D_NET *55 0.198015
*CONN
*P io_in[32] I
*I *988:io_in[25] I *D soc_sys
*CAP
1 io_in[32] 0.000756942
2 *988:io_in[25] 0.000390904
3 *55:23 0.00564624
4 *55:21 0.00558615
5 *55:15 0.0201709
6 *55:13 0.020597
7 *988:io_in[25] *988:io_in[26] 5.84556e-06
8 *988:io_in[25] *126:25 0.00013851
9 *55:13 *91:17 0.000325813
10 *55:13 *130:25 0.000163669
11 *55:15 *56:17 0.00189824
12 *55:15 *56:33 0.0027339
13 *55:15 *57:11 0.0206571
14 *55:15 *122:9 0.00546237
15 *55:15 *130:25 0.0139757
16 *55:15 *132:29 0.0358918
17 *55:21 *58:13 2.66772e-05
18 *55:21 *98:11 0.000139539
19 *55:23 *65:17 2.31765e-05
20 *55:23 *67:17 0.0210529
21 *55:23 *69:9 0
22 *55:23 *73:9 0.000883618
23 *55:23 *74:9 0.00725834
24 *55:23 *115:9 3.26703e-05
25 *55:23 *122:9 0
26 *55:23 *126:9 0.00864043
27 *988:io_in[24] *988:io_in[25] 0
28 *46:17 *55:15 0.00476043
29 *50:11 *55:13 0.00011471
30 *53:11 *55:13 1.31066e-05
31 *53:11 *55:15 0.020446
32 *54:19 *55:23 0.00022284
*RES
1 io_in[32] *55:13 10.1149 
2 *55:13 *55:15 145.395 
3 *55:15 *55:21 16.7 
4 *55:21 *55:23 283.268 
5 *55:23 *988:io_in[25] 9.13867 
*END

*D_NET *56 0.147954
*CONN
*P io_in[33] I
*I *988:io_in[26] I *D soc_sys
*CAP
1 io_in[33] 0.00258282
2 *988:io_in[26] 0.000115685
3 *56:43 0.0107505
4 *56:35 0.0307072
5 *56:33 0.0223863
6 *56:23 0.0101837
7 *56:17 0.0104526
8 *988:io_in[26] *988:io_in[27] 0
9 *988:io_in[26] *126:25 8.84694e-06
10 *56:17 *91:17 0.000325813
11 *56:23 *85:17 0
12 *56:23 *87:31 0.015312
13 *56:35 io_oeb[34] 3.84343e-06
14 *56:35 io_out[35] 0.000852386
15 *56:35 *71:25 0.000145689
16 *56:35 *72:22 0.000150829
17 *56:35 *75:12 8.7779e-05
18 *56:35 *78:9 0.00509206
19 *56:35 *82:22 0.000178396
20 *56:35 *84:20 0.00024521
21 *56:35 *86:24 0.000158656
22 *56:35 *87:19 0.00108764
23 *56:35 *87:29 0.00167396
24 *56:35 *87:31 0.00145867
25 *56:35 *92:23 0.00137735
26 *56:35 *127:25 0.0172845
27 *56:43 *988:io_in[29] 0.00249183
28 *56:43 *73:35 0.000161754
29 *56:43 *105:22 0.000265763
30 *56:43 *110:16 0.000145609
31 *56:43 *116:13 0.000254389
32 *56:43 *116:33 0.000121472
33 *56:43 *119:16 6.6487e-05
34 *56:43 *120:25 0.000138553
35 *56:43 *121:12 2.72988e-05
36 *56:43 *126:25 3.57784e-05
37 *56:43 *129:11 0.000127194
38 *56:43 *134:23 0.00100441
39 *988:io_in[25] *988:io_in[26] 5.84556e-06
40 *48:51 *56:43 0.000145689
41 *50:19 *56:35 0.00513456
42 *50:19 *56:43 0.000381583
43 *53:17 *56:17 2.79505e-05
44 *54:17 *56:33 0.000162824
45 *55:15 *56:17 0.00189824
46 *55:15 *56:33 0.0027339
*RES
1 io_in[33] *56:17 31.7672 
2 *56:17 *56:23 45.8336 
3 *56:23 *56:33 31.616 
4 *56:33 *56:35 70.8848 
5 *56:35 *56:43 45.624 
6 *56:43 *988:io_in[26] 8.40507 
*END

*D_NET *57 0.10071
*CONN
*P io_in[34] I
*I *988:io_in[27] I *D soc_sys
*CAP
1 io_in[34] 0.000653273
2 *988:io_in[27] 0.0009687
3 *57:11 0.0281244
4 *57:9 0.027809
5 *988:io_in[27] *988:io_in[0] 2.39861e-05
6 *988:io_in[27] *988:io_in[28] 0.000390511
7 *988:io_in[27] *988:io_in[2] 0.000291415
8 *988:io_in[27] *126:25 0
9 *57:11 *58:15 0.0204548
10 *57:11 *69:9 0.00129966
11 *57:11 *113:21 2.34539e-05
12 *57:11 *132:29 1.38805e-05
13 *988:io_in[26] *988:io_in[27] 0
14 *55:15 *57:11 0.0206571
*RES
1 io_in[34] *57:9 9.41307 
2 *57:9 *57:11 98.0485 
3 *57:11 *988:io_in[27] 10.2307 
*END

*D_NET *58 0.0533142
*CONN
*P io_in[35] I
*I *988:io_in[28] I *D soc_sys
*CAP
1 io_in[35] 0.000638758
2 *988:io_in[28] 0.000701244
3 *58:15 0.00823815
4 *58:13 0.00817566
5 *988:io_in[28] *988:io_in[0] 2.43845e-05
6 *58:13 *97:7 0
7 *58:13 *98:11 0.000233091
8 *58:15 io_out[36] 9.18645e-05
9 *58:15 *76:23 4.69078e-05
10 *58:15 *96:21 0.0026179
11 *58:15 *104:15 0.000122862
12 *58:15 *113:9 0.000323777
13 *58:15 *113:21 0.000447204
14 *58:15 *122:9 0.0013207
15 *58:15 *123:9 0.000292422
16 *58:15 *127:9 0.000219695
17 *58:15 *132:27 0.00221579
18 *58:15 *132:29 0.00259368
19 *58:15 *136:9 0
20 *58:15 *142:15 0.00339188
21 *58:15 *142:25 0.000746225
22 *988:io_in[27] *988:io_in[28] 0.000390511
23 *55:21 *58:13 2.66772e-05
24 *57:11 *58:15 0.0204548
*RES
1 io_in[35] *58:13 9.48027 
2 *58:13 *58:15 48.7984 
3 *58:15 *988:io_in[28] 9.58107 
*END

*D_NET *59 0.0134319
*CONN
*P io_in[36] I
*I *988:io_in[29] I *D soc_sys
*CAP
1 io_in[36] 0.00429764
2 *988:io_in[29] 0.00429764
3 *988:io_in[29] *988:io_in[30] 5.41642e-06
4 *988:io_in[29] *73:35 0.000166904
5 *988:io_in[29] *109:12 0.000146761
6 *988:io_in[29] *110:16 0.000149334
7 *988:io_in[29] *116:13 2.20874e-05
8 *988:io_in[29] *118:7 0.00112812
9 *988:io_in[29] *119:16 0.000375806
10 *988:io_in[29] *136:9 0.000203612
11 *988:io_in[29] *141:12 0.000146761
12 *56:43 *988:io_in[29] 0.00249183
*RES
1 io_in[36] *988:io_in[29] 31.7173 
*END

*D_NET *60 0.0264856
*CONN
*P io_in[37] I
*I *988:io_in[30] I *D soc_sys
*CAP
1 io_in[37] 0.00595269
2 *988:io_in[30] 0.00595269
3 *988:io_in[30] io_out[36] 0.000338335
4 *988:io_in[30] *70:21 0.00234458
5 *988:io_in[30] *98:19 2.35465e-05
6 *988:io_in[30] *113:15 1.59731e-05
7 *988:io_in[30] *114:9 0.000127411
8 *988:io_in[30] *118:9 0.00109519
9 *988:io_in[30] *136:9 0.0106298
10 *988:io_in[29] *988:io_in[30] 5.41642e-06
*RES
1 io_in[37] *988:io_in[30] 44.2091 
*END

*D_NET *65 0.729586
*CONN
*P io_in[7] I
*I *988:io_in[0] I *D soc_sys
*CAP
1 io_in[7] 0.000436426
2 *988:io_in[0] 0.00385887
3 *65:17 0.00935744
4 *65:15 0.00549857
5 *65:13 0.108565
6 *65:11 0.108565
7 *65:9 0.0249956
8 *65:7 0.025432
9 *988:io_in[0] *988:io_in[1] 0.000328003
10 *988:io_in[0] *988:io_in[2] 0.00846024
11 *988:io_in[0] *105:32 0.000497264
12 *988:io_in[0] *113:21 0.00863345
13 *65:9 *104:33 0.0478829
14 *65:9 *142:33 0.0117242
15 *65:13 *67:13 0.283207
16 *65:13 *689:15 0
17 *65:17 *67:17 0.0273831
18 *988:io_in[27] *988:io_in[0] 2.39861e-05
19 *988:io_in[28] *988:io_in[0] 2.43845e-05
20 *988:io_in[3] *988:io_in[0] 0.00019843
21 *46:21 *65:13 0.0270015
22 *54:19 *65:17 0.0274891
23 *55:23 *65:17 2.31765e-05
*RES
1 io_in[7] *65:7 8.9296 
2 *65:7 *65:9 892.475 
3 *65:9 *65:11 8 
4 *65:11 *65:13 541.703 
5 *65:13 *65:15 8 
6 *65:15 *65:17 355.809 
7 *65:17 *988:io_in[0] 47.5275 
*END

*D_NET *66 1.00707
*CONN
*P io_in[8] I
*I *988:io_in[1] I *D soc_sys
*CAP
1 io_in[8] 0.00204397
2 *988:io_in[1] 0.00430646
3 *66:25 0.036526
4 *66:23 0.0322196
5 *66:21 0.0529986
6 *66:19 0.0529986
7 *66:17 0.0517088
8 *66:15 0.0517088
9 *66:13 0.0446746
10 *66:11 0.0467186
11 *988:io_in[1] *988:io_in[2] 0
12 *988:io_in[1] *69:9 0.000925156
13 *988:io_in[1] *98:21 8.1887e-06
14 *988:io_in[1] *113:21 0.000119604
15 *66:11 *67:9 0.000330096
16 *66:11 *69:41 0.000443385
17 *66:11 *70:37 0.00051609
18 *66:11 *105:56 0.000502135
19 *66:11 *108:17 0.000575835
20 *66:13 io_out[7] 0
21 *66:13 *69:41 0.00765335
22 *66:13 *70:37 0.00933713
23 *66:13 *105:56 0.0139605
24 *66:13 *108:17 0.0121752
25 *66:17 *734:13 0.000439253
26 *66:17 *739:13 0.000196487
27 *66:17 *791:21 0.00262137
28 *66:17 *807:13 8.08618e-06
29 *66:17 *816:13 0.000428647
30 *66:21 *113:33 0.00467408
31 *66:21 *909:9 0.00195888
32 *66:21 *940:13 0.00134138
33 *66:21 *977:9 0.0011697
34 *66:25 *988:wbs_adr_i[3] 0.00298092
35 *66:25 *988:wbs_dat_i[10] 4.93791e-05
36 *66:25 *118:13 0
37 *66:25 *541:27 0.00169824
38 *66:25 *608:23 0.00511953
39 *66:25 *622:23 9.18986e-06
40 *66:25 *624:13 0.042356
41 *66:25 *625:15 0.000884962
42 *66:25 *626:13 0.00197827
43 *66:25 *629:15 0.0105994
44 *66:25 *632:13 0.00304637
45 *66:25 *635:19 0.00255733
46 *66:25 *636:15 0.00325127
47 *66:25 *637:15 0.00151634
48 *66:25 *638:15 0.00139921
49 *66:25 *639:15 0.0017796
50 *66:25 *979:13 0.00185233
51 *988:io_in[0] *988:io_in[1] 0.000328003
52 *988:io_in[3] *988:io_in[1] 0.0051621
53 *31:9 *66:11 0.000330096
54 *32:9 *66:11 0.000402719
55 *32:9 *66:13 0.00765335
56 *33:9 *66:11 0.000584186
57 *33:9 *66:13 0.0104426
58 *33:13 *66:17 0.163462
59 *33:37 *66:25 3.41808e-05
60 *34:13 *66:11 0.000437651
61 *34:13 *66:13 0.0140184
62 *34:17 *66:17 0.059523
63 *35:13 *66:17 0.000708772
64 *36:25 *66:25 0.000695314
65 *36:29 *66:25 0.0239145
66 *38:21 *66:21 0.00525001
67 *38:29 *66:25 0.000100139
68 *38:33 *66:25 3.67617e-05
69 *39:9 *66:17 0.0560759
70 *39:13 *66:21 0.0133107
71 *39:17 *66:25 0.122272
72 *43:35 *66:25 0.00596094
*RES
1 io_in[8] *66:11 14.9235 
2 *66:11 *66:13 154.06 
3 *66:13 *66:15 8 
4 *66:15 *66:17 308.489 
5 *66:17 *66:19 8 
6 *66:19 *66:21 147.553 
7 *66:21 *66:23 8 
8 *66:23 *66:25 234.815 
9 *66:25 *988:io_in[1] 30.6664 
*END

*D_NET *67 0.8402
*CONN
*P io_in[9] I
*I *988:io_in[2] I *D soc_sys
*CAP
1 io_in[9] 0.000305408
2 *988:io_in[2] 0.00647649
3 *67:17 0.0122627
4 *67:15 0.00578622
5 *67:13 0.115334
6 *67:11 0.115334
7 *67:9 0.0228549
8 *67:7 0.0231603
9 *988:io_in[2] *69:9 0.00139929
10 *988:io_in[2] *112:9 0.000411008
11 *988:io_in[2] *113:21 2.34539e-05
12 *67:9 io_out[7] 0.000127201
13 *67:9 *104:33 0.00283413
14 *67:9 *108:17 0
15 *67:9 *142:33 0.0974164
16 *67:13 *74:13 0
17 *67:13 *142:29 0
18 *67:17 *74:9 0.00287731
19 *67:17 *122:9 0
20 *988:io_in[0] *988:io_in[2] 0.00846024
21 *988:io_in[1] *988:io_in[2] 0
22 *988:io_in[27] *988:io_in[2] 0.000291415
23 *988:io_in[3] *988:io_in[2] 0
24 *22:11 *67:9 0
25 *31:9 *67:9 0.0928551
26 *46:21 *67:13 1.67025e-05
27 *55:23 *67:17 0.0210529
28 *65:13 *67:13 0.283207
29 *65:17 *67:17 0.0273831
30 *66:11 *67:9 0.000330096
*RES
1 io_in[9] *67:7 8.672 
2 *67:7 *67:9 1443.23 
3 *67:9 *67:11 8 
4 *67:11 *67:13 542.046 
5 *67:13 *67:15 8 
6 *67:15 *67:17 354.401 
7 *67:17 *988:io_in[2] 45.6272 
*END

*D_NET *69 0.995427
*CONN
*P io_oeb[10] O
*I *988:io_oeb[3] O *D soc_sys
*CAP
1 io_oeb[10] 0.000181472
2 *988:io_oeb[3] 0.000716835
3 *69:41 0.0177786
4 *69:39 0.0175971
5 *69:37 0.0643635
6 *69:35 0.0643635
7 *69:33 0.030581
8 *69:31 0.030581
9 *69:29 0.0165872
10 *69:27 0.0165872
11 *69:25 0.00287097
12 *69:9 0.0114656
13 *69:7 0.00931149
14 *69:7 io_out[35] 4.62763e-05
15 *69:7 *70:15 0
16 *69:7 *129:27 1.0884e-05
17 *69:9 *73:9 0.000880424
18 *69:9 *73:17 0
19 *69:9 *105:32 0.00175034
20 *69:9 *107:9 0
21 *69:9 *112:9 0
22 *69:9 *113:9 0.00119146
23 *69:9 *115:9 0.0097541
24 *69:9 *122:9 0.000914806
25 *69:9 *126:9 0
26 *69:9 *127:9 0.00145913
27 *69:25 *988:wbs_stb_i 4.62763e-05
28 *69:29 *111:29 0.116246
29 *69:29 *540:25 0.0247875
30 *69:29 *540:33 0.000505934
31 *69:33 *898:9 0.0307814
32 *69:33 *912:9 0
33 *69:33 *951:9 0.00137492
34 *69:33 *953:17 0.00131346
35 *69:37 *70:33 0.0369187
36 *69:37 *660:18 0.0061163
37 *69:37 *661:23 0.0333853
38 *69:37 *663:31 2.1819e-05
39 *69:37 *744:13 0.0327088
40 *69:41 *70:37 0.123099
41 *69:41 *72:32 0.00549546
42 *988:io_in[1] *69:9 0.000925156
43 *988:io_in[20] *69:25 0.00051237
44 *988:io_in[2] *69:9 0.00139929
45 *988:io_in[3] *69:9 0.000434797
46 *26:13 *69:37 0.0142627
47 *31:17 *69:33 0.011725
48 *31:29 *69:29 0.117226
49 *32:9 *69:41 0.123113
50 *33:9 *69:41 4.15283e-06
51 *42:43 *69:25 0.000230636
52 *42:47 *69:25 0.00227038
53 *43:35 *69:25 5.25168e-05
54 *44:41 *69:9 0.00208022
55 *45:25 *69:25 0
56 *55:23 *69:9 0
57 *57:11 *69:9 0.00129966
58 *66:11 *69:41 0.000443385
59 *66:13 *69:41 0.00765335
*RES
1 *988:io_oeb[3] *69:7 9.3664 
2 *69:7 *69:9 337.498 
3 *69:9 *69:25 44.4379 
4 *69:25 *69:27 15 
5 *69:27 *69:29 1286.03 
6 *69:29 *69:31 15 
7 *69:31 *69:33 828.737 
8 *69:33 *69:35 15 
9 *69:35 *69:37 1680.03 
10 *69:37 *69:39 15 
11 *69:39 *69:41 1563.13 
12 *69:41 io_oeb[10] 8.4144 
*END

*D_NET *70 1.11886
*CONN
*P io_oeb[11] O
*I *988:io_oeb[4] O *D soc_sys
*CAP
1 io_oeb[11] 0.000130117
2 *988:io_oeb[4] 0.00207884
3 *70:37 0.0233451
4 *70:35 0.023215
5 *70:33 0.0502482
6 *70:31 0.0502482
7 *70:29 0.0118003
8 *70:27 0.0118003
9 *70:25 0.0471277
10 *70:23 0.0471277
11 *70:21 0.00355624
12 *70:19 0.00396056
13 *70:15 0.00248316
14 *70:15 io_oeb[35] 2.45333e-05
15 *70:15 *71:13 0
16 *70:15 *96:21 0.000381381
17 *70:15 *98:13 0.000249281
18 *70:15 *104:15 0.000169383
19 *70:15 *108:9 0.000149693
20 *70:15 *127:15 7.20213e-06
21 *70:15 *127:17 0.000277535
22 *70:15 *130:17 0.000135964
23 *70:19 io_oeb[35] 0.000127411
24 *70:19 *97:9 0.000237402
25 *70:19 *98:13 0
26 *70:19 *104:17 0.00178453
27 *70:19 *130:9 0.000177075
28 *70:19 *131:11 0.00194542
29 *70:19 *133:17 0.00010632
30 *70:21 io_out[36] 0.000105613
31 *70:21 *98:13 0.00124878
32 *70:21 *104:17 0.00241339
33 *70:21 *114:9 0.0179367
34 *70:21 *118:9 0.0189199
35 *70:21 *120:25 0.000589781
36 *70:21 *136:9 0.00152954
37 *70:25 *104:21 0.000159661
38 *70:25 *112:13 0.127519
39 *70:25 *923:19 0.00105391
40 *70:25 *946:19 0.000281876
41 *70:29 *111:33 0.0606953
42 *70:33 *112:48 0.0049134
43 *70:33 *649:14 4.66463e-05
44 *70:33 *660:18 0.0345132
45 *70:33 *661:23 0.000234223
46 *70:33 *744:13 0.00735004
47 *70:33 *752:21 0.000267886
48 *70:33 *817:13 0.0338882
49 *70:37 *72:32 0.00975772
50 *986:vgnd1 *70:33 9.78824e-05
51 *988:io_in[30] *70:21 0.00234458
52 *23:36 *70:33 0.00167371
53 *25:13 *70:33 0.0378259
54 *26:13 *70:33 0.0384412
55 *32:9 *70:37 0.00568304
56 *32:13 *70:33 0.0429621
57 *33:9 *70:37 0.144786
58 *35:17 *70:29 0.00590846
59 *37:25 *70:29 0.0629488
60 *66:11 *70:37 0.00051609
61 *66:13 *70:37 0.00933713
62 *69:7 *70:15 0
63 *69:37 *70:33 0.0369187
64 *69:41 *70:37 0.123099
*RES
1 *988:io_oeb[4] *70:15 29.9397 
2 *70:15 *70:19 30.3257 
3 *70:19 *70:21 286.106 
4 *70:21 *70:23 8 
5 *70:23 *70:25 238.851 
6 *70:25 *70:27 8 
7 *70:27 *70:29 818.525 
8 *70:29 *70:31 8 
9 *70:31 *70:33 305.312 
10 *70:33 *70:35 8 
11 *70:35 *70:37 1838.33 
12 *70:37 io_oeb[11] 8.32853 
*END

*D_NET *71 0.640524
*CONN
*P io_oeb[12] O
*I *988:io_oeb[5] O *D soc_sys
*CAP
1 io_oeb[12] 0.157496
2 *988:io_oeb[5] 0.000811778
3 *71:29 0.157496
4 *71:27 0.107049
5 *71:25 0.112916
6 *71:13 0.00667859
7 *71:13 *78:7 6.93256e-05
8 *71:25 io_out[35] 0.000136545
9 *71:25 *77:14 0.0011669
10 *71:25 *81:22 0.00272526
11 *71:27 *82:24 0
12 *71:27 *121:22 0.00804004
13 *71:27 *655:14 0.000773023
14 *45:13 *71:27 0.0164314
15 *48:15 *71:27 0.00234619
16 *48:51 *71:27 0.00149121
17 *49:15 *71:27 0.0603166
18 *50:19 *71:13 0.00221453
19 *53:19 *71:13 0.00222067
20 *56:35 *71:25 0.000145689
21 *70:15 *71:13 0
*RES
1 *988:io_oeb[5] *71:13 45.559 
2 *71:13 *71:25 12.5683 
3 *71:25 *71:27 461.839 
4 *71:27 *71:29 8 
5 *71:29 io_oeb[12] 526.562 
*END

*D_NET *72 0.731754
*CONN
*P io_oeb[13] O
*I *988:io_oeb[6] O *D soc_sys
*CAP
1 io_oeb[13] 0.000135388
2 *988:io_oeb[6] 0.0119425
3 *72:32 0.0749287
4 *72:30 0.0747933
5 *72:28 0.149663
6 *72:26 0.149663
7 *72:24 0.0710019
8 *72:22 0.0829444
9 *72:22 io_out[35] 0.000150829
10 *72:22 *75:12 0.00176566
11 *72:22 *81:24 1.80633e-06
12 *72:24 *759:9 0.0266097
13 *72:28 *76:29 0
14 *72:28 *77:20 0
15 *72:28 *119:22 0
16 *72:28 *121:20 0.00266619
17 *72:28 *656:19 0
18 *72:32 *105:56 0.00537749
19 *72:32 *108:17 0.0115164
20 *32:9 *72:32 0.00863021
21 *33:9 *72:32 0.0132468
22 *34:11 *72:32 0.00016546
23 *34:13 *72:32 0.0254142
24 *47:23 *72:24 0.00354666
25 *48:29 *72:24 0.00218622
26 *56:35 *72:22 0.000150829
27 *69:41 *72:32 0.00549546
28 *70:37 *72:32 0.00975772
*RES
1 *988:io_oeb[6] *72:22 22.5787 
2 *72:22 *72:24 250.242 
3 *72:24 *72:26 8 
4 *72:26 *72:28 520.923 
5 *72:28 *72:30 8 
6 *72:30 *72:32 257.858 
7 *72:32 io_oeb[13] 8.6104 
*END

*D_NET *73 0.773965
*CONN
*P io_oeb[14] O
*I *988:io_oeb[7] O *D soc_sys
*CAP
1 io_oeb[14] 0.158856
2 *988:io_oeb[7] 0.00171066
3 *73:39 0.158856
4 *73:37 0.108855
5 *73:35 0.113618
6 *73:17 0.00645553
7 *73:15 0.0019653
8 *73:9 0.00198356
9 *73:9 *74:7 0
10 *73:9 *122:9 0
11 *73:15 io_out[36] 0.000314146
12 *73:17 *107:9 0.00164236
13 *73:17 *122:9 0.000171819
14 *73:17 *123:9 0.00357679
15 *73:17 *124:9 0.00324499
16 *73:17 *142:15 0.0002754
17 *73:35 *110:16 0.00422555
18 *73:35 *112:7 0
19 *73:35 *113:7 0.000175646
20 *73:35 *114:7 0.000218535
21 *73:35 *119:16 0.000664943
22 *73:35 *121:12 0
23 *73:37 *81:24 0
24 *73:37 *82:22 0.000125662
25 *73:37 *84:22 0.0820567
26 *73:37 *86:24 0.000563149
27 *73:37 *88:12 0.00202561
28 *73:37 *782:13 0.00129517
29 *988:io_in[29] *73:35 0.000166904
30 *51:11 *73:37 0.118995
31 *55:23 *73:9 0.000883618
32 *56:43 *73:35 0.000161754
33 *69:9 *73:9 0.000880424
34 *69:9 *73:17 0
*RES
1 *988:io_oeb[7] *73:9 48.0754 
2 *73:9 *73:15 16.6571 
3 *73:15 *73:17 81.8421 
4 *73:17 *73:35 21.7689 
5 *73:35 *73:37 588.265 
6 *73:37 *73:39 8 
7 *73:39 io_oeb[14] 531.199 
*END

*D_NET *74 0.752482
*CONN
*P io_oeb[15] O
*I *988:io_oeb[8] O *D soc_sys
*CAP
1 io_oeb[15] 0.129476
2 *988:io_oeb[8] 0.000524963
3 *74:15 0.129476
4 *74:13 0.101118
5 *74:11 0.101118
6 *74:9 0.00328955
7 *74:7 0.00381452
8 *74:9 *76:9 0.0012929
9 *74:9 *85:9 0.00819746
10 *74:9 *89:9 7.50845e-05
11 *74:9 *122:9 0
12 *74:13 *142:29 0.263963
13 *55:23 *74:9 0.00725834
14 *67:13 *74:13 0
15 *67:17 *74:9 0.00287731
16 *73:9 *74:7 0
*RES
1 *988:io_oeb[8] *74:7 9.02293 
2 *74:7 *74:9 169.174 
3 *74:9 *74:11 8 
4 *74:11 *74:13 490.269 
5 *74:13 *74:15 8 
6 *74:15 io_oeb[15] 2996.1 
*END

*D_NET *75 0.640506
*CONN
*P io_oeb[16] O
*I *988:io_oeb[9] O *D soc_sys
*CAP
1 io_oeb[16] 0.0760075
2 *988:io_oeb[9] 0.0125265
3 *75:20 0.0760075
4 *75:18 0.0976152
5 *75:16 0.0976152
6 *75:14 0.0721101
7 *75:12 0.0846366
8 *75:12 io_out[35] 0.000101123
9 *75:14 *77:16 0
10 *75:14 *121:14 0
11 *75:14 *129:29 0
12 *75:18 *110:22 0
13 *75:18 *116:39 0.117713
14 *75:18 *846:15 0
15 *75:18 *851:23 0
16 *75:18 *857:13 0
17 *51:19 *75:14 0.00432003
18 *56:35 *75:12 8.7779e-05
19 *72:22 *75:12 0.00176566
*RES
1 *988:io_oeb[9] *75:12 13.5205 
2 *75:12 *75:14 252.78 
3 *75:14 *75:16 8 
4 *75:16 *75:18 401.44 
5 *75:18 *75:20 8 
6 *75:20 io_oeb[16] 1760.79 
*END

*D_NET *76 0.693933
*CONN
*P io_oeb[17] O
*I *988:io_oeb[10] O *D soc_sys
*CAP
1 io_oeb[17] 0.0753525
2 *988:io_oeb[10] 0.00174132
3 *76:31 0.0753525
4 *76:29 0.0590625
5 *76:27 0.0590625
6 *76:25 0.0525918
7 *76:23 0.0658484
8 *76:9 0.014998
9 *76:9 *85:9 6.3933e-05
10 *76:9 *122:9 0
11 *76:23 *82:22 0.000420658
12 *76:23 *84:20 0.00010037
13 *76:23 *86:24 0.0002583
14 *76:23 *88:10 0.0044656
15 *76:23 *93:12 0.000521726
16 *76:23 *96:21 0.000634876
17 *76:23 *123:13 0.000219042
18 *76:23 *124:9 0.000251191
19 *76:23 *125:13 0.000259525
20 *76:23 *132:27 0.00106449
21 *76:25 *107:29 0
22 *76:25 *119:18 0.0567172
23 *76:25 *797:9 0.00855745
24 *76:29 *77:20 0.150508
25 *76:29 *109:18 0
26 *76:29 *656:19 0.0494635
27 *76:29 *656:40 0.0147335
28 *76:29 *868:17 0
29 *48:29 *76:23 0.000344466
30 *58:15 *76:23 4.69078e-05
31 *72:28 *76:29 0
32 *74:9 *76:9 0.0012929
*RES
1 *988:io_oeb[10] *76:9 43.8497 
2 *76:9 *76:23 25.3016 
3 *76:23 *76:25 245.291 
4 *76:25 *76:27 8 
5 *76:27 *76:29 337.984 
6 *76:29 *76:31 8 
7 *76:31 io_oeb[17] 1746 
*END

*D_NET *77 0.643852
*CONN
*P io_oeb[18] O
*I *988:io_oeb[11] O *D soc_sys
*CAP
1 io_oeb[18] 0.075285
2 *988:io_oeb[11] 0.0122276
3 *77:22 0.075285
4 *77:20 0.0419409
5 *77:18 0.0419409
6 *77:16 0.057821
7 *77:14 0.0700486
8 *77:14 *81:22 0.00272526
9 *77:16 *119:18 0
10 *77:16 *129:29 0.038934
11 *77:16 *796:9 0.016994
12 *77:20 *119:22 0.0585297
13 *77:20 *656:19 0.000444594
14 *71:25 *77:14 0.0011669
15 *72:28 *77:20 0
16 *75:14 *77:16 0
17 *76:29 *77:20 0.150508
*RES
1 *988:io_oeb[11] *77:14 13.396 
2 *77:14 *77:16 253.034 
3 *77:16 *77:18 8 
4 *77:18 *77:20 278.908 
5 *77:20 *77:22 8 
6 *77:22 io_oeb[18] 1745.29 
*END

*D_NET *78 0.491686
*CONN
*P io_oeb[19] O
*I *988:io_oeb[12] O *D soc_sys
*CAP
1 io_oeb[19] 0.0872369
2 *988:io_oeb[12] 0.000122705
3 *78:15 0.0872369
4 *78:13 0.0700182
5 *78:11 0.0700182
6 *78:9 0.0320082
7 *78:7 0.0321309
8 *78:7 *80:7 0
9 *78:9 *80:9 0.00892449
10 *78:9 *87:19 0.000754673
11 *78:9 *92:23 0.000119988
12 *78:13 *141:18 0
13 *78:13 *824:21 0.0155743
14 *50:19 *78:9 0.0694991
15 *54:11 *78:9 0.0128797
16 *56:35 *78:9 0.00509206
17 *71:13 *78:7 6.93256e-05
*RES
1 *988:io_oeb[12] *78:7 8.36213 
2 *78:7 *78:9 1130.17 
3 *78:9 *78:11 8 
4 *78:11 *78:13 247.352 
5 *78:13 *78:15 8 
6 *78:15 io_oeb[19] 2017.85 
*END

*D_NET *80 0.518658
*CONN
*P io_oeb[20] O
*I *988:io_oeb[13] O *D soc_sys
*CAP
1 io_oeb[20] 0.0880716
2 *988:io_oeb[13] 0.000215842
3 *80:15 0.0880716
4 *80:13 0.0444596
5 *80:11 0.0444596
6 *80:9 0.0241539
7 *80:7 0.0243698
8 *80:7 io_out[35] 4.34626e-05
9 *80:13 *695:17 0.0364462
10 *80:13 *711:33 0.000281182
11 *80:13 *735:25 0.000394419
12 *80:13 *737:13 0.00696085
13 *80:13 *748:25 0
14 *80:13 *749:29 0.0359987
15 *50:19 *80:9 0.068339
16 *53:19 *80:9 0.0474677
17 *78:7 *80:7 0
18 *78:9 *80:9 0.00892449
*RES
1 *988:io_oeb[13] *80:7 8.53387 
2 *80:7 *80:9 1111.16 
3 *80:9 *80:11 8 
4 *80:11 *80:13 186.988 
5 *80:13 *80:15 8 
6 *80:15 io_oeb[20] 2032.64 
*END

*D_NET *81 0.456492
*CONN
*P io_oeb[21] O
*I *988:io_oeb[14] O *D soc_sys
*CAP
1 io_oeb[21] 8.77965e-05
2 *988:io_oeb[14] 0.00531864
3 *81:28 0.0226763
4 *81:26 0.0225885
5 *81:24 0.141481
6 *81:22 0.1468
7 *81:22 io_out[35] 0.00032266
8 *81:22 *82:22 0.00162431
9 *81:22 *126:27 0
10 *81:24 *82:22 0.000335276
11 *81:24 *88:12 0.0515825
12 *81:24 *811:17 0.00096807
13 *81:28 *82:28 0.0276298
14 *81:28 *118:21 0.0114206
15 *81:28 *120:41 8.3073e-05
16 *81:28 *120:43 0.00287635
17 *42:13 *81:28 0.0145495
18 *43:9 *81:28 0.000505907
19 *44:11 *81:28 0.000189465
20 *71:25 *81:22 0.00272526
21 *72:22 *81:24 1.80633e-06
22 *73:37 *81:24 0
23 *77:14 *81:22 0.00272526
*RES
1 *988:io_oeb[14] *81:22 19.227 
2 *81:22 *81:24 563.64 
3 *81:24 *81:26 8 
4 *81:26 *81:28 113.872 
5 *81:28 io_oeb[21] 9.87464 
*END

*D_NET *82 0.510142
*CONN
*P io_oeb[22] O
*I *988:io_oeb[15] O *D soc_sys
*CAP
1 io_oeb[22] 8.30691e-05
2 *988:io_oeb[15] 0.00704141
3 *82:28 0.00517992
4 *82:26 0.00509685
5 *82:24 0.092739
6 *82:22 0.0997804
7 *82:22 *88:10 0.000104046
8 *82:24 *86:26 0.066589
9 *82:24 *121:22 0.000528894
10 *82:24 *844:17 0.00076638
11 *82:28 io_out[23] 2.17681e-05
12 *82:28 *120:41 0.000124372
13 *82:28 *120:43 0.0088053
14 *45:11 *82:28 0.0108044
15 *47:15 *82:24 0
16 *48:15 *82:24 0.181095
17 *48:51 *82:24 0.00106777
18 *56:35 *82:22 0.000178396
19 *71:27 *82:24 0
20 *73:37 *82:22 0.000125662
21 *76:23 *82:22 0.000420658
22 *81:22 *82:22 0.00162431
23 *81:24 *82:22 0.000335276
24 *81:28 *82:28 0.0276298
*RES
1 *988:io_oeb[15] *82:22 17.4807 
2 *82:22 *82:24 560.974 
3 *82:24 *82:26 8 
4 *82:26 *82:28 50.932 
5 *82:28 io_oeb[22] 9.48107 
*END

*D_NET *83 0.339885
*CONN
*P io_oeb[23] O
*I *988:io_oeb[16] O *D soc_sys
*CAP
1 io_oeb[23] 0.000205619
2 *988:io_oeb[16] 0.00133
3 *83:17 0.157199
4 *83:15 0.159188
5 *83:9 0.00403556
6 *83:7 0.00317136
7 *83:7 *132:27 0
8 *83:9 *108:9 0
9 *83:9 *127:17 0.0026575
10 *83:9 *131:13 0.00356353
11 *83:9 *131:21 0.000816832
12 *83:9 *133:17 0.00477934
13 *83:15 *85:15 0.00053632
14 *83:15 *89:15 0.00240148
15 *83:15 *127:23 0
16 *83:17 *89:17 0
*RES
1 *988:io_oeb[16] *83:7 10.5685 
2 *83:7 *83:9 115.648 
3 *83:9 *83:15 23.2259 
4 *83:15 *83:17 543.077 
5 *83:17 io_oeb[23] 19.0744 
*END

*D_NET *84 0.378587
*CONN
*P io_oeb[24] O
*I *988:io_oeb[17] O *D soc_sys
*CAP
1 io_oeb[24] 0.00410482
2 *988:io_oeb[17] 0.00586337
3 *84:22 0.14073
4 *84:20 0.142489
5 *84:20 *86:24 0.000143024
6 *84:20 *87:19 0
7 *84:20 *92:23 0
8 *84:20 *93:12 0.00285492
9 *56:35 *84:20 0.00024521
10 *73:37 *84:22 0.0820567
11 *76:23 *84:20 0.00010037
*RES
1 *988:io_oeb[17] *84:20 18.7414 
2 *84:20 *84:22 514.263 
3 *84:22 io_oeb[24] 20.9192 
*END

*D_NET *85 0.290716
*CONN
*P io_oeb[25] O
*I *988:io_oeb[18] O *D soc_sys
*CAP
1 io_oeb[25] 0.00126085
2 *988:io_oeb[18] 0.000606333
3 *85:17 0.131225
4 *85:15 0.13075
5 *85:9 0.00258305
6 *85:7 0.00240412
7 *85:9 *89:9 0.00688757
8 *85:9 *122:9 0
9 *85:17 io_oeb[34] 0.00620147
10 *85:17 *87:31 0
11 *56:23 *85:17 0
12 *74:9 *85:9 0.00819746
13 *76:9 *85:9 6.3933e-05
14 *83:15 *85:15 0.00053632
*RES
1 *988:io_oeb[18] *85:7 9.1088 
2 *85:7 *85:9 105.788 
3 *85:9 *85:15 18.1597 
4 *85:15 *85:17 452.7 
5 *85:17 io_oeb[25] 11.8173 
*END

*D_NET *86 0.352133
*CONN
*P io_oeb[26] O
*I *988:io_oeb[19] O *D soc_sys
*CAP
1 io_oeb[26] 0.00545908
2 *988:io_oeb[19] 0.00686351
3 *86:26 0.0676462
4 *86:24 0.0690506
5 *86:24 *88:10 0.00398681
6 *86:26 *120:35 0.0314326
7 *86:26 *682:9 0.00701919
8 *47:15 *86:26 0.0929626
9 *56:35 *86:24 0.000158656
10 *73:37 *86:24 0.000563149
11 *76:23 *86:24 0.0002583
12 *82:24 *86:26 0.066589
13 *84:20 *86:24 0.000143024
*RES
1 *988:io_oeb[19] *86:24 18.1937 
2 *86:24 *86:26 417.667 
3 *86:26 io_oeb[26] 24.9363 
*END

*D_NET *87 0.293329
*CONN
*P io_oeb[27] O
*I *988:io_oeb[20] O *D soc_sys
*CAP
1 io_oeb[27] 0.00116425
2 *988:io_oeb[20] 0.00144127
3 *87:31 0.0765994
4 *87:29 0.0762941
5 *87:19 0.00230022
6 *87:19 *91:7 6.07327e-06
7 *87:19 *92:23 0.000340615
8 *87:29 io_oeb[34] 8.8581e-06
9 *87:29 *92:23 3.15418e-05
10 *87:29 *96:21 8.35126e-06
11 *87:29 *97:7 5.77181e-06
12 *87:31 io_oeb[34] 0
13 *87:31 *127:25 0.114515
14 *46:9 io_oeb[27] 0.000325813
15 *56:23 *87:31 0.015312
16 *56:35 *87:19 0.00108764
17 *56:35 *87:29 0.00167396
18 *56:35 *87:31 0.00145867
19 *78:9 *87:19 0.000754673
20 *84:20 *87:19 0
21 *85:17 *87:31 0
*RES
1 *988:io_oeb[20] *87:19 46.461 
2 *87:19 *87:29 20.2616 
3 *87:29 *87:31 362.253 
4 *87:31 io_oeb[27] 11.1677 
*END

*D_NET *88 0.233745
*CONN
*P io_oeb[28] O
*I *988:io_oeb[21] O *D soc_sys
*CAP
1 io_oeb[28] 0.00474436
2 *988:io_oeb[21] 0.00280722
3 *88:12 0.0569519
4 *88:10 0.0550147
5 *88:12 *800:19 0.00639734
6 *88:12 *855:9 0.00527335
7 *51:11 *88:12 0.0403911
8 *73:37 *88:12 0.00202561
9 *76:23 *88:10 0.0044656
10 *81:24 *88:12 0.0515825
11 *82:22 *88:10 0.000104046
12 *86:24 *88:10 0.00398681
*RES
1 *988:io_oeb[21] *88:10 11.1692 
2 *88:10 *88:12 323.355 
3 *88:12 io_oeb[28] 22.1213 
*END

*D_NET *89 0.17689
*CONN
*P io_oeb[29] O
*I *988:io_oeb[22] O *D soc_sys
*CAP
1 io_oeb[29] 0.0022869
2 *988:io_oeb[22] 0.000687668
3 *89:17 0.0790157
4 *89:15 0.0780703
5 *89:9 0.00405968
6 *89:7 0.00340583
7 *89:7 *91:7 0
8 *89:9 *122:9 0
9 *74:9 *89:9 7.50845e-05
10 *83:15 *89:15 0.00240148
11 *83:17 *89:17 0
12 *85:9 *89:9 0.00688757
*RES
1 *988:io_oeb[22] *89:7 9.19467 
2 *89:7 *89:9 90.9979 
3 *89:9 *89:15 20.6499 
4 *89:15 *89:17 257.858 
5 *89:17 io_oeb[29] 14.2216 
*END

*D_NET *91 0.227639
*CONN
*P io_oeb[30] O
*I *988:io_oeb[23] O *D soc_sys
*CAP
1 io_oeb[30] 4.0372e-05
2 *988:io_oeb[23] 0.00113528
3 *91:17 0.0160383
4 *91:15 0.0162341
5 *91:9 0.00835475
6 *91:7 0.00925389
7 *91:7 *92:23 0
8 *91:7 *96:21 1.90958e-05
9 *91:9 *94:9 0.00979968
10 *91:9 *96:21 0.000171422
11 *91:9 *125:13 0.0338658
12 *91:9 *130:17 0.018126
13 *91:9 *133:17 0
14 *91:15 io_oeb[33] 6.61914e-05
15 *91:17 io_oeb[33] 0.000325813
16 *91:17 io_out[31] 0.000325813
17 *91:17 io_out[33] 0.000248617
18 *91:17 *92:25 0.0414781
19 *91:17 *122:17 0.0159567
20 *91:17 *123:21 0.0208065
21 *91:17 *125:21 0.00828683
22 *91:17 *131:21 0.026199
23 *54:9 *91:17 0.000248617
24 *55:13 *91:17 0.000325813
25 *56:17 *91:17 0.000325813
26 *87:19 *91:7 6.07327e-06
27 *89:7 *91:7 0
*RES
1 *988:io_oeb[23] *91:7 10.0533 
2 *91:7 *91:9 430.464 
3 *91:9 *91:15 16.6141 
4 *91:15 *91:17 147.045 
5 *91:17 io_oeb[30] 8.15493 
*END

*D_NET *92 0.126709
*CONN
*P io_oeb[31] O
*I *988:io_oeb[24] O *D soc_sys
*CAP
1 io_oeb[31] 0.0001396
2 *988:io_oeb[24] 0.00185476
3 *92:25 0.0309122
4 *92:23 0.0326274
5 *92:23 io_oeb[34] 0.000249535
6 *92:23 *93:12 4.61152e-05
7 *92:23 *96:21 0.000236726
8 *92:23 *97:7 0.000319068
9 *92:25 *131:21 0.0169755
10 *56:35 *92:23 0.00137735
11 *78:9 *92:23 0.000119988
12 *84:20 *92:23 0
13 *87:19 *92:23 0.000340615
14 *87:29 *92:23 3.15418e-05
15 *91:7 *92:23 0
16 *91:17 *92:25 0.0414781
*RES
1 *988:io_oeb[24] *92:23 47.6408 
2 *92:23 *92:25 171.289 
3 *92:25 io_oeb[31] 8.53573 
*END

*D_NET *93 0.0888422
*CONN
*P io_oeb[32] O
*I *988:io_oeb[25] O *D soc_sys
*CAP
1 io_oeb[32] 0.00374828
2 *988:io_oeb[25] 0.0022411
3 *93:14 0.0404686
4 *93:12 0.0389614
5 *93:14 *126:27 0
6 *76:23 *93:12 0.000521726
7 *84:20 *93:12 0.00285492
8 *92:23 *93:12 4.61152e-05
*RES
1 *988:io_oeb[25] *93:12 10.8596 
2 *93:12 *93:14 125.593 
3 *93:14 io_oeb[32] 18.5149 
*END

*D_NET *94 0.085729
*CONN
*P io_oeb[33] O
*I *988:io_oeb[26] O *D soc_sys
*CAP
1 io_oeb[33] 0.000346723
2 *988:io_oeb[26] 0.00121246
3 *94:9 0.0103584
4 *94:7 0.0112241
5 *94:9 *96:21 0.000689076
6 *94:9 *108:9 0.00110644
7 *94:9 *125:13 0.00571781
8 *94:9 *130:17 0.00331574
9 *94:9 *130:25 0.0154488
10 *94:9 *131:21 0.0174153
11 *94:9 *132:29 0.00870248
12 *91:9 *94:9 0.00979968
13 *91:15 io_oeb[33] 6.61914e-05
14 *91:17 io_oeb[33] 0.000325813
*RES
1 *988:io_oeb[26] *94:7 10.0963 
2 *94:7 *94:9 75.8352 
3 *94:9 io_oeb[33] 9.10693 
*END

*D_NET *95 0.0238309
*CONN
*P io_oeb[34] O
*I *988:io_oeb[27] O *D soc_sys
*CAP
1 io_oeb[34] 0.0086836
2 *988:io_oeb[27] 0.0086836
3 *56:35 io_oeb[34] 3.84343e-06
4 *85:17 io_oeb[34] 0.00620147
5 *87:29 io_oeb[34] 8.8581e-06
6 *87:31 io_oeb[34] 0
7 *92:23 io_oeb[34] 0.000249535
*RES
1 *988:io_oeb[27] io_oeb[34] 48.4109 
*END

*D_NET *96 0.0286308
*CONN
*P io_oeb[35] O
*I *988:io_oeb[28] O *D soc_sys
*CAP
1 io_oeb[35] 0.00050905
2 *988:io_oeb[28] 0.00620117
3 *96:21 0.00671022
4 io_oeb[35] *104:15 0
5 io_oeb[35] *127:15 7.16484e-05
6 io_oeb[35] *131:11 0.000105613
7 io_oeb[35] *136:7 0.000273897
8 *96:21 *97:7 0
9 *96:21 *98:13 0.000401192
10 *96:21 *104:15 0.00056635
11 *96:21 *108:9 0.00111112
12 *96:21 *123:13 0.00102856
13 *96:21 *124:9 0.00117953
14 *96:21 *125:13 0.00105233
15 *96:21 *127:17 0.000356518
16 *96:21 *130:17 0.000648756
17 *96:21 *132:13 0.000746225
18 *96:21 *132:27 0.000839946
19 *96:21 *132:29 0.00191787
20 *58:15 *96:21 0.0026179
21 *70:15 io_oeb[35] 2.45333e-05
22 *70:15 *96:21 0.000381381
23 *70:19 io_oeb[35] 0.000127411
24 *76:23 *96:21 0.000634876
25 *87:29 *96:21 8.35126e-06
26 *91:7 *96:21 1.90958e-05
27 *91:9 *96:21 0.000171422
28 *92:23 *96:21 0.000236726
29 *94:9 *96:21 0.000689076
*RES
1 *988:io_oeb[28] *96:21 48.8509 
2 *96:21 io_oeb[35] 9.27867 
*END

*D_NET *97 0.0475529
*CONN
*P io_oeb[36] O
*I *988:io_oeb[29] O *D soc_sys
*CAP
1 io_oeb[36] 0.000288094
2 *988:io_oeb[29] 0.00136323
3 *97:9 0.0092409
4 *97:7 0.010316
5 io_oeb[36] *104:17 0.000211226
6 *97:7 *98:11 9.15497e-05
7 *97:9 *104:17 0.0156606
8 *97:9 *133:17 0.00981898
9 *58:13 *97:7 0
10 *70:19 *97:9 0.000237402
11 *87:29 *97:7 5.77181e-06
12 *92:23 *97:7 0.000319068
13 *96:21 *97:7 0
*RES
1 *988:io_oeb[29] *97:7 10.8261 
2 *97:7 *97:9 329.046 
3 *97:9 io_oeb[36] 8.63467 
*END

*D_NET *98 0.0959224
*CONN
*P io_oeb[37] O
*I *988:io_oeb[30] O *D soc_sys
*CAP
1 io_oeb[37] 0.00029853
2 *988:io_oeb[30] 0.00122869
3 *98:21 0.00896867
4 *98:19 0.00878538
5 *98:13 0.00368532
6 *98:11 0.00479877
7 *98:13 *105:24 0.000650546
8 *98:13 *108:9 0.0188572
9 *98:13 *111:9 0.00288895
10 *98:13 *118:9 0.00104597
11 *98:13 *127:17 0.0100224
12 *98:13 *130:9 0.000532416
13 *98:13 *131:21 0.000108097
14 *98:13 *133:13 0.00117415
15 *98:13 *136:9 0.00136739
16 *98:19 io_out[36] 4.93791e-05
17 *98:21 io_out[36] 6.99019e-05
18 *98:21 *105:24 0.000844204
19 *98:21 *111:21 0.00866529
20 *98:21 *113:21 0.00324063
21 *98:21 *136:9 0.00848767
22 *98:21 *143:9 0.00244768
23 *98:21 *540:11 0.00163059
24 *988:io_in[1] *98:21 8.1887e-06
25 *988:io_in[30] *98:19 2.35465e-05
26 *45:29 *98:21 0.00195899
27 *46:33 *98:21 0.00172042
28 *55:21 *98:11 0.000139539
29 *58:13 *98:11 0.000233091
30 *70:15 *98:13 0.000249281
31 *70:19 *98:13 0
32 *70:21 *98:13 0.00124878
33 *96:21 *98:13 0.000401192
34 *97:7 *98:11 9.15497e-05
*RES
1 *988:io_oeb[30] *98:11 10.5648 
2 *98:11 *98:13 264.252 
3 *98:13 *98:19 16.2707 
4 *98:19 *98:21 33.7336 
5 *98:21 io_oeb[37] 8.85307 
*END

*D_NET *103 0.492316
*CONN
*P io_oeb[7] O
*I *988:io_oeb[0] O *D soc_sys
*CAP
1 io_oeb[7] 0.148712
2 *988:io_oeb[0] 0.0197231
3 *103:16 0.148712
4 *103:14 0.0666771
5 *103:12 0.0864003
6 *103:12 *105:22 0.00013051
7 *103:12 *116:33 0.00320662
8 *103:12 *134:23 0.000183383
9 *103:14 *818:9 0.0045954
10 *103:14 *838:17 0.00102229
11 *103:14 *842:17 0.0104428
12 *48:51 *103:12 0.00250951
*RES
1 *988:io_oeb[0] *103:12 16.1176 
2 *103:12 *103:14 223.966 
3 *103:14 *103:16 8 
4 *103:16 io_oeb[7] 493.933 
*END

*D_NET *104 0.852684
*CONN
*P io_oeb[8] O
*I *988:io_oeb[1] O *D soc_sys
*CAP
1 io_oeb[8] 0.000380089
2 *988:io_oeb[1] 0.00223486
3 *104:33 0.0186411
4 *104:31 0.0182611
5 *104:29 0.0738147
6 *104:27 0.0738147
7 *104:25 0.0191745
8 *104:23 0.0191745
9 *104:21 0.0216103
10 *104:19 0.0216103
11 *104:17 0.00539497
12 *104:15 0.00762984
13 *104:15 io_out[36] 0.000109201
14 *104:15 *127:15 0
15 *104:15 *134:23 2.37336e-05
16 *104:15 *136:7 2.17882e-05
17 *104:15 *136:9 0.000163751
18 *104:17 *114:9 0.0180436
19 *104:21 *112:13 0.126041
20 *104:21 *114:13 0.126424
21 *104:25 *114:17 0.0133406
22 *104:25 *904:9 0.0349367
23 *104:25 *931:21 0.0303089
24 *104:25 *932:18 0.0029484
25 *104:29 *656:65 0.0120462
26 *104:29 *658:19 4.14138e-05
27 *104:29 *741:13 0.00690373
28 *104:29 *779:13 0.00688688
29 *104:29 *801:13 0.0378562
30 *104:33 io_out[7] 0.000341712
31 *104:33 *142:33 0.0749555
32 io_oeb[35] *104:15 0
33 io_oeb[36] *104:17 0.000211226
34 *13:14 *104:29 0.00774492
35 *32:13 *104:29 0
36 *33:13 *104:29 0
37 *35:13 *104:29 0
38 *36:9 *104:29 0
39 *58:15 *104:15 0.000122862
40 *65:9 *104:33 0.0478829
41 *67:9 *104:33 0.00283413
42 *70:15 *104:15 0.000169383
43 *70:19 *104:17 0.00178453
44 *70:21 *104:17 0.00241339
45 *70:25 *104:21 0.000159661
46 *96:21 *104:15 0.00056635
47 *97:9 *104:17 0.0156606
*RES
1 *988:io_oeb[1] *104:15 29.0101 
2 *104:15 *104:17 310.031 
3 *104:17 *104:19 8 
4 *104:19 *104:21 233.699 
5 *104:21 *104:23 8 
6 *104:23 *104:25 812.186 
7 *104:25 *104:27 8 
8 *104:27 *104:29 310.121 
9 *104:29 *104:31 8 
10 *104:31 *104:33 1020.66 
11 *104:33 io_oeb[8] 8.84373 
*END

*D_NET *105 0.819114
*CONN
*P io_oeb[9] O
*I *988:io_oeb[2] O *D soc_sys
*CAP
1 io_oeb[9] 4.44414e-05
2 *988:io_oeb[2] 0.00277514
3 *105:56 0.0457674
4 *105:54 0.0457229
5 *105:52 0.0507342
6 *105:50 0.0510132
7 *105:44 0.0591106
8 *105:42 0.0588315
9 *105:40 0.0016581
10 *105:38 0.00184351
11 *105:32 0.000880579
12 *105:30 0.000902862
13 *105:24 0.0034677
14 *105:22 0.00603514
15 *105:22 *129:27 6.17886e-05
16 *105:22 *131:7 0.000175929
17 *105:22 *132:11 0.000402898
18 *105:22 *134:23 0.000253989
19 *105:24 *107:9 0.00564665
20 *105:24 *108:9 0.00371235
21 *105:24 *111:9 0
22 *105:24 *112:9 0.000170999
23 *105:24 *124:9 2.093e-05
24 *105:24 *125:13 0.00176713
25 *105:24 *142:15 0.00126045
26 *105:24 *143:9 0.00570226
27 *105:32 *112:9 0
28 *105:40 *111:21 0.00110928
29 *105:40 *112:9 0.0062233
30 *105:40 *115:9 0
31 *105:40 *143:9 0.000826347
32 *105:40 *540:11 0
33 *105:44 *988:wbs_cyc_i 0.000430589
34 *105:44 *988:wbs_sel_i[0] 0.00291793
35 *105:44 *143:13 0
36 *105:44 *542:15 0
37 *105:44 *543:17 0
38 *105:44 *544:15 0.00814065
39 *105:44 *545:15 0
40 *105:44 *559:15 0.0152717
41 *105:44 *560:15 0
42 *105:44 *569:17 0.00188596
43 *105:44 *570:17 0.000697548
44 *105:44 *572:15 0.00144381
45 *105:44 *576:17 0.000346501
46 *105:44 *589:15 0.00054585
47 *105:44 *590:15 0
48 *105:44 *603:17 0
49 *105:44 *634:15 0
50 *105:44 *645:21 0
51 *105:44 *918:19 0.00456477
52 *105:44 *956:19 0.00382359
53 *105:50 *143:19 2.11157e-05
54 *105:50 *949:9 0.000199323
55 *105:52 *143:21 0.154029
56 *105:52 *884:21 0
57 *105:52 *909:17 0.000214439
58 *105:52 *914:9 0.00262071
59 *105:56 *108:17 0.125158
60 *988:io_in[0] *105:32 0.000497264
61 *988:io_in[15] *105:30 5.76856e-06
62 *988:io_in[16] *105:30 0.000282537
63 *32:37 *105:44 0.00309853
64 *32:39 *105:40 0
65 *34:13 *105:56 0.102589
66 *43:37 *105:40 0.00724828
67 *44:41 *105:32 0.00310463
68 *45:29 *105:24 6.43972e-05
69 *46:33 *105:24 0.000173255
70 *48:51 *105:22 0.000136545
71 *56:43 *105:22 0.000265763
72 *66:11 *105:56 0.000502135
73 *66:13 *105:56 0.0139605
74 *69:9 *105:32 0.00175034
75 *72:32 *105:56 0.00537749
76 *98:13 *105:24 0.000650546
77 *98:21 *105:24 0.000844204
78 *103:12 *105:22 0.00013051
*RES
1 *988:io_oeb[2] *105:22 32.7491 
2 *105:22 *105:24 171.991 
3 *105:24 *105:30 16.5712 
4 *105:30 *105:32 43.1064 
5 *105:32 *105:38 16.3136 
6 *105:38 *105:40 105.788 
7 *105:40 *105:42 8 
8 *105:42 *105:44 237.391 
9 *105:44 *105:50 28.9554 
10 *105:50 *105:52 1699.09 
11 *105:52 *105:54 15 
12 *105:54 *105:56 2128.32 
13 *105:56 io_oeb[9] 8.07093 
*END

*D_NET *107 0.924784
*CONN
*P io_out[10] O
*I *988:io_out[3] O *D soc_sys
*CAP
1 io_out[10] 0.000981778
2 *988:io_out[3] 0.00101116
3 *107:37 0.0166368
4 *107:35 0.015655
5 *107:33 0.0456297
6 *107:31 0.0456297
7 *107:29 0.0788314
8 *107:27 0.0909264
9 *107:9 0.0131695
10 *107:7 0.00208571
11 *107:7 *108:7 0
12 *107:7 *143:7 0
13 *107:9 *112:9 0.00166469
14 *107:9 *113:9 0
15 *107:9 *124:9 0.000342165
16 *107:9 *142:15 0.000679623
17 *107:27 *116:33 0.00551312
18 *107:27 *125:11 0.000839943
19 *107:27 *126:7 7.20008e-05
20 *107:29 *119:18 0
21 *107:29 *798:9 0.00855745
22 *107:33 *109:18 0.273211
23 *107:33 *110:22 0.275165
24 *107:37 *109:22 0.00783278
25 *107:37 *143:25 0.0216925
26 *35:9 *107:37 0.0113682
27 *45:19 *107:33 0
28 *69:9 *107:9 0
29 *73:17 *107:9 0.00164236
30 *76:25 *107:29 0
31 *105:24 *107:9 0.00564665
*RES
1 *988:io_out[3] *107:7 9.96747 
2 *107:7 *107:9 71.9821 
3 *107:9 *107:27 24.3829 
4 *107:27 *107:29 268.774 
5 *107:29 *107:31 8 
6 *107:31 *107:33 507.829 
7 *107:33 *107:35 8 
8 *107:35 *107:37 550.896 
9 *107:37 io_out[10] 10.8187 
*END

*D_NET *108 0.941027
*CONN
*P io_out[11] O
*I *988:io_out[4] O *D soc_sys
*CAP
1 io_out[11] 7.08778e-05
2 *988:io_out[4] 0.00115609
3 *108:17 0.0291357
4 *108:15 0.0290649
5 *108:13 0.108299
6 *108:11 0.108299
7 *108:9 0.00452472
8 *108:7 0.00568081
9 *108:9 io_out[36] 0.000127194
10 *108:9 *120:25 0.000328949
11 *108:9 *125:13 5.72163e-05
12 *108:9 *127:17 0.00210559
13 *108:9 *130:17 0.0158481
14 *108:9 *132:11 0.00159592
15 *108:9 *132:13 1.42186e-05
16 *108:9 *133:17 0
17 *108:13 *142:29 0.292424
18 *108:13 *646:18 0
19 *108:13 *671:13 0
20 *108:13 *671:29 0
21 *108:13 *672:15 0
22 *108:13 *676:15 0
23 *108:13 *678:15 4.59554e-06
24 *108:13 *680:15 0
25 *108:13 *693:13 0
26 *108:13 *698:15 4.59554e-06
27 *108:13 *711:25 8.09097e-05
28 *108:13 *715:43 0
29 *108:13 *716:35 0.00116501
30 *108:13 *716:39 0.000413001
31 *108:13 *720:17 0
32 *108:13 *723:23 0
33 *108:13 *728:17 0
34 *108:13 *756:15 1.21633e-05
35 *108:13 *757:15 4.59554e-06
36 *108:13 *766:15 0.00366938
37 *108:13 *792:29 0
38 *108:13 *794:27 0
39 *108:13 *800:15 0.000384837
40 *108:13 *805:35 0
41 *108:13 *821:15 7.7516e-05
42 *108:13 *824:13 0
43 *108:13 *828:23 5.77847e-05
44 *108:13 *829:23 0
45 *108:13 *837:15 1.21633e-05
46 *108:13 *839:15 0.000138316
47 *108:13 *843:15 0.000124691
48 *108:13 *844:15 0
49 *108:13 *848:15 0.000240405
50 *108:13 *851:15 0.000145412
51 *108:13 *856:15 0.000129962
52 *108:13 *860:15 0.000249539
53 *108:13 *863:15 0.000158409
54 *108:13 *866:23 0
55 *108:13 *872:15 1.21633e-05
56 *108:17 *142:33 0
57 *31:9 *108:17 0
58 *33:9 *108:17 0.140455
59 *34:13 *108:17 0.0197951
60 *47:21 *108:13 0.000598378
61 *66:11 *108:17 0.000575835
62 *66:13 *108:17 0.0121752
63 *67:9 *108:17 0
64 *70:15 *108:9 0.000149693
65 *72:32 *108:17 0.0115164
66 *83:9 *108:9 0
67 *94:9 *108:9 0.00110644
68 *96:21 *108:9 0.00111112
69 *98:13 *108:9 0.0188572
70 *105:24 *108:9 0.00371235
71 *105:56 *108:17 0.125158
72 *107:7 *108:7 0
*RES
1 *988:io_out[4] *108:7 10.2251 
2 *108:7 *108:9 315.665 
3 *108:9 *108:11 8 
4 *108:11 *108:13 543.935 
5 *108:13 *108:15 8 
6 *108:15 *108:17 2070.04 
7 *108:17 io_out[11] 8.1568 
*END

*D_NET *109 0.879183
*CONN
*P io_out[12] O
*I *988:io_out[5] O *D soc_sys
*CAP
1 io_out[12] 0.000959694
2 *988:io_out[5] 0.0154535
3 *109:22 0.039099
4 *109:20 0.0381393
5 *109:18 0.08641
6 *109:16 0.08641
7 *109:14 0.0823054
8 *109:12 0.0977589
9 *109:14 *803:9 0.00832612
10 *109:18 *985:finetune 0.00252255
11 *109:18 *656:19 0
12 *109:18 *836:17 0.00305925
13 *109:18 *853:15 0.017352
14 *109:18 *868:17 0.0317138
15 *109:22 *110:26 0.0840079
16 *109:22 *143:25 0.00447548
17 *988:io_in[29] *109:12 0.000146761
18 *45:19 *109:18 0
19 *76:29 *109:18 0
20 *107:33 *109:18 0.273211
21 *107:37 *109:22 0.00783278
*RES
1 *988:io_out[5] *109:12 14.4468 
2 *109:12 *109:14 280.959 
3 *109:14 *109:16 8 
4 *109:16 *109:18 503.922 
5 *109:18 *109:20 8 
6 *109:20 *109:22 198.326 
7 *109:22 io_out[12] 10.9475 
*END

*D_NET *110 0.929904
*CONN
*P io_out[13] O
*I *988:io_out[6] O *D soc_sys
*CAP
1 io_out[13] 0.00101265
2 *988:io_out[6] 0.00987397
3 *110:26 0.0538529
4 *110:24 0.0528402
5 *110:22 0.0972845
6 *110:20 0.0972845
7 *110:18 0.0777282
8 *110:16 0.0876022
9 *110:16 *119:16 0.000736028
10 *110:18 *121:14 0
11 *110:18 *791:13 0.0118115
12 *110:22 *985:trimCurr[5] 0.0115833
13 *110:22 *116:39 0
14 *110:22 *849:15 0
15 *110:22 *861:13 0
16 *110:26 *111:41 0.0449863
17 *988:io_in[29] *110:16 0.000149334
18 *35:9 *110:26 0.0196143
19 *45:19 *110:22 0
20 *56:43 *110:16 0.000145609
21 *73:35 *110:16 0.00422555
22 *75:18 *110:22 0
23 *107:33 *110:22 0.275165
24 *109:22 *110:26 0.0840079
*RES
1 *988:io_out[6] *110:16 13.7247 
2 *110:16 *110:18 278.802 
3 *110:18 *110:20 8 
4 *110:20 *110:22 514.054 
5 *110:22 *110:24 8 
6 *110:24 *110:26 248.211 
7 *110:26 io_out[13] 11.1192 
*END

*D_NET *111 1.02492
*CONN
*P io_out[14] O
*I *988:io_out[7] O *D soc_sys
*CAP
1 io_out[14] 0.000958855
2 *988:io_out[7] 0.00124709
3 *111:41 0.0739683
4 *111:39 0.0730095
5 *111:37 0.0690739
6 *111:35 0.0690739
7 *111:33 0.00993056
8 *111:31 0.00993056
9 *111:29 0.040376
10 *111:27 0.0405075
11 *111:21 0.00300472
12 *111:9 0.00504817
13 *111:7 0.003422
14 *111:7 *112:7 0
15 *111:9 *118:9 0.00899136
16 *111:9 *136:9 0.00179249
17 *111:21 *112:9 0.00164217
18 *111:21 *113:21 0.00868614
19 *111:29 *113:29 0.000566855
20 *111:29 *540:25 0.0212884
21 *111:37 *112:21 0.0137415
22 *111:37 *113:37 0.00966687
23 *111:37 *766:21 0.0132706
24 *111:37 *769:13 0.0350503
25 *111:41 *143:25 0.00121958
26 *988:io_in[20] *111:21 0.000155759
27 *31:29 *111:29 0.000485596
28 *31:39 *111:21 0.000215193
29 *31:39 *111:29 0.000539397
30 *35:9 *111:41 0.200054
31 *35:17 *111:33 0.0079663
32 *37:25 *111:33 0.000377095
33 *40:25 *111:33 0.0613662
34 *40:39 *111:21 0.000913543
35 *42:47 *111:21 4.22794e-05
36 *42:49 *111:9 0.000675905
37 *44:39 *111:21 0.00137696
38 *46:33 *111:9 0.000692831
39 *69:29 *111:29 0.116246
40 *70:29 *111:33 0.0606953
41 *98:13 *111:9 0.00288895
42 *98:21 *111:21 0.00866529
43 *105:24 *111:9 0
44 *105:40 *111:21 0.00110928
45 *110:26 *111:41 0.0449863
*RES
1 *988:io_out[7] *111:7 10.3968 
2 *111:7 *111:9 114.239 
3 *111:9 *111:21 47.912 
4 *111:21 *111:27 25.0818 
5 *111:27 *111:29 1305.56 
6 *111:29 *111:31 15 
7 *111:31 *111:33 785.424 
8 *111:33 *111:35 15 
9 *111:35 *111:37 1678.13 
10 *111:37 *111:39 15 
11 *111:39 *111:41 2637.87 
12 *111:41 io_out[14] 11.0763 
*END

*D_NET *112 0.990366
*CONN
*P io_out[15] O
*I *986:lpwr I *D CF_BUF_HIZ
*I *986:clk_chop I *D CF_BUF_HIZ
*I *986:rail I *D CF_BUF_HIZ
*I *986:rc I *D CF_BUF_HIZ
*I *988:io_out[8] O *D soc_sys
*CAP
1 io_out[15] 0.116329
2 *986:lpwr 0.000114469
3 *986:clk_chop 0.000165344
4 *986:rail 0.000111605
5 *986:rc 0.00152869
6 *988:io_out[8] 0.000946768
7 *112:50 0.116329
8 *112:48 0.015852
9 *112:46 0.015852
10 *112:23 0.00146796
11 *112:21 0.0315669
12 *112:19 0.0315669
13 *112:17 0.0157844
14 *112:15 0.0157844
15 *112:13 0.0218722
16 *112:11 0.0218722
17 *112:9 0.00385901
18 *112:7 0.00480577
19 *986:rc *986:gain[0] 0.00174881
20 *112:7 *113:7 0
21 *112:9 *113:9 0.00107993
22 *112:9 *113:21 0.000110915
23 *112:9 *142:15 0.000147273
24 *112:9 *143:9 0.0152924
25 *112:13 *114:13 4.76467e-05
26 *112:13 *946:19 0.00047768
27 *112:17 *113:33 0.0607503
28 *112:17 *900:9 0.0319485
29 *112:21 *113:37 0.013201
30 *112:21 *114:21 0.0644445
31 *112:21 *766:21 0.00115129
32 *112:21 *769:13 0.000118441
33 *112:21 *772:13 0.000130187
34 *112:21 *773:13 0.00682611
35 *112:21 *877:13 0.0368407
36 *988:io_in[2] *112:9 0.000411008
37 *23:36 *112:48 0.0360263
38 *24:13 *112:48 0.00207045
39 *25:13 *112:48 0.0182761
40 *43:37 *112:9 0.00143977
41 *44:41 *112:9 0.000102251
42 *69:9 *112:9 0
43 *70:25 *112:13 0.127519
44 *70:33 *112:48 0.0049134
45 *73:35 *112:7 0
46 *104:21 *112:13 0.126041
47 *105:24 *112:9 0.000170999
48 *105:32 *112:9 0
49 *105:40 *112:9 0.0062233
50 *107:9 *112:9 0.00166469
51 *111:7 *112:7 0
52 *111:21 *112:9 0.00164217
53 *111:37 *112:21 0.0137415
*RES
1 *988:io_out[8] *112:7 9.8816 
2 *112:7 *112:9 219.882 
3 *112:9 *112:11 8 
4 *112:11 *112:13 235.674 
5 *112:13 *112:15 8 
6 *112:15 *112:17 776.972 
7 *112:17 *112:19 8 
8 *112:19 *112:21 167.41 
9 *112:21 *112:23 8 
10 *112:23 *986:rc 43.7382 
11 *986:rc *986:rail 1.19107 
12 *986:rail *986:clk_chop 0.952857 
13 *986:clk_chop *986:lpwr 2.14393 
14 *986:lpwr *112:46 8 
15 *112:46 *112:48 102.495 
16 *112:48 *112:50 8 
17 *112:50 io_out[15] 2694.67 
*END

*D_NET *113 1.06531
*CONN
*P io_out[16] O
*I *988:io_out[9] O *D soc_sys
*CAP
1 io_out[16] 3.34202e-05
2 *988:io_out[9] 0.000791417
3 *113:49 0.00138546
4 *113:45 0.0103549
5 *113:43 0.00900284
6 *113:41 0.0746455
7 *113:39 0.0746455
8 *113:37 0.0138109
9 *113:35 0.0138109
10 *113:33 0.0101517
11 *113:31 0.0101517
12 *113:29 0.0167121
13 *113:27 0.0168576
14 *113:21 0.00491775
15 *113:15 0.00486234
16 *113:9 0.00115262
17 *113:7 0.00185397
18 *113:7 *114:7 0
19 *113:21 *988:wbs_stb_i 0.000152655
20 *113:27 *644:11 1.61501e-05
21 *113:29 *540:25 0.000182169
22 *113:29 *541:19 2.00768e-05
23 *113:29 *541:27 0.0242467
24 *113:29 *608:27 0
25 *113:33 *900:9 0.000378845
26 *113:37 *769:13 7.12002e-05
27 *113:37 *772:13 0.0362597
28 *113:37 *773:13 0.0363473
29 *113:37 *775:13 0.000382418
30 *113:41 *114:25 0.215658
31 *113:45 io_out[17] 0.00173276
32 *988:io_in[0] *113:21 0.00863345
33 *988:io_in[1] *113:21 0.000119604
34 *988:io_in[2] *113:21 2.34539e-05
35 *988:io_in[30] *113:15 1.59731e-05
36 *988:io_in[3] *113:21 0.00517263
37 *31:29 *113:29 0.115778
38 *36:29 *113:29 0
39 *37:13 *113:45 0.0421737
40 *37:13 *113:49 0.00213717
41 *38:9 *113:45 0.0228651
42 *38:21 *113:33 0.0615436
43 *40:29 *113:29 0.114647
44 *40:39 *113:29 0.000170252
45 *43:35 *113:21 0.00209169
46 *43:37 *113:21 0.00176936
47 *44:39 *113:21 0.00166731
48 *44:39 *113:29 0.000247776
49 *44:41 *113:21 0.00152272
50 *57:11 *113:21 2.34539e-05
51 *58:15 *113:9 0.000323777
52 *58:15 *113:21 0.000447204
53 *66:21 *113:33 0.00467408
54 *69:9 *113:9 0.00119146
55 *73:35 *113:7 0.000175646
56 *98:21 *113:21 0.00324063
57 *107:9 *113:9 0
58 *111:21 *113:21 0.00868614
59 *111:29 *113:29 0.000566855
60 *111:37 *113:37 0.00966687
61 *112:7 *113:7 0
62 *112:9 *113:9 0.00107993
63 *112:9 *113:21 0.000110915
64 *112:17 *113:33 0.0607503
65 *112:21 *113:37 0.013201
*RES
1 *988:io_out[9] *113:7 9.624 
2 *113:7 *113:9 45.2193 
3 *113:9 *113:15 16.1848 
4 *113:15 *113:21 46.7165 
5 *113:21 *113:27 25.4339 
6 *113:27 *113:29 1283.64 
7 *113:29 *113:31 15 
8 *113:31 *113:33 787.536 
9 *113:33 *113:35 15 
10 *113:35 *113:37 664.286 
11 *113:37 *113:39 15 
12 *113:39 *113:41 2738.76 
13 *113:41 *113:43 15 
14 *113:43 *113:45 460.613 
15 *113:45 *113:49 41.8532 
16 *113:49 io_out[16] 15.6007 
*END

*D_NET *114 0.945723
*CONN
*P io_out[17] O
*I *988:io_out[10] O *D soc_sys
*CAP
1 io_out[17] 0.00914277
2 *988:io_out[10] 0.00124801
3 *114:25 0.083759
4 *114:23 0.0746162
5 *114:21 0.0178466
6 *114:19 0.0178466
7 *114:17 0.0163861
8 *114:15 0.0163861
9 *114:13 0.039618
10 *114:11 0.039618
11 *114:9 0.00260311
12 *114:7 0.00385112
13 *114:7 *115:7 0
14 *114:9 io_out[36] 0.000127411
15 *114:9 *118:9 7.83907e-05
16 *114:13 *620:17 0
17 *114:13 *622:13 0
18 *114:13 *627:23 0
19 *114:13 *946:19 0.0035859
20 *114:13 *958:19 5.92908e-05
21 *114:17 *904:9 0.0349879
22 *114:17 *932:18 0.00142423
23 *114:17 *935:13 0.034334
24 *114:21 *669:19 0.00214607
25 *114:21 *773:13 0.000270413
26 *114:21 *774:13 0.00707203
27 *114:21 *775:13 0.00816298
28 *114:21 *783:13 0.0348338
29 *114:21 *788:13 0.000101624
30 *114:21 *877:13 0.000775033
31 *988:io_in[30] *114:9 0.000127411
32 *37:13 io_out[17] 0.00348211
33 *38:9 io_out[17] 0.00448524
34 *46:29 *114:13 0.0289018
35 *70:21 *114:9 0.0179367
36 *73:35 *114:7 0.000218535
37 *104:17 *114:9 0.0180436
38 *104:21 *114:13 0.126424
39 *104:25 *114:17 0.0133406
40 *112:13 *114:13 4.76467e-05
41 *112:21 *114:21 0.0644445
42 *113:7 *114:7 0
43 *113:41 *114:25 0.215658
44 *113:45 io_out[17] 0.00173276
*RES
1 *988:io_out[10] *114:7 10.6544 
2 *114:7 *114:9 229.742 
3 *114:9 *114:11 8 
4 *114:11 *114:13 233.785 
5 *114:13 *114:15 8 
6 *114:15 *114:17 779.085 
7 *114:17 *114:19 8 
8 *114:19 *114:21 122.244 
9 *114:21 *114:23 8 
10 *114:23 *114:25 2738.41 
11 *114:25 io_out[17] 48.5757 
*END

*D_NET *115 0.658403
*CONN
*P io_out[18] O
*I *988:io_out[11] O *D soc_sys
*CAP
1 io_out[18] 0.156708
2 *988:io_out[11] 0.000624618
3 *115:27 0.156708
4 *115:25 0.017048
5 *115:23 0.0173818
6 *115:17 0.0303685
7 *115:15 0.0307634
8 *115:9 0.00661033
9 *115:7 0.00650615
10 *115:7 *116:13 0
11 *115:9 *126:9 0.00263558
12 *115:15 *118:13 5.78193e-05
13 *115:15 *143:13 0.00115754
14 *115:17 *989:wbs_adr_i[11] 0.000188257
15 *115:17 *118:13 0.00253511
16 *115:17 *143:13 0.125115
17 *115:17 *581:15 0.0155427
18 *115:17 *633:13 0.00727393
19 *115:17 *882:13 0.00164194
20 *115:17 *906:13 0.0036506
21 *115:17 *909:17 0.000363838
22 *115:23 *893:9 0
23 *115:23 *920:13 0
24 *115:23 *944:21 0.000232202
25 *115:25 *989:wbs_adr_i[26] 0.000430648
26 *115:25 *989:wbs_adr_i[28] 0.000108552
27 *115:25 *989:wbs_stb_i 0.00218624
28 *115:25 *541:35 0
29 *115:25 *893:13 0.000333365
30 *115:25 *898:13 0.0304596
31 *115:25 *923:9 0
32 *115:25 *958:29 0
33 *31:29 *115:25 0
34 *32:37 *115:15 0.000736221
35 *32:37 *115:17 0.000505643
36 *32:39 *115:9 0.000102253
37 *33:29 *115:25 0
38 *33:41 *115:9 0.0071826
39 *34:33 *115:15 0.00244067
40 *34:33 *115:17 0.00406162
41 *34:37 *115:9 6.53406e-05
42 *37:37 *115:17 0.0168912
43 *43:37 *115:9 0
44 *44:41 *115:9 0
45 *55:23 *115:9 3.26703e-05
46 *69:9 *115:9 0.0097541
47 *105:40 *115:9 0
48 *114:7 *115:7 0
*RES
1 *988:io_out[11] *115:7 9.19467 
2 *115:7 *115:9 252.279 
3 *115:9 *115:15 13.0045 
4 *115:15 *115:17 233.227 
5 *115:17 *115:23 30.0118 
6 *115:23 *115:25 477.05 
7 *115:25 *115:27 15 
8 *115:27 io_out[18] 3529.42 
*END

*D_NET *116 0.572844
*CONN
*P io_out[19] O
*I *988:io_out[12] O *D soc_sys
*CAP
1 io_out[19] 0.076001
2 *988:io_out[12] 0.000978728
3 *116:41 0.076001
4 *116:39 0.0422998
5 *116:37 0.0422998
6 *116:35 0.076702
7 *116:33 0.091861
8 *116:13 0.0161377
9 *116:13 *118:7 5.14663e-06
10 *116:13 *123:7 1.84005e-05
11 *116:13 *124:7 4.38033e-05
12 *116:35 *806:9 0.00246038
13 *116:39 *861:13 0.0186323
14 *988:io_in[29] *116:13 2.20874e-05
15 *48:51 *116:33 0.000389294
16 *50:19 *116:13 0.00218338
17 *56:43 *116:13 0.000254389
18 *56:43 *116:33 0.000121472
19 *75:18 *116:39 0.117713
20 *103:12 *116:33 0.00320662
21 *107:27 *116:33 0.00551312
22 *110:22 *116:39 0
23 *115:7 *116:13 0
*RES
1 *988:io_out[12] *116:13 44.5112 
2 *116:13 *116:33 24.0994 
3 *116:33 *116:35 261.158 
4 *116:35 *116:37 8 
5 *116:37 *116:39 224.554 
6 *116:39 *116:41 8 
7 *116:41 io_out[19] 1760.08 
*END

*D_NET *118 0.659403
*CONN
*P io_out[20] O
*I *988:io_out[13] O *D soc_sys
*CAP
1 io_out[20] 7.73892e-05
2 *988:io_out[13] 0.000968498
3 *118:21 0.014985
4 *118:19 0.0149077
5 *118:17 0.180413
6 *118:15 0.180413
7 *118:13 0.0121085
8 *118:11 0.0121085
9 *118:9 0.00371276
10 *118:7 0.00468126
11 *118:9 *136:9 0.00311542
12 *118:9 *143:9 0
13 *118:13 *143:13 0.000114304
14 *118:13 *581:15 0.0261399
15 *118:13 *633:13 0.0135895
16 *118:17 *676:17 0.00927735
17 *118:17 *678:17 0.0176697
18 *988:io_in[29] *118:7 0.00112812
19 *988:io_in[30] *118:9 0.00109519
20 *33:37 *118:13 7.45219e-05
21 *34:33 *118:13 0.0100738
22 *37:37 *118:13 0.0551074
23 *42:13 *118:21 0.0220767
24 *42:49 *118:9 0.00456033
25 *43:9 *118:21 0.0279497
26 *66:25 *118:13 0
27 *70:21 *118:9 0.0189199
28 *81:28 *118:21 0.0114206
29 *98:13 *118:9 0.00104597
30 *111:9 *118:9 0.00899136
31 *114:9 *118:9 7.83907e-05
32 *115:15 *118:13 5.78193e-05
33 *115:17 *118:13 0.00253511
34 *116:13 *118:7 5.14663e-06
*RES
1 *988:io_out[13] *118:7 10.4827 
2 *118:7 *118:9 259.322 
3 *118:9 *118:11 8 
4 *118:11 *118:13 107.089 
5 *118:13 *118:15 8 
6 *118:15 *118:17 636.754 
7 *118:17 *118:19 8 
8 *118:19 *118:21 97.0424 
9 *118:21 io_out[20] 9.48107 
*END

*D_NET *119 0.456982
*CONN
*P io_out[21] O
*I *988:io_out[14] O *D soc_sys
*CAP
1 io_out[21] 0.0753044
2 *988:io_out[14] 0.0110345
3 *119:24 0.0753044
4 *119:22 0.0213182
5 *119:20 0.0213182
6 *119:18 0.0621125
7 *119:16 0.073147
8 *119:16 *121:12 0.000159895
9 *119:18 *129:29 0
10 *119:22 *985:mux2sel 0.000193077
11 *988:io_in[29] *119:16 0.000375806
12 *56:43 *119:16 6.6487e-05
13 *72:28 *119:22 0
14 *73:35 *119:16 0.000664943
15 *76:25 *119:18 0.0567172
16 *77:16 *119:18 0
17 *77:20 *119:22 0.0585297
18 *107:29 *119:18 0
19 *110:16 *119:16 0.000736028
*RES
1 *988:io_out[14] *119:16 16.2703 
2 *119:16 *119:18 277.278 
3 *119:18 *119:20 8 
4 *119:20 *119:22 111.21 
5 *119:22 *119:24 8 
6 *119:24 io_out[21] 1744.59 
*END

*D_NET *120 0.452163
*CONN
*P io_out[22] O
*I *988:io_out[15] O *D soc_sys
*CAP
1 io_out[22] 0.000145541
2 *988:io_out[15] 0.0113805
3 *120:43 0.0126286
4 *120:41 0.0142313
5 *120:35 0.0765277
6 *120:33 0.0760271
7 *120:27 0.080515
8 *120:25 0.090648
9 *120:25 *129:11 2.33582e-05
10 *120:25 *130:9 0.000516183
11 *120:25 *136:9 0.0027792
12 *120:27 *655:18 0.0126915
13 *120:27 *715:29 5.25021e-05
14 *120:27 *726:9 0.0128474
15 *120:33 *121:20 0.000325022
16 *120:41 io_out[23] 0.00261624
17 *45:11 *120:41 0.000486198
18 *45:11 *120:43 0.0073189
19 *47:15 *120:35 0.00602343
20 *56:43 *120:25 0.000138553
21 *70:21 *120:25 0.000589781
22 *81:28 *120:41 8.3073e-05
23 *81:28 *120:43 0.00287635
24 *82:28 *120:41 0.000124372
25 *82:28 *120:43 0.0088053
26 *86:26 *120:35 0.0314326
27 *108:9 *120:25 0.000328949
*RES
1 *988:io_out[15] *120:25 40.6053 
2 *120:25 *120:27 268.647 
3 *120:27 *120:33 20.0488 
4 *120:33 *120:35 1732.69 
5 *120:35 *120:41 16.0099 
6 *120:41 *120:43 58.8317 
7 *120:43 io_out[22] 10.8896 
*END

*D_NET *121 0.461587
*CONN
*P io_out[23] O
*I *988:io_out[16] O *D soc_sys
*CAP
1 io_out[23] 0.000671085
2 *988:io_out[16] 0.0106942
3 *121:22 0.046586
4 *121:20 0.0483123
5 *121:14 0.0833764
6 *121:12 0.0916732
7 *121:14 *791:13 0
8 *121:14 *793:9 0.00288956
9 *121:22 *656:15 0.000248381
10 *121:22 *670:15 0.00590032
11 *45:11 io_out[23] 0.00257312
12 *45:13 *121:22 0.13678
13 *49:15 *121:22 0.0174967
14 *51:19 *121:14 0
15 *56:43 *121:12 2.72988e-05
16 *71:27 *121:22 0.00804004
17 *72:28 *121:20 0.00266619
18 *73:35 *121:12 0
19 *75:14 *121:14 0
20 *82:24 *121:22 0.000528894
21 *82:28 io_out[23] 2.17681e-05
22 *110:18 *121:14 0
23 *119:16 *121:12 0.000159895
24 *120:33 *121:20 0.000325022
25 *120:41 io_out[23] 0.00261624
*RES
1 *988:io_out[16] *121:12 13.0416 
2 *121:12 *121:14 274.486 
3 *121:14 *121:20 26.9181 
4 *121:20 *121:22 1736.21 
5 *121:22 io_out[23] 23.7542 
*END

*D_NET *122 0.442364
*CONN
*P io_out[24] O
*I *988:io_out[17] O *D soc_sys
*CAP
1 io_out[24] 0.0001396
2 *988:io_out[17] 0.000853727
3 *122:17 0.0585895
4 *122:15 0.0589908
5 *122:9 0.0324323
6 *122:7 0.0327451
7 *122:7 *123:7 0
8 *122:9 *123:9 0.00390178
9 *122:9 *123:13 0.000346765
10 *122:9 *127:9 0.00285659
11 *122:9 *132:27 0.000120999
12 *122:9 *132:29 0.00675772
13 *122:9 *142:25 0.0161998
14 *122:15 io_out[31] 4.56068e-05
15 *122:17 *123:21 0.000199128
16 *46:9 *122:17 0.128335
17 *46:17 *122:9 0.0727819
18 *50:11 *122:9 0.0032413
19 *55:15 *122:9 0.00546237
20 *55:23 *122:9 0
21 *58:15 *122:9 0.0013207
22 *67:17 *122:9 0
23 *69:9 *122:9 0.000914806
24 *73:9 *122:9 0
25 *73:17 *122:9 0.000171819
26 *74:9 *122:9 0
27 *76:9 *122:9 0
28 *85:9 *122:9 0
29 *89:9 *122:9 0
30 *91:17 *122:17 0.0159567
*RES
1 *988:io_out[17] *122:7 9.624 
2 *122:7 *122:9 1193.91 
3 *122:9 *122:15 17.2152 
4 *122:15 *122:17 341.38 
5 *122:17 io_out[24] 8.53573 
*END

*D_NET *123 0.512822
*CONN
*P io_out[25] O
*I *988:io_out[18] O *D soc_sys
*CAP
1 io_out[25] 0.00024281
2 *988:io_out[18] 0.000888312
3 *123:21 0.0354798
4 *123:19 0.0355645
5 *123:13 0.0158731
6 *123:11 0.0155729
7 *123:9 0.000717439
8 *123:7 0.00157853
9 *123:7 *124:7 0
10 *123:9 *124:9 0.000164672
11 *123:13 *124:9 0.0688698
12 *123:13 *130:25 0.0133198
13 *123:13 *132:27 0.000240346
14 *123:13 *132:29 0.0031418
15 *123:13 *142:25 0.0162068
16 *123:21 *124:17 0.0110148
17 *123:21 *125:21 0.0878824
18 *46:9 io_out[25] 0.000325813
19 *46:9 *123:21 0.107619
20 *46:17 *123:13 0.0677307
21 *58:15 *123:9 0.000292422
22 *73:17 *123:9 0.00357679
23 *76:23 *123:13 0.000219042
24 *91:17 *123:21 0.0208065
25 *96:21 *123:13 0.00102856
26 *116:13 *123:7 1.84005e-05
27 *122:7 *123:7 0
28 *122:9 *123:9 0.00390178
29 *122:9 *123:13 0.000346765
30 *122:17 *123:21 0.000199128
*RES
1 *988:io_out[18] *123:7 9.70987 
2 *123:7 *123:9 50.1493 
3 *123:9 *123:11 0.621429 
4 *123:11 *123:13 1075.59 
5 *123:13 *123:19 16.7 
6 *123:19 *123:21 304.315 
7 *123:21 io_out[25] 8.76347 
*END

*D_NET *124 0.418932
*CONN
*P io_out[26] O
*I *988:io_out[19] O *D soc_sys
*CAP
1 io_out[26] 0.000370808
2 *988:io_out[19] 0.000947942
3 *124:17 0.0426882
4 *124:15 0.0424561
5 *124:9 0.0151007
6 *124:7 0.0159099
7 *124:7 *125:11 0
8 *124:9 *125:13 0.0511934
9 *124:9 *130:25 0.0131419
10 *124:9 *132:29 0.00274293
11 *124:9 *142:15 0.0001646
12 *124:17 *125:21 0.1031
13 *124:17 *130:25 0.0203529
14 *46:9 io_out[26] 0.000325813
15 *50:11 *124:17 0.025305
16 *73:17 *124:9 0.00324499
17 *76:23 *124:9 0.000251191
18 *96:21 *124:9 0.00117953
19 *105:24 *124:9 2.093e-05
20 *107:9 *124:9 0.000342165
21 *116:13 *124:7 4.38033e-05
22 *123:7 *124:7 0
23 *123:9 *124:9 0.000164672
24 *123:13 *124:9 0.0688698
25 *123:21 *124:17 0.0110148
*RES
1 *988:io_out[19] *124:7 9.8816 
2 *124:7 *124:9 921.351 
3 *124:9 *124:15 16.2707 
4 *124:15 *124:17 291.622 
5 *124:17 io_out[26] 9.10693 
*END

*D_NET *125 0.415373
*CONN
*P io_out[27] O
*I *988:io_out[20] O *D soc_sys
*CAP
1 io_out[27] 0.00022774
2 *988:io_out[20] 0.000866775
3 *125:21 0.0298877
4 *125:19 0.0297897
5 *125:13 0.00915784
6 *125:11 0.00989488
7 *125:11 *126:7 1.28666e-06
8 *125:13 *130:17 0.001431
9 *125:13 *130:25 0.00243498
10 *125:13 *132:11 0.000616888
11 *125:13 *132:13 0.00493223
12 *125:13 *142:15 0.000292422
13 *125:13 *142:23 0.000371588
14 *125:19 io_out[33] 0
15 *125:21 *130:25 0.011148
16 *125:21 *131:21 0.0202974
17 *76:23 *125:13 0.000259525
18 *91:9 *125:13 0.0338658
19 *91:17 *125:21 0.00828683
20 *94:9 *125:13 0.00571781
21 *96:21 *125:13 0.00105233
22 *105:24 *125:13 0.00176713
23 *107:27 *125:11 0.000839943
24 *108:9 *125:13 5.72163e-05
25 *123:21 *125:21 0.0878824
26 *124:7 *125:11 0
27 *124:9 *125:13 0.0511934
28 *124:17 *125:21 0.1031
*RES
1 *988:io_out[20] *125:11 10.1915 
2 *125:11 *125:13 651.609 
3 *125:13 *125:19 16.3565 
4 *125:19 *125:21 291.368 
5 *125:21 io_out[27] 8.5544 
*END

*D_NET *126 0.262135
*CONN
*P io_out[28] O
*I *988:io_out[21] O *D soc_sys
*CAP
1 io_out[28] 0.00377467
2 *988:io_out[21] 0.00049793
3 *126:27 0.115964
4 *126:25 0.116732
5 *126:9 0.00719203
6 *126:7 0.003148
7 *126:7 *127:9 0
8 *126:27 *822:9 0.000855751
9 *988:io_in[25] *126:25 0.00013851
10 *988:io_in[26] *126:25 8.84694e-06
11 *988:io_in[27] *126:25 0
12 *17:11 *126:27 0.00243814
13 *55:23 *126:9 0.00864043
14 *56:43 *126:25 3.57784e-05
15 *69:9 *126:9 0
16 *81:22 *126:27 0
17 *93:14 *126:27 0
18 *107:27 *126:7 7.20008e-05
19 *115:9 *126:9 0.00263558
20 *125:11 *126:7 1.28666e-06
*RES
1 *988:io_out[21] *126:7 9.02293 
2 *126:7 *126:9 112.126 
3 *126:9 *126:25 20.7883 
4 *126:25 *126:27 378.698 
5 *126:27 io_out[28] 19.3736 
*END

*D_NET *127 0.308164
*CONN
*P io_out[29] O
*I *988:io_out[22] O *D soc_sys
*CAP
1 io_out[29] 0.00114595
2 *988:io_out[22] 0.00140514
3 *127:25 0.0373894
4 *127:23 0.0374835
5 *127:17 0.0036647
6 *127:15 0.00284415
7 *127:9 0.00182472
8 *127:9 *129:11 0
9 *127:15 *136:7 3.67886e-05
10 *127:17 *130:9 0.000102039
11 *127:17 *131:11 0.000809118
12 *127:17 *131:13 0.00732408
13 *127:17 *131:21 0.000925139
14 io_oeb[35] *127:15 7.16484e-05
15 *46:9 io_out[29] 0.000325813
16 *54:11 *127:25 0.0610495
17 *56:35 *127:25 0.0172845
18 *58:15 *127:9 0.000219695
19 *69:9 *127:9 0.00145913
20 *70:15 *127:15 7.20213e-06
21 *70:15 *127:17 0.000277535
22 *83:9 *127:17 0.0026575
23 *83:15 *127:23 0
24 *87:31 *127:25 0.114515
25 *96:21 *127:17 0.000356518
26 *98:13 *127:17 0.0100224
27 *104:15 *127:15 0
28 *108:9 *127:17 0.00210559
29 *122:9 *127:9 0.00285659
30 *126:7 *127:9 0
*RES
1 *988:io_out[22] *127:9 46.306 
2 *127:9 *127:15 16.9147 
3 *127:15 *127:17 179.034 
4 *127:17 *127:23 18.2456 
5 *127:23 *127:25 270.551 
6 *127:25 io_out[29] 10.996 
*END

*D_NET *129 0.21059
*CONN
*P io_out[30] O
*I *988:io_out[23] O *D soc_sys
*CAP
1 io_out[30] 0.0104435
2 *988:io_out[23] 0.00123916
3 *129:29 0.0682705
4 *129:27 0.0695225
5 *129:11 0.0129346
6 *129:11 *130:9 3.55776e-06
7 *129:11 *134:23 0.000185394
8 *129:27 io_out[35] 0.00048147
9 *129:29 *795:9 0.00507681
10 *50:19 *129:11 0.00303298
11 *50:19 *129:27 0.000242068
12 *51:19 *129:29 0
13 *56:43 *129:11 0.000127194
14 *69:7 *129:27 1.0884e-05
15 *75:14 *129:29 0
16 *77:16 *129:29 0.038934
17 *105:22 *129:27 6.17886e-05
18 *119:18 *129:29 0
19 *120:25 *129:11 2.33582e-05
20 *127:9 *129:11 0
*RES
1 *988:io_out[23] *129:11 48.0507 
2 *129:11 *129:27 27.7677 
3 *129:27 *129:29 252.399 
4 *129:29 io_out[30] 39.1901 
*END

*D_NET *130 0.222344
*CONN
*P io_out[31] O
*I *988:io_out[24] O *D soc_sys
*CAP
1 io_out[31] 0.000464123
2 *988:io_out[24] 0.00155048
3 *130:25 0.0180296
4 *130:23 0.0177351
5 *130:17 0.00606465
6 *130:15 0.00605468
7 *130:9 0.00171009
8 *130:9 *131:7 0
9 *130:9 *131:11 0.00197827
10 *130:9 *133:13 0.00118097
11 *130:9 *136:9 0.000145732
12 *130:15 *133:13 3.82058e-06
13 *130:17 *132:13 0.004895
14 *130:17 *132:27 0.000191513
15 *130:17 *133:17 0
16 *130:25 *131:21 0.00208335
17 *130:25 *132:29 0.0206528
18 *50:11 *130:25 0.00841021
19 *55:13 *130:25 0.000163669
20 *55:15 *130:25 0.0139757
21 *70:15 *130:17 0.000135964
22 *70:19 *130:9 0.000177075
23 *91:9 *130:17 0.018126
24 *91:17 io_out[31] 0.000325813
25 *94:9 *130:17 0.00331574
26 *94:9 *130:25 0.0154488
27 *96:21 *130:17 0.000648756
28 *98:13 *130:9 0.000532416
29 *108:9 *130:17 0.0158481
30 *120:25 *130:9 0.000516183
31 *122:15 io_out[31] 4.56068e-05
32 *123:13 *130:25 0.0133198
33 *124:9 *130:25 0.0131419
34 *124:17 *130:25 0.0203529
35 *125:13 *130:17 0.001431
36 *125:13 *130:25 0.00243498
37 *125:21 *130:25 0.011148
38 *127:17 *130:9 0.000102039
39 *129:11 *130:9 3.55776e-06
*RES
1 *988:io_out[24] *130:9 40.0316 
2 *130:9 *130:15 32.0507 
3 *130:15 *130:17 327.814 
4 *130:17 *130:23 16.2707 
5 *130:23 *130:25 146.156 
6 *130:25 io_out[31] 9.27867 
*END

*D_NET *131 0.143648
*CONN
*P io_out[32] O
*I *988:io_out[25] O *D soc_sys
*CAP
1 io_out[32] 0.000147902
2 *988:io_out[25] 0.00127556
3 *131:21 0.0170151
4 *131:19 0.0169292
5 *131:13 0.00131609
6 *131:11 0.00192128
7 *131:7 0.00194275
8 *131:7 *132:11 0
9 *131:11 *133:17 0.000835849
10 *131:11 *136:9 0.000242014
11 *131:13 *133:17 0.00130001
12 io_oeb[35] *131:11 0.000105613
13 *70:19 *131:11 0.00194542
14 *83:9 *131:13 0.00356353
15 *83:9 *131:21 0.000816832
16 *91:17 *131:21 0.026199
17 *92:25 *131:21 0.0169755
18 *94:9 *131:21 0.0174153
19 *98:13 *131:21 0.000108097
20 *105:22 *131:7 0.000175929
21 *125:21 *131:21 0.0202974
22 *127:17 *131:11 0.000809118
23 *127:17 *131:13 0.00732408
24 *127:17 *131:21 0.000925139
25 *130:9 *131:7 0
26 *130:9 *131:11 0.00197827
27 *130:25 *131:21 0.00208335
*RES
1 *988:io_out[25] *131:7 10.5685 
2 *131:7 *131:11 45.8821 
3 *131:11 *131:13 93.0693 
4 *131:13 *131:19 16.0989 
5 *131:19 *131:21 136.636 
6 *131:21 io_out[32] 8.38267 
*END

*D_NET *132 0.137064
*CONN
*P io_out[33] O
*I *988:io_out[26] O *D soc_sys
*CAP
1 io_out[33] 0.000503708
2 *988:io_out[26] 0.00135039
3 *132:29 0.0106806
4 *132:27 0.011351
5 *132:13 0.00191852
6 *132:11 0.00209479
7 *132:11 *133:13 0
8 *132:11 *142:23 0.000376393
9 *132:27 io_out[35] 0
10 *132:27 *142:25 0.000500891
11 *132:29 *142:25 0.00142239
12 *46:17 *132:29 0.00632581
13 *55:15 *132:29 0.0358918
14 *57:11 *132:29 1.38805e-05
15 *58:15 *132:27 0.00221579
16 *58:15 *132:29 0.00259368
17 *76:23 *132:27 0.00106449
18 *83:7 *132:27 0
19 *91:17 io_out[33] 0.000248617
20 *94:9 *132:29 0.00870248
21 *96:21 *132:13 0.000746225
22 *96:21 *132:27 0.000839946
23 *96:21 *132:29 0.00191787
24 *105:22 *132:11 0.000402898
25 *108:9 *132:11 0.00159592
26 *108:9 *132:13 1.42186e-05
27 *122:9 *132:27 0.000120999
28 *122:9 *132:29 0.00675772
29 *123:13 *132:27 0.000240346
30 *123:13 *132:29 0.0031418
31 *124:9 *132:29 0.00274293
32 *125:13 *132:11 0.000616888
33 *125:13 *132:13 0.00493223
34 *125:19 io_out[33] 0
35 *130:17 *132:13 0.004895
36 *130:17 *132:27 0.000191513
37 *130:25 *132:29 0.0206528
38 *131:7 *132:11 0
*RES
1 *988:io_out[26] *132:11 31.3299 
2 *132:11 *132:13 62.8264 
3 *132:13 *132:27 38.1805 
4 *132:27 *132:29 91.0672 
5 *132:29 io_out[33] 9.32347 
*END

*D_NET *133 0.0426596
*CONN
*P io_out[34] O
*I *988:io_out[27] O *D soc_sys
*CAP
1 io_out[34] 0.000197174
2 *988:io_out[27] 0.00161697
3 *133:17 0.0100346
4 *133:15 0.00983745
5 *133:13 0.00161697
6 *133:13 *136:9 0.000138759
7 *48:51 *133:13 1.82523e-05
8 *70:19 *133:17 0.00010632
9 *83:9 *133:17 0.00477934
10 *91:9 *133:17 0
11 *97:9 *133:17 0.00981898
12 *98:13 *133:13 0.00117415
13 *108:9 *133:17 0
14 *130:9 *133:13 0.00118097
15 *130:15 *133:13 3.82058e-06
16 *130:17 *133:17 0
17 *131:11 *133:17 0.000835849
18 *131:13 *133:17 0.00130001
19 *132:11 *133:13 0
*RES
1 *988:io_out[27] *133:13 42.5586 
2 *133:13 *133:15 15 
3 *133:15 *133:17 330.279 
4 *133:17 io_out[34] 8.63467 
*END

*D_NET *134 0.0147495
*CONN
*P io_out[35] O
*I *988:io_out[28] O *D soc_sys
*CAP
1 io_out[35] 0.00468916
2 *988:io_out[28] 0.000750367
3 *134:23 0.00543953
4 *134:23 io_out[36] 5.45433e-05
5 *134:23 *136:7 4.59167e-06
6 *48:51 *134:23 5.20709e-06
7 *50:19 io_out[35] 2.04774e-05
8 *56:35 io_out[35] 0.000852386
9 *56:43 *134:23 0.00100441
10 *69:7 io_out[35] 4.62763e-05
11 *71:25 io_out[35] 0.000136545
12 *72:22 io_out[35] 0.000150829
13 *75:12 io_out[35] 0.000101123
14 *80:7 io_out[35] 4.34626e-05
15 *81:22 io_out[35] 0.00032266
16 *103:12 *134:23 0.000183383
17 *104:15 *134:23 2.37336e-05
18 *105:22 *134:23 0.000253989
19 *129:11 *134:23 0.000185394
20 *129:27 io_out[35] 0.00048147
21 *132:27 io_out[35] 0
*RES
1 *988:io_out[28] *134:23 47.5789 
2 *134:23 io_out[35] 43.1396 
*END

*D_NET *135 0.0288125
*CONN
*P io_out[36] O
*I *988:io_out[29] O *D soc_sys
*CAP
1 io_out[36] 0.00420089
2 *988:io_out[29] 0.00420089
3 io_out[36] *136:7 0
4 io_out[36] *136:9 0.00996347
5 io_out[36] *142:15 0.00905965
6 *988:io_in[30] io_out[36] 0.000338335
7 *48:51 io_out[36] 0
8 *58:15 io_out[36] 9.18645e-05
9 *70:21 io_out[36] 0.000105613
10 *73:15 io_out[36] 0.000314146
11 *98:19 io_out[36] 4.93791e-05
12 *98:21 io_out[36] 6.99019e-05
13 *104:15 io_out[36] 0.000109201
14 *108:9 io_out[36] 0.000127194
15 *114:9 io_out[36] 0.000127411
16 *134:23 io_out[36] 5.45433e-05
*RES
1 *988:io_out[29] io_out[36] 42.7419 
*END

*D_NET *136 0.0640718
*CONN
*P io_out[37] O
*I *988:io_out[30] O *D soc_sys
*CAP
1 io_out[37] 0.000245331
2 *988:io_out[30] 0.00120348
3 *136:9 0.00961303
4 *136:7 0.0105712
5 io_oeb[35] *136:7 0.000273897
6 io_out[36] *136:7 0
7 io_out[36] *136:9 0.00996347
8 *988:io_in[29] *136:9 0.000203612
9 *988:io_in[30] *136:9 0.0106298
10 *42:49 *136:9 0.0015429
11 *58:15 *136:9 0
12 *70:21 *136:9 0.00152954
13 *98:13 *136:9 0.00136739
14 *98:21 *136:9 0.00848767
15 *104:15 *136:7 2.17882e-05
16 *104:15 *136:9 0.000163751
17 *111:9 *136:9 0.00179249
18 *118:9 *136:9 0.00311542
19 *120:25 *136:9 0.0027792
20 *127:15 *136:7 3.67886e-05
21 *130:9 *136:9 0.000145732
22 *131:11 *136:9 0.000242014
23 *133:13 *136:9 0.000138759
24 *134:23 *136:7 4.59167e-06
*RES
1 *988:io_out[30] *136:7 10.4397 
2 *136:7 *136:9 60.8571 
3 *136:9 io_out[37] 8.76347 
*END

*D_NET *141 0.633972
*CONN
*P io_out[7] O
*I *988:io_out[0] O *D soc_sys
*CAP
1 io_out[7] 0.00140652
2 *988:io_out[0] 0.0177831
3 *141:18 0.13255
4 *141:16 0.131143
5 *141:14 0.0703094
6 *141:12 0.0880925
7 io_out[7] *142:33 0.000155186
8 *141:14 *815:9 0.00737782
9 *141:18 *824:21 0
10 *141:18 *825:13 0.0229397
11 *141:18 *827:13 0.0443143
12 *141:18 *829:29 3.72204e-05
13 *141:18 *866:29 0.0968474
14 *988:io_in[29] *141:12 0.000146761
15 *19:27 *141:18 0.0202724
16 *31:9 io_out[7] 0.000127201
17 *45:21 *141:14 0
18 *66:13 io_out[7] 0
19 *67:9 io_out[7] 0.000127201
20 *78:13 *141:18 0
21 *104:33 io_out[7] 0.000341712
*RES
1 *988:io_out[0] *141:12 15.6819 
2 *141:12 *141:14 237.675 
3 *141:14 *141:16 8 
4 *141:16 *141:18 495.507 
5 *141:18 io_out[7] 19.6531 
*END

*D_NET *142 0.957093
*CONN
*P io_out[8] O
*I *988:io_out[1] O *D soc_sys
*CAP
1 io_out[8] 0.000325372
2 *988:io_out[1] 0.00489137
3 *142:33 0.0152547
4 *142:31 0.0149293
5 *142:29 0.0597723
6 *142:27 0.0597723
7 *142:25 0.00251431
8 *142:23 0.00276121
9 *142:15 0.00513827
10 *142:15 *143:7 0
11 io_out[36] *142:15 0.00905965
12 io_out[7] *142:33 0.000155186
13 *58:15 *142:15 0.00339188
14 *58:15 *142:25 0.000746225
15 *65:9 *142:33 0.0117242
16 *67:9 *142:33 0.0974164
17 *67:13 *142:29 0
18 *73:17 *142:15 0.0002754
19 *74:13 *142:29 0.263963
20 *104:33 *142:33 0.0749555
21 *105:24 *142:15 0.00126045
22 *107:9 *142:15 0.000679623
23 *108:13 *142:29 0.292424
24 *108:17 *142:33 0
25 *112:9 *142:15 0.000147273
26 *122:9 *142:25 0.0161998
27 *123:13 *142:25 0.0162068
28 *124:9 *142:15 0.0001646
29 *125:13 *142:15 0.000292422
30 *125:13 *142:23 0.000371588
31 *132:11 *142:23 0.000376393
32 *132:27 *142:25 0.000500891
33 *132:29 *142:25 0.00142239
*RES
1 *988:io_out[1] *142:15 47.4491 
2 *142:15 *142:23 36.9496 
3 *142:23 *142:25 206.677 
4 *142:25 *142:27 8 
5 *142:27 *142:29 542.819 
6 *142:29 *142:31 8 
7 *142:31 *142:33 1243.91 
8 *142:33 io_out[8] 8.75787 
*END

*D_NET *143 0.827376
*CONN
*P io_out[9] O
*I *988:io_out[2] O *D soc_sys
*CAP
1 io_out[9] 0.00106085
2 *988:io_out[2] 0.00101197
3 *143:25 0.0655896
4 *143:23 0.0645288
5 *143:21 0.0444173
6 *143:19 0.0444378
7 *143:13 0.0371702
8 *143:11 0.0371498
9 *143:9 0.00323766
10 *143:7 0.00424963
11 *143:9 *540:11 0
12 *143:13 *988:wbs_cyc_i 0.000361548
13 *143:13 *988:wbs_sel_i[0] 0.000384268
14 *143:13 *540:15 0.00162252
15 *143:13 *542:15 0.00263566
16 *143:13 *544:15 0.00122712
17 *143:13 *559:15 0.00155987
18 *143:13 *570:17 0.000344695
19 *143:13 *572:15 0.00179163
20 *143:13 *576:17 0.0011619
21 *143:13 *589:15 0.0106721
22 *143:13 *634:15 0.00831666
23 *143:13 *908:17 0.000525611
24 *143:13 *909:17 0.000442671
25 *143:13 *911:17 0
26 *143:13 *942:48 0.000208332
27 *143:13 *956:19 0
28 *143:21 *909:17 0.00281083
29 *143:21 *924:9 0.0275631
30 *143:21 *926:9 0.000368144
31 *32:37 *143:13 0.0282387
32 *35:9 *143:25 0.0970818
33 *42:49 *143:9 0
34 *45:29 *143:9 0.00511231
35 *98:21 *143:9 0.00244768
36 *105:24 *143:9 0.00570226
37 *105:40 *143:9 0.000826347
38 *105:44 *143:13 0
39 *105:50 *143:19 2.11157e-05
40 *105:52 *143:21 0.154029
41 *107:7 *143:7 0
42 *107:37 *143:25 0.0216925
43 *109:22 *143:25 0.00447548
44 *111:41 *143:25 0.00121958
45 *112:9 *143:9 0.0152924
46 *115:15 *143:13 0.00115754
47 *115:17 *143:13 0.125115
48 *118:9 *143:9 0
49 *118:13 *143:13 0.000114304
50 *142:15 *143:7 0
*RES
1 *988:io_out[2] *143:7 9.96747 
2 *143:7 *143:9 215.656 
3 *143:9 *143:11 8 
4 *143:11 *143:13 237.477 
5 *143:13 *143:19 23.3211 
6 *143:19 *143:21 1683.84 
7 *143:21 *143:23 15 
8 *143:23 *143:25 2059.65 
9 *143:25 io_out[9] 10.9045 
*END

*D_NET *529 0.312218
*CONN
*P user_irq[0] O
*I *988:user_irq[0] O *D soc_sys
*CAP
1 user_irq[0] 9.58152e-05
2 *988:user_irq[0] 9.40511e-05
3 *529:13 0.0631978
4 *529:11 0.0631019
5 *529:9 0.00537657
6 *529:7 0.00547062
7 *529:13 *530:13 0.174881
*RES
1 *988:user_irq[0] *529:7 1.62607 
2 *529:7 *529:9 117.761 
3 *529:9 *529:11 8 
4 *529:11 *529:13 324.632 
5 *529:13 user_irq[0] 9.87464 
*END

*D_NET *530 0.418861
*CONN
*P user_irq[1] O
*I *988:user_irq[1] O *D soc_sys
*CAP
1 user_irq[1] 8.74317e-05
2 *988:user_irq[1] 9.33322e-05
3 *530:13 0.0295322
4 *530:11 0.0294448
5 *530:9 0.00519684
6 *530:7 0.00529017
7 *530:13 *531:13 0.174335
8 *529:13 *530:13 0.174881
*RES
1 *988:user_irq[1] *530:7 1.62607 
2 *530:7 *530:9 117.056 
3 *530:9 *530:11 8 
4 *530:11 *530:13 323.602 
5 *530:13 user_irq[1] 9.97821 
*END

*D_NET *531 0.310397
*CONN
*P user_irq[2] O
*I *988:user_irq[2] O *D soc_sys
*CAP
1 user_irq[2] 6.5784e-05
2 *988:user_irq[2] 9.33322e-05
3 *531:13 0.0627715
4 *531:11 0.0627057
5 *531:9 0.00516599
6 *531:7 0.00525932
7 *530:13 *531:13 0.174335
*RES
1 *988:user_irq[2] *531:7 1.62607 
2 *531:7 *531:9 116.352 
3 *531:9 *531:11 8 
4 *531:11 *531:13 322.829 
5 *531:13 user_irq[2] 9.50179 
*END

*D_NET *540 0.480939
*CONN
*P wb_clk_i I
*I *988:wb_clk_i I *D soc_sys
*I *984:clk I *D CF_ADC_DSM20
*I *989:wb_clk_i I *D CF_SRAM_1024x32_wb_wrapper
*CAP
1 wb_clk_i 0.00156831
2 *988:wb_clk_i 8.14314e-05
3 *984:clk 6.72192e-05
4 *989:wb_clk_i 0.000121548
5 *540:55 0.00344427
6 *540:53 0.00337705
7 *540:51 0.0544662
8 *540:49 0.0544662
9 *540:47 0.00950175
10 *540:33 0.0143053
11 *540:31 0.0047476
12 *540:25 0.0402983
13 *540:23 0.0402327
14 *540:21 0.00076513
15 *540:15 0.00274877
16 *540:13 0.00206507
17 *540:11 0.00306856
18 *540:9 0.00463687
19 *989:wb_clk_i *989:wb_rst_i 0
20 *540:11 *541:7 0
21 *540:25 *988:wbs_adr_i[22] 3.8199e-05
22 *540:25 *989:wbs_dat_i[9] 0.000827501
23 *540:25 *541:27 0.121599
24 *540:25 *587:25 0.000244588
25 *540:25 *619:21 0.00611698
26 *540:25 *620:15 0.000301272
27 *540:25 *620:17 0.000989561
28 *540:25 *622:11 0.00136628
29 *540:25 *622:13 0.0138442
30 *540:25 *627:23 0.00410561
31 *540:25 *921:17 0
32 *540:25 *958:19 0
33 *540:25 *976:13 0.00222759
34 *540:25 *978:13 0.00031725
35 *540:31 *944:21 2.97594e-05
36 *540:33 *541:35 0
37 *540:33 *960:29 0.000101436
38 *540:33 *961:25 0.0104912
39 *540:33 *976:13 0.00228365
40 *540:47 *989:wbs_dat_i[19] 6.51746e-05
41 *540:47 *989:wbs_dat_i[26] 0.000330487
42 *540:47 *961:25 0.0141064
43 *540:47 *972:21 0.00694799
44 *540:47 *976:13 0.000140203
45 *988:io_in[20] *540:25 0.000976284
46 *15:33 *984:clk 3.39618e-05
47 *31:29 *540:25 0.000490962
48 *31:39 *988:wb_clk_i 4.87899e-06
49 *31:39 *540:21 4.15283e-06
50 *40:39 *540:25 0.00110977
51 *42:47 *540:25 0.000907466
52 *44:39 *540:25 0.000957919
53 *45:25 *540:25 0
54 *69:29 *540:25 0.0247875
55 *69:29 *540:33 0.000505934
56 *98:21 *540:11 0.00163059
57 *105:40 *540:11 0
58 *111:29 *540:25 0.0212884
59 *113:29 *540:25 0.000182169
60 *143:9 *540:11 0
61 *143:13 *540:15 0.00162252
*RES
1 wb_clk_i *540:9 36.2396 
2 *540:9 *540:11 71.2882 
3 *540:11 *540:13 15 
4 *540:13 *540:15 42.5471 
5 *540:15 *540:21 26.5068 
6 *540:21 *540:23 8 
7 *540:23 *540:25 231.489 
8 *540:25 *540:31 24.0254 
9 *540:31 *540:33 135.927 
10 *540:33 *989:wb_clk_i 16.7193 
11 *540:33 *540:47 264.563 
12 *540:47 *540:49 15 
13 *540:49 *540:51 1254.48 
14 *540:51 *540:53 15 
15 *540:53 *540:55 53.505 
16 *540:55 *984:clk 17.0714 
17 *540:21 *988:wb_clk_i 1.35679 
*END

*D_NET *541 0.374847
*CONN
*P wb_rst_i I
*I *988:wb_rst_i I *D soc_sys
*I *989:wb_rst_i I *D CF_SRAM_1024x32_wb_wrapper
*CAP
1 wb_rst_i 4.50212e-05
2 *988:wb_rst_i 0.000249583
3 *989:wb_rst_i 0.000220191
4 *541:35 0.00422179
5 *541:33 0.00402694
6 *541:27 0.0288243
7 *541:25 0.0288942
8 *541:19 0.000736072
9 *541:15 0.00352196
10 *541:13 0.00263164
11 *541:11 0.00239248
12 *541:9 0.00239248
13 *541:7 0.00254223
14 *541:5 0.00258725
15 *541:15 *608:29 0
16 *541:15 *640:7 0
17 *541:19 *988:wbs_stb_i 0.000130187
18 *541:19 *608:27 0.000193448
19 *541:25 *988:wbs_cyc_i 3.24898e-05
20 *541:25 *619:25 3.24898e-05
21 *541:27 *988:wbs_adr_i[3] 0.00507542
22 *541:27 *988:wbs_dat_i[10] 7.51535e-06
23 *541:27 *988:wbs_dat_i[1] 9.59396e-05
24 *541:27 *988:wbs_stb_i 0.000481719
25 *541:27 *989:wbs_dat_i[9] 0.000976533
26 *541:27 *608:23 0.000481336
27 *541:27 *620:27 8.91416e-05
28 *541:27 *622:23 4.62843e-05
29 *541:27 *624:13 0.000743712
30 *541:27 *626:13 0.000632836
31 *541:27 *628:13 0.00169147
32 *541:27 *631:13 0.0521881
33 *541:27 *632:13 0.000888434
34 *541:27 *638:15 0.0211268
35 *541:27 *639:15 0.0014681
36 *541:27 *973:19 0.00231119
37 *541:27 *976:13 0.000525867
38 *541:27 *977:13 0.000205171
39 *541:27 *979:13 0.000363983
40 *541:27 *980:21 0.000232264
41 *541:33 *914:15 4.89546e-05
42 *541:33 *926:19 1.98125e-05
43 *541:35 *921:9 0.0034323
44 *541:35 *923:9 0.000215071
45 *541:35 *946:31 0.00222179
46 *541:35 *958:29 0.00418339
47 *541:35 *960:29 3.4078e-05
48 *988:io_in[20] *541:27 0.00366388
49 *989:wb_clk_i *989:wb_rst_i 0
50 *31:29 *541:27 0.0209063
51 *36:29 *541:19 0
52 *40:29 *541:19 0.00012774
53 *40:29 *541:27 0.00857366
54 *40:39 *988:wb_rst_i 9.85586e-06
55 *42:27 *541:27 0.000608876
56 *42:29 *541:19 0.00155583
57 *42:29 *541:27 0.0014935
58 *43:23 *541:27 0.000659671
59 *43:25 *541:27 0.00464704
60 *44:23 *541:27 9.24631e-05
61 *44:25 *541:27 0.00132117
62 *44:39 *541:27 0.000161701
63 *66:25 *541:27 0.00169824
64 *113:29 *541:19 2.00768e-05
65 *113:29 *541:27 0.0242467
66 *115:25 *541:35 0
67 *540:11 *541:7 0
68 *540:25 *541:27 0.121599
69 *540:33 *541:35 0
*RES
1 wb_rst_i *541:5 1.02536 
2 *541:5 *541:7 59.1289 
3 *541:7 *541:9 15 
4 *541:9 *541:11 48.2643 
5 *541:11 *541:13 15 
6 *541:13 *541:15 55.4314 
7 *541:15 *541:19 36.5843 
8 *541:19 *541:25 24.3775 
9 *541:25 *541:27 228.204 
10 *541:27 *541:33 23.6732 
11 *541:33 *541:35 124.969 
12 *541:35 *989:wb_rst_i 17.7136 
13 *541:15 *988:wb_rst_i 3.93571 
*END

*D_NET *542 0.0211695
*CONN
*P wbs_ack_o O
*I *988:wbs_ack_o O *D soc_sys
*CAP
1 wbs_ack_o 8.66535e-05
2 *988:wbs_ack_o 0.0020406
3 *542:17 0.00457059
4 *542:15 0.00652454
5 *542:15 *988:wbs_cyc_i 0.00451703
6 *542:15 *587:11 0
7 *542:17 *575:9 0
8 *542:17 *575:11 0
9 *32:37 *542:15 0.000794415
10 *105:44 *542:15 0
11 *143:13 *542:15 0.00263566
*RES
1 *988:wbs_ack_o *542:15 39.6061 
2 *542:15 *542:17 103.675 
3 *542:17 wbs_ack_o 1.97821 
*END

*D_NET *543 0.0226216
*CONN
*P wbs_adr_i[0] I
*I *988:wbs_adr_i[0] I *D soc_sys
*CAP
1 wbs_adr_i[0] 0.00155525
2 *988:wbs_adr_i[0] 0.0012859
3 *543:17 0.00427726
4 *543:11 0.0056061
5 *543:9 0.00416999
6 *988:wbs_adr_i[0] *568:11 0
7 *543:17 *642:17 0
8 *543:17 *645:21 0.00572713
9 *105:44 *543:17 0
*RES
1 wbs_adr_i[0] *543:9 36.2396 
2 *543:9 *543:11 60.5479 
3 *543:11 *543:17 28.936 
4 *543:17 *988:wbs_adr_i[0] 23.6039 
*END

*D_NET *544 0.0518282
*CONN
*P wbs_adr_i[10] I
*I *988:wbs_adr_i[10] I *D soc_sys
*CAP
1 wbs_adr_i[10] 0.0016889
2 *988:wbs_adr_i[10] 0.000841989
3 *544:15 0.00721958
4 *544:13 0.00637759
5 *544:11 0.00300054
6 *544:9 0.00468944
7 *988:wbs_adr_i[10] *622:25 0.000280191
8 *544:9 wbs_dat_o[9] 0
9 *544:15 *572:15 0.0133821
10 *544:15 *589:15 0.00273129
11 *32:37 *544:15 0.00224883
12 *105:44 *544:15 0.00814065
13 *143:13 *544:15 0.00122712
*RES
1 wbs_adr_i[10] *544:9 36.9439 
2 *544:9 *544:11 67.5907 
3 *544:11 *544:13 8 
4 *544:13 *544:15 42.56 
5 *544:15 *988:wbs_adr_i[10] 24.5611 
*END

*D_NET *545 0.0460772
*CONN
*P wbs_adr_i[11] I
*I *988:wbs_adr_i[11] I *D soc_sys
*CAP
1 wbs_adr_i[11] 0.00167412
2 *988:wbs_adr_i[11] 0.00102331
3 *545:15 0.0129478
4 *545:13 0.0119245
5 *545:11 0.00267275
6 *545:9 0.00434687
7 *988:wbs_adr_i[11] *624:17 0.00137825
8 *545:15 *546:15 0
9 *545:15 *590:15 0.0040206
10 *545:15 *592:15 0
11 *545:15 *603:17 0.006089
12 *545:15 *609:13 0
13 *105:44 *545:15 0
*RES
1 wbs_adr_i[11] *545:9 36.9439 
2 *545:9 *545:11 60.5479 
3 *545:11 *545:13 8 
4 *545:13 *545:15 45.2219 
5 *545:15 *988:wbs_adr_i[11] 31.6039 
*END

*D_NET *546 0.0560089
*CONN
*P wbs_adr_i[12] I
*I *988:wbs_adr_i[12] I *D soc_sys
*CAP
1 wbs_adr_i[12] 0.00169855
2 *988:wbs_adr_i[12] 0.00162499
3 *546:15 0.0112852
4 *546:13 0.00966022
5 *546:11 0.00235183
6 *546:9 0.00405038
7 *988:wbs_adr_i[12] *626:17 0
8 *546:15 *592:15 0.00380534
9 *546:15 *594:11 0
10 *546:15 *602:17 0
11 *546:15 *607:11 0
12 *546:15 *609:13 0.0215112
13 *44:23 *988:wbs_adr_i[12] 2.11505e-05
14 *545:15 *546:15 0
*RES
1 wbs_adr_i[12] *546:9 36.9439 
2 *546:9 *546:11 53.505 
3 *546:11 *546:13 8 
4 *546:13 *546:15 47.7979 
5 *546:15 *988:wbs_adr_i[12] 38.6468 
*END

*D_NET *547 0.0501217
*CONN
*P wbs_adr_i[13] I
*I *988:wbs_adr_i[13] I *D soc_sys
*CAP
1 wbs_adr_i[13] 4.49146e-05
2 *988:wbs_adr_i[13] 9.33322e-05
3 *547:15 0.00261417
4 *547:13 0.00252084
5 *547:11 0.012904
6 *547:9 0.012904
7 *547:7 0.00300822
8 *547:5 0.00305314
9 *547:11 *563:11 0.000548011
10 *547:11 *606:11 0.0124262
11 *547:11 *611:13 0
12 *547:11 *618:13 0
13 *547:15 *596:7 4.77164e-06
*RES
1 wbs_adr_i[13] *547:5 1.02536 
2 *547:5 *547:7 66.3479 
3 *547:7 *547:9 8 
4 *547:9 *547:11 50.6315 
5 *547:11 *547:13 8 
6 *547:13 *547:15 50.8536 
7 *547:15 *988:wbs_adr_i[13] 1.62607 
*END

*D_NET *548 0.0534474
*CONN
*P wbs_adr_i[14] I
*I *988:wbs_adr_i[14] I *D soc_sys
*CAP
1 wbs_adr_i[14] 0.000831853
2 *988:wbs_adr_i[14] 9.33322e-05
3 *548:15 0.00490827
4 *548:13 0.00481494
5 *548:11 0.0104345
6 *548:9 0.0112663
7 *548:9 wbs_dat_o[13] 0
8 *548:11 *552:11 0.00378787
9 *548:11 *605:13 0.00718643
10 *548:11 *615:13 0.0101239
11 *548:15 *566:9 0
*RES
1 wbs_adr_i[14] *548:9 25.3689 
2 *548:9 *548:11 53.2075 
3 *548:11 *548:13 8 
4 *548:13 *548:15 100.858 
5 *548:15 *988:wbs_adr_i[14] 1.62607 
*END

*D_NET *549 0.0610515
*CONN
*P wbs_adr_i[15] I
*I *988:wbs_adr_i[15] I *D soc_sys
*CAP
1 wbs_adr_i[15] 4.49146e-05
2 *988:wbs_adr_i[15] 9.40511e-05
3 *549:15 0.00319412
4 *549:13 0.00310007
5 *549:11 0.0122018
6 *549:9 0.0122018
7 *549:7 0.00251054
8 *549:5 0.00255545
9 *549:7 *636:17 0
10 *549:11 *584:11 0.0251487
11 *549:11 *611:13 0
12 *549:11 *618:13 0
*RES
1 wbs_adr_i[15] *549:5 1.02536 
2 *549:5 *549:7 54.375 
3 *549:7 *549:9 8 
4 *549:9 *549:11 55.8693 
5 *549:11 *549:13 8 
6 *549:13 *549:15 62.8264 
7 *549:15 *988:wbs_adr_i[15] 1.62607 
*END

*D_NET *550 0.0624611
*CONN
*P wbs_adr_i[16] I
*I *988:wbs_adr_i[16] I *D soc_sys
*CAP
1 wbs_adr_i[16] 0.00220769
2 *988:wbs_adr_i[16] 9.33322e-05
3 *550:15 0.00349493
4 *550:13 0.0034016
5 *550:11 0.0128883
6 *550:9 0.0128883
7 *550:7 0.00220769
8 *550:7 *583:9 0
9 *550:7 *604:15 0
10 *550:11 *584:11 0
11 *550:11 *586:11 0.0252793
12 *550:11 *593:15 0
13 *550:11 *600:11 0
*RES
1 wbs_adr_i[16] *550:7 47.9018 
2 *550:7 *550:9 8 
3 *550:9 *550:11 57.9301 
4 *550:11 *550:13 8 
5 *550:13 *550:15 70.5736 
6 *550:15 *988:wbs_adr_i[16] 1.62607 
*END

*D_NET *551 0.0645532
*CONN
*P wbs_adr_i[17] I
*I *988:wbs_adr_i[17] I *D soc_sys
*CAP
1 wbs_adr_i[17] 0.00159254
2 *988:wbs_adr_i[17] 9.33322e-05
3 *551:15 0.00412264
4 *551:13 0.00402931
5 *551:11 0.013463
6 *551:9 0.0150555
7 *551:9 *584:7 0
8 *551:9 *639:17 0
9 *551:11 *580:11 0.00525718
10 *551:11 *591:11 0.0209397
11 *551:11 *612:13 0
*RES
1 wbs_adr_i[17] *551:9 41.8161 
2 *551:9 *551:11 60.592 
3 *551:11 *551:13 8 
4 *551:13 *551:15 84.6593 
5 *551:15 *988:wbs_adr_i[17] 1.62607 
*END

*D_NET *552 0.0710056
*CONN
*P wbs_adr_i[18] I
*I *988:wbs_adr_i[18] I *D soc_sys
*CAP
1 wbs_adr_i[18] 0.000676689
2 *988:wbs_adr_i[18] 9.33322e-05
3 *552:15 0.00501471
4 *552:13 0.00492137
5 *552:11 0.0100472
6 *552:9 0.0107239
7 *552:11 *566:11 0
8 *552:11 *583:11 0
9 *552:11 *585:11 0.0334857
10 *552:11 *599:11 0.00225481
11 *552:11 *615:13 0
12 *548:11 *552:11 0.00378787
*RES
1 wbs_adr_i[18] *552:9 21.6196 
2 *552:9 *552:11 63.2539 
3 *552:11 *552:13 8 
4 *552:13 *552:15 104.379 
5 *552:15 *988:wbs_adr_i[18] 1.62607 
*END

*D_NET *553 0.0929253
*CONN
*P wbs_adr_i[19] I
*I *988:wbs_adr_i[19] I *D soc_sys
*CAP
1 wbs_adr_i[19] 0.000614988
2 *988:wbs_adr_i[19] 9.33322e-05
3 *553:15 0.00506506
4 *553:13 0.00497173
5 *553:11 0.00696005
6 *553:9 0.00757504
7 *553:9 *573:15 0
8 *553:11 *555:11 0.0337158
9 *553:11 *583:11 0.000496136
10 *553:11 *585:11 0.0334332
11 *553:11 *599:11 0
*RES
1 wbs_adr_i[19] *553:9 20.2111 
2 *553:9 *553:11 65.9157 
3 *553:11 *553:13 8 
4 *553:13 *553:15 105.788 
5 *553:15 *988:wbs_adr_i[19] 1.62607 
*END

*D_NET *554 0.0219496
*CONN
*P wbs_adr_i[1] I
*I *988:wbs_adr_i[1] I *D soc_sys
*CAP
1 wbs_adr_i[1] 4.49146e-05
2 *988:wbs_adr_i[1] 0.00010356
3 *554:15 0.00209872
4 *554:13 0.00724935
5 *554:7 0.00808164
6 *554:5 0.00287236
7 *554:7 *640:7 0
8 *554:13 *630:15 0
9 *554:15 *570:11 0.00149906
*RES
1 wbs_adr_i[1] *554:5 1.02536 
2 *554:5 *554:7 65.6436 
3 *554:7 *554:13 32.6283 
4 *554:13 *554:15 50.8536 
5 *554:15 *988:wbs_adr_i[1] 1.62607 
*END

*D_NET *555 0.108335
*CONN
*P wbs_adr_i[20] I
*I *988:wbs_adr_i[20] I *D soc_sys
*CAP
1 wbs_adr_i[20] 0.000591933
2 *988:wbs_adr_i[20] 9.33322e-05
3 *555:15 0.00508472
4 *555:13 0.00499139
5 *555:11 0.00734054
6 *555:9 0.00793247
7 *555:11 *557:21 0.00466249
8 *555:11 *558:11 0.00735472
9 *555:11 *583:11 0.00020766
10 *555:11 *588:11 0.0363604
11 *555:11 *599:11 0
12 *553:11 *555:11 0.0337158
*RES
1 wbs_adr_i[20] *555:9 19.9832 
2 *555:9 *555:11 68.4059 
3 *555:11 *555:13 8 
4 *555:13 *555:15 106.492 
5 *555:15 *988:wbs_adr_i[20] 1.62607 
*END

*D_NET *556 0.106156
*CONN
*P wbs_adr_i[21] I
*I *988:wbs_adr_i[21] I *D soc_sys
*CAP
1 wbs_adr_i[21] 0.000527287
2 *988:wbs_adr_i[21] 9.33322e-05
3 *556:15 0.00517532
4 *556:13 0.00508199
5 *556:11 0.0101567
6 *556:9 0.010684
7 *556:9 wbs_dat_o[20] 0
8 *556:9 *574:15 0
9 *556:11 *557:21 0.00692461
10 *556:11 *567:11 0.0074435
11 *556:11 *583:11 0.0236017
12 *556:11 *588:11 0.0364682
13 *556:11 *599:11 0
14 *556:11 *616:13 0
15 *556:11 *632:21 0
*RES
1 wbs_adr_i[21] *556:9 18.3261 
2 *556:9 *556:11 71.4971 
3 *556:11 *556:13 8 
4 *556:13 *556:15 107.901 
5 *556:15 *988:wbs_adr_i[21] 1.62607 
*END

*D_NET *557 0.0948043
*CONN
*P wbs_adr_i[22] I
*I *988:wbs_adr_i[22] I *D soc_sys
*CAP
1 wbs_adr_i[22] 0.0253581
2 *988:wbs_adr_i[22] 0.00685412
3 *557:21 0.0322122
4 *988:wbs_adr_i[22] *622:13 1.61128e-05
5 *557:21 *577:21 0.000674419
6 *557:21 *579:11 0.00123198
7 *557:21 *582:11 0.00408622
8 *557:21 *583:11 0.00476852
9 *557:21 *588:11 0.00557576
10 *557:21 *590:9 0
11 *557:21 *614:13 0.00221077
12 *557:21 *616:13 9.24631e-05
13 *557:21 *621:13 9.83919e-05
14 *540:25 *988:wbs_adr_i[22] 3.8199e-05
15 *555:11 *557:21 0.00466249
16 *556:11 *557:21 0.00692461
*RES
1 wbs_adr_i[22] *557:21 31.5172 
2 *557:21 *988:wbs_adr_i[22] 36.5866 
*END

*D_NET *558 0.0798224
*CONN
*P wbs_adr_i[23] I
*I *988:wbs_adr_i[23] I *D soc_sys
*CAP
1 wbs_adr_i[23] 0.000641543
2 *988:wbs_adr_i[23] 9.33322e-05
3 *558:15 0.00504134
4 *558:13 0.00494801
5 *558:11 0.0137012
6 *558:9 0.0143428
7 *558:9 *591:9 0
8 *558:11 *561:11 0.0336994
9 *555:11 *558:11 0.00735472
*RES
1 wbs_adr_i[23] *558:9 27.1593 
2 *558:9 *558:11 422.737 
3 *558:11 *558:13 15 
4 *558:13 *558:15 106.316 
5 *558:15 *988:wbs_adr_i[23] 1.62607 
*END

*D_NET *559 0.089472
*CONN
*P wbs_adr_i[24] I
*I *988:wbs_adr_i[24] I *D soc_sys
*CAP
1 wbs_adr_i[24] 0.00183457
2 *988:wbs_adr_i[24] 0.000953486
3 *559:15 0.0119471
4 *559:13 0.0109936
5 *559:11 0.00290202
6 *559:9 0.00473659
7 *559:11 *609:11 0.00052782
8 *559:15 *589:15 0.0342437
9 *32:37 *559:15 0.00450154
10 *105:44 *559:15 0.0152717
11 *143:13 *559:15 0.00155987
*RES
1 wbs_adr_i[24] *559:9 36.9439 
2 *559:9 *559:11 67.5907 
3 *559:11 *559:13 8 
4 *559:13 *559:15 79.2251 
5 *559:15 *988:wbs_adr_i[24] 24.5611 
*END

*D_NET *560 0.0826752
*CONN
*P wbs_adr_i[25] I
*I *988:wbs_adr_i[25] I *D soc_sys
*CAP
1 wbs_adr_i[25] 0.00179236
2 *988:wbs_adr_i[25] 0.00124337
3 *560:15 0.0195365
4 *560:13 0.0182932
5 *560:11 0.00273465
6 *560:9 0.00452701
7 *560:11 *578:13 0
8 *560:15 *562:19 0
9 *560:15 *590:15 0.0345481
10 *560:15 *592:15 0
11 *105:44 *560:15 0
*RES
1 wbs_adr_i[25] *560:9 36.2396 
2 *560:9 *560:11 60.5479 
3 *560:11 *560:13 8 
4 *560:13 *560:15 81.8011 
5 *560:15 *988:wbs_adr_i[25] 31.6039 
*END

*D_NET *561 0.104884
*CONN
*P wbs_adr_i[26] I
*I *988:wbs_adr_i[26] I *D soc_sys
*CAP
1 wbs_adr_i[26] 0.000594447
2 *988:wbs_adr_i[26] 9.33322e-05
3 *561:15 0.00498183
4 *561:13 0.0048885
5 *561:11 0.00831469
6 *561:9 0.00890914
7 *561:9 *594:7 0
8 *561:11 *564:11 0.037683
9 *561:11 *588:11 0.00571986
10 *558:11 *561:11 0.0336994
*RES
1 wbs_adr_i[26] *561:9 26.3307 
2 *561:9 *561:11 467.045 
3 *561:11 *561:13 15 
4 *561:13 *561:15 106.668 
5 *561:15 *988:wbs_adr_i[26] 1.62607 
*END

*D_NET *562 0.0907117
*CONN
*P wbs_adr_i[27] I
*I *988:wbs_adr_i[27] I *D soc_sys
*CAP
1 wbs_adr_i[27] 0.0013293
2 *988:wbs_adr_i[27] 0.00156368
3 *562:19 0.0208544
4 *562:17 0.0192907
5 *562:15 0.00172795
6 *562:13 0.00305724
7 *562:13 *579:15 0.0022852
8 *562:15 *579:15 0.00213519
9 *562:19 *592:15 0.038468
10 *562:19 *594:11 0
11 *560:15 *562:19 0
*RES
1 wbs_adr_i[27] *562:13 37.2339 
2 *562:13 *562:15 53.505 
3 *562:15 *562:17 8 
4 *562:17 *562:19 87.0389 
5 *562:19 *988:wbs_adr_i[27] 38.6468 
*END

*D_NET *563 0.0959897
*CONN
*P wbs_adr_i[28] I
*I *988:wbs_adr_i[28] I *D soc_sys
*CAP
1 wbs_adr_i[28] 4.49146e-05
2 *988:wbs_adr_i[28] 9.33322e-05
3 *563:15 0.00246127
4 *563:13 0.00236794
5 *563:11 0.0180202
6 *563:9 0.0180202
7 *563:7 0.00323521
8 *563:5 0.00328012
9 *563:11 *596:11 0.0479185
10 *563:11 *613:13 0
11 *547:11 *563:11 0.000548011
*RES
1 wbs_adr_i[28] *563:5 1.02536 
2 *563:5 *563:7 67.0521 
3 *563:7 *563:9 8 
4 *563:9 *563:11 89.8725 
5 *563:11 *563:13 8 
6 *563:13 *563:15 50.1493 
7 *563:15 *988:wbs_adr_i[28] 1.62607 
*END

*D_NET *564 0.114074
*CONN
*P wbs_adr_i[29] I
*I *988:wbs_adr_i[29] I *D soc_sys
*CAP
1 wbs_adr_i[29] 0.000568815
2 *988:wbs_adr_i[29] 9.33322e-05
3 *564:15 0.00494046
4 *564:13 0.00484713
5 *564:11 0.00837549
6 *564:9 0.0089443
7 *564:11 *567:11 0.0433597
8 *564:11 *588:11 0.00526167
9 *561:11 *564:11 0.037683
*RES
1 wbs_adr_i[29] *564:9 25.9786 
2 *564:9 *564:11 510.4 
3 *564:11 *564:13 15 
4 *564:13 *564:15 107.02 
5 *564:15 *988:wbs_adr_i[29] 1.62607 
*END

*D_NET *565 0.0230992
*CONN
*P wbs_adr_i[2] I
*I *988:wbs_adr_i[2] I *D soc_sys
*CAP
1 wbs_adr_i[2] 0.00170118
2 *988:wbs_adr_i[2] 9.40511e-05
3 *565:15 0.00394114
4 *565:13 0.00975435
5 *565:9 0.00760845
6 *565:9 *598:7 0
7 *565:13 *571:13 0
8 *565:13 *601:13 0
9 *565:13 *604:13 0
*RES
1 wbs_adr_i[2] *565:9 47.4504 
2 *565:9 *565:13 27.6336 
3 *565:13 *565:15 79.025 
4 *565:15 *988:wbs_adr_i[2] 1.62607 
*END

*D_NET *566 0.103838
*CONN
*P wbs_adr_i[30] I
*I *988:wbs_adr_i[30] I *D soc_sys
*CAP
1 wbs_adr_i[30] 0.000969069
2 *988:wbs_adr_i[30] 9.33322e-05
3 *566:15 0.00459746
4 *566:13 0.00450413
5 *566:11 0.0176486
6 *566:9 0.0186177
7 *566:9 *599:9 0
8 *566:11 *599:11 0.0492886
9 *566:11 *615:13 0.00811944
10 *566:11 *617:13 0
11 *548:15 *566:9 0
12 *552:11 *566:11 0
*RES
1 wbs_adr_i[30] *566:9 26.3218 
2 *566:9 *566:11 94.5093 
3 *566:11 *566:13 8 
4 *566:13 *566:15 100.154 
5 *566:15 *988:wbs_adr_i[30] 1.62607 
*END

*D_NET *567 0.0958685
*CONN
*P wbs_adr_i[31] I
*I *988:wbs_adr_i[31] I *D soc_sys
*CAP
1 wbs_adr_i[31] 0.000559086
2 *988:wbs_adr_i[31] 9.33322e-05
3 *567:15 0.00489237
4 *567:13 0.00479904
5 *567:11 0.0170812
6 *567:9 0.0176403
7 *567:9 *600:7 0
8 *556:11 *567:11 0.0074435
9 *564:11 *567:11 0.0433597
*RES
1 wbs_adr_i[31] *567:9 25.6264 
2 *567:9 *567:11 539.462 
3 *567:11 *567:13 15 
4 *567:13 *567:15 107.372 
5 *567:15 *988:wbs_adr_i[31] 1.62607 
*END

*D_NET *568 0.0349083
*CONN
*P wbs_adr_i[3] I
*I *988:wbs_adr_i[3] I *D soc_sys
*CAP
1 wbs_adr_i[3] 0.00155525
2 *988:wbs_adr_i[3] 0.00431774
3 *568:11 0.00796801
4 *568:9 0.00520551
5 *988:wbs_adr_i[3] *988:wbs_dat_i[1] 9.80974e-05
6 *988:wbs_adr_i[3] *608:23 0.000938159
7 *988:wbs_adr_i[3] *638:15 0.00186434
8 *988:wbs_adr_i[0] *568:11 0
9 *34:33 *568:11 9.4361e-05
10 *42:29 *988:wbs_adr_i[3] 0.00223661
11 *44:25 *988:wbs_adr_i[3] 0.00257392
12 *66:25 *988:wbs_adr_i[3] 0.00298092
13 *541:27 *988:wbs_adr_i[3] 0.00507542
*RES
1 wbs_adr_i[3] *568:9 36.2396 
2 *568:9 *568:11 80.2679 
3 *568:11 *988:wbs_adr_i[3] 43.2957 
*END

*D_NET *569 0.0353849
*CONN
*P wbs_adr_i[4] I
*I *988:wbs_adr_i[4] I *D soc_sys
*CAP
1 wbs_adr_i[4] 0.0015683
2 *988:wbs_adr_i[4] 0.00124703
3 *569:17 0.00655356
4 *569:11 0.00804886
5 *569:9 0.00431064
6 *569:17 *603:17 0.0117706
7 *105:44 *569:17 0.00188596
*RES
1 wbs_adr_i[4] *569:9 36.2396 
2 *569:9 *569:11 61.9564 
3 *569:11 *569:17 42.9323 
4 *569:17 *988:wbs_adr_i[4] 22.1954 
*END

*D_NET *570 0.0484172
*CONN
*P wbs_adr_i[5] I
*I *988:wbs_adr_i[5] I *D soc_sys
*CAP
1 wbs_adr_i[5] 0.0015683
2 *988:wbs_adr_i[5] 0.000896486
3 *570:17 0.00411046
4 *570:11 0.00579496
5 *570:9 0.0041493
6 *570:17 *572:15 0.0123083
7 *570:17 *634:15 0.0149083
8 *32:37 *570:17 0.00213979
9 *105:44 *570:17 0.000697548
10 *143:13 *570:17 0.000344695
11 *554:15 *570:11 0.00149906
*RES
1 wbs_adr_i[5] *570:9 36.2396 
2 *570:9 *570:11 68.9993 
3 *570:11 *570:17 45.5083 
4 *570:17 *988:wbs_adr_i[5] 15.1525 
*END

*D_NET *571 0.031869
*CONN
*P wbs_adr_i[6] I
*I *988:wbs_adr_i[6] I *D soc_sys
*CAP
1 wbs_adr_i[6] 0.0020449
2 *988:wbs_adr_i[6] 9.33322e-05
3 *571:15 0.00281723
4 *571:13 0.0123217
5 *571:7 0.0116427
6 *571:13 *612:13 0
7 *571:13 *641:13 0.00121061
8 *571:15 *637:17 0.00173852
9 *565:13 *571:13 0
*RES
1 wbs_adr_i[6] *571:7 46.4932 
2 *571:7 *571:13 47.8267 
3 *571:13 *571:15 71.9821 
4 *571:15 *988:wbs_adr_i[6] 1.62607 
*END

*D_NET *572 0.0510719
*CONN
*P wbs_adr_i[7] I
*I *988:wbs_adr_i[7] I *D soc_sys
*CAP
1 wbs_adr_i[7] 0.00163491
2 *988:wbs_adr_i[7] 0.000962104
3 *572:15 0.00530838
4 *572:11 0.00740034
5 *572:9 0.00468898
6 *572:9 wbs_dat_o[6] 0
7 *572:11 *641:15 0
8 *32:37 *572:15 0.00215134
9 *105:44 *572:15 0.00144381
10 *143:13 *572:15 0.00179163
11 *544:15 *572:15 0.0133821
12 *570:17 *572:15 0.0123083
*RES
1 wbs_adr_i[7] *572:9 36.9439 
2 *572:9 *572:11 68.295 
3 *572:11 *572:15 42.7461 
4 *572:15 *988:wbs_adr_i[7] 23.8568 
*END

*D_NET *573 0.0531816
*CONN
*P wbs_adr_i[8] I
*I *988:wbs_adr_i[8] I *D soc_sys
*CAP
1 wbs_adr_i[8] 0.00490792
2 *988:wbs_adr_i[8] 9.33322e-05
3 *573:15 0.00562612
4 *573:13 0.00553278
5 *573:11 0.00490792
6 *573:11 wbs_dat_o[7] 0.0137243
7 *573:11 wbs_dat_o[9] 0.000781707
8 *573:11 *574:9 0.00214406
9 *573:11 *577:21 9.83828e-05
10 *573:11 *578:9 0.0140103
11 *573:11 *606:7 0
12 *573:11 *614:13 0.000382346
13 *573:11 *616:13 0.00097241
14 *573:15 *586:7 0
15 *553:9 *573:15 0
*RES
1 wbs_adr_i[8] *573:11 47.5015 
2 *573:11 *573:13 8 
3 *573:13 *573:15 115.648 
4 *573:15 *988:wbs_adr_i[8] 1.62607 
*END

*D_NET *574 0.0493173
*CONN
*P wbs_adr_i[9] I
*I *988:wbs_adr_i[9] I *D soc_sys
*CAP
1 wbs_adr_i[9] 0.00913769
2 *988:wbs_adr_i[9] 9.33322e-05
3 *574:15 0.00573257
4 *574:13 0.00566646
5 *574:9 0.00916491
6 *574:9 *577:21 9.83828e-05
7 *574:9 *578:9 0.0172799
8 *574:15 *589:9 0
9 *574:15 *589:11 0
10 *556:9 *574:15 0
11 *573:11 *574:9 0.00214406
*RES
1 wbs_adr_i[9] *574:9 49.7046 
2 *574:9 *574:13 8.62143 
3 *574:13 *574:15 117.056 
4 *574:15 *988:wbs_adr_i[9] 1.62607 
*END

*D_NET *575 0.0229812
*CONN
*P wbs_cyc_i I
*I *988:wbs_cyc_i I *D soc_sys
*CAP
1 wbs_cyc_i 0.00155525
2 *988:wbs_cyc_i 0.00230285
3 *575:11 0.00528886
4 *575:9 0.00454126
5 *988:wbs_cyc_i *576:17 0.00315788
6 *988:wbs_cyc_i *619:25 0
7 *32:37 *988:wbs_cyc_i 0.000748309
8 *44:39 *988:wbs_cyc_i 4.51797e-05
9 *105:44 *988:wbs_cyc_i 0.000430589
10 *143:13 *988:wbs_cyc_i 0.000361548
11 *541:25 *988:wbs_cyc_i 3.24898e-05
12 *542:15 *988:wbs_cyc_i 0.00451703
13 *542:17 *575:9 0
14 *542:17 *575:11 0
*RES
1 wbs_cyc_i *575:9 36.2396 
2 *575:9 *575:11 68.9993 
3 *575:11 *988:wbs_cyc_i 41.5125 
*END

*D_NET *576 0.0262758
*CONN
*P wbs_dat_i[0] I
*I *988:wbs_dat_i[0] I *D soc_sys
*CAP
1 wbs_dat_i[0] 4.49146e-05
2 *988:wbs_dat_i[0] 0.000926234
3 *576:17 0.00366856
4 *576:7 0.00636639
5 *576:5 0.00366898
6 *988:wbs_dat_i[0] *633:17 0
7 *576:7 wbs_dat_o[0] 0
8 *576:17 *988:wbs_sel_i[0] 0.00609067
9 *988:wbs_cyc_i *576:17 0.00315788
10 *32:37 *576:17 0.000843751
11 *105:44 *576:17 0.000346501
12 *143:13 *576:17 0.0011619
*RES
1 wbs_dat_i[0] *576:5 1.02536 
2 *576:5 *576:7 84.1414 
3 *576:7 *576:17 48.6861 
4 *576:17 *988:wbs_dat_i[0] 15.8568 
*END

*D_NET *577 0.0519897
*CONN
*P wbs_dat_i[10] I
*I *988:wbs_dat_i[10] I *D soc_sys
*CAP
1 wbs_dat_i[10] 0.0251634
2 *988:wbs_dat_i[10] 0.000367427
3 *577:21 0.0255308
4 *66:25 *988:wbs_dat_i[10] 4.93791e-05
5 *541:27 *988:wbs_dat_i[10] 7.51535e-06
6 *557:21 *577:21 0.000674419
7 *573:11 *577:21 9.83828e-05
8 *574:9 *577:21 9.83828e-05
*RES
1 wbs_dat_i[10] *577:21 45.4918 
2 *577:21 *988:wbs_dat_i[10] 21.3914 
*END

*D_NET *578 0.0659265
*CONN
*P wbs_dat_i[11] I
*I *988:wbs_dat_i[11] I *D soc_sys
*CAP
1 wbs_dat_i[11] 8.74321e-05
2 *988:wbs_dat_i[11] 9.33322e-05
3 *578:13 0.00573818
4 *578:11 0.00564485
5 *578:9 0.00790642
6 *578:7 0.00799385
7 *578:9 *616:13 0.00112436
8 *578:9 *621:13 0.00332869
9 *578:9 *623:13 0.00271913
10 *578:13 *593:9 0
11 *578:13 *593:13 0
12 *560:11 *578:13 0
13 *573:11 *578:9 0.0140103
14 *574:9 *578:9 0.0172799
*RES
1 wbs_dat_i[11] *578:7 9.97821 
2 *578:7 *578:9 45.7371 
3 *578:9 *578:11 8 
4 *578:11 *578:13 116.352 
5 *578:13 *988:wbs_dat_i[11] 1.62607 
*END

*D_NET *579 0.061461
*CONN
*P wbs_dat_i[12] I
*I *988:wbs_dat_i[12] I *D soc_sys
*CAP
1 wbs_dat_i[12] 0.000348958
2 *988:wbs_dat_i[12] 0.000168989
3 *579:15 0.00446992
4 *579:13 0.00430093
5 *579:11 0.00759748
6 *579:9 0.00794644
7 *579:11 wbs_dat_o[6] 0.00464761
8 *579:11 wbs_dat_o[9] 0.000676804
9 *579:11 *582:11 0.00563402
10 *579:11 *614:13 0.0200136
11 *42:27 *579:15 3.87221e-06
12 *557:21 *579:11 0.00123198
13 *562:13 *579:15 0.0022852
14 *562:15 *579:15 0.00213519
*RES
1 wbs_dat_i[12] *579:9 14.3489 
2 *579:9 *579:11 48.1413 
3 *579:11 *579:13 8 
4 *579:13 *579:15 112.831 
5 *579:15 *988:wbs_dat_i[12] 2.1025 
*END

*D_NET *580 0.0560207
*CONN
*P wbs_dat_i[13] I
*I *988:wbs_dat_i[13] I *D soc_sys
*CAP
1 wbs_dat_i[13] 0.00103096
2 *988:wbs_dat_i[13] 9.33322e-05
3 *580:15 0.00430034
4 *580:13 0.00420701
5 *580:11 0.0116601
6 *580:9 0.0126911
7 *580:9 *635:21 0.00220515
8 *580:11 *591:11 0.00957448
9 *580:11 *604:13 0.00500105
10 *580:11 *610:13 0
11 *580:11 *617:13 0
12 *580:15 wbs_dat_o[28] 0
13 *580:15 *628:17 0
14 *551:11 *580:11 0.00525718
*RES
1 wbs_dat_i[13] *580:9 39.9311 
2 *580:9 *580:11 51.0608 
3 *580:11 *580:13 8 
4 *580:13 *580:15 86.0679 
5 *580:15 *988:wbs_dat_i[13] 1.62607 
*END

*D_NET *581 0.0728426
*CONN
*P wbs_dat_i[14] I
*I *988:wbs_dat_i[14] I *D soc_sys
*CAP
1 wbs_dat_i[14] 0.00172468
2 *988:wbs_dat_i[14] 0.000582617
3 *581:15 0.0069325
4 *581:13 0.00634988
5 *581:11 0.00332335
6 *581:9 0.00504803
7 *988:wbs_dat_i[14] *631:17 0.000260161
8 *581:11 *988:wbs_dat_i[5] 0
9 *581:11 *613:17 0
10 *32:37 *581:15 0.00535386
11 *37:37 *581:15 0.00158481
12 *115:17 *581:15 0.0155427
13 *118:13 *581:15 0.0261399
*RES
1 wbs_dat_i[14] *581:9 36.9439 
2 *581:9 *581:11 73.225 
3 *581:11 *581:13 8 
4 *581:13 *581:15 53.8944 
5 *581:15 *988:wbs_dat_i[14] 18.9268 
*END

*D_NET *582 0.0691286
*CONN
*P wbs_dat_i[15] I
*I *988:wbs_dat_i[15] I *D soc_sys
*CAP
1 wbs_dat_i[15] 0.000460597
2 *988:wbs_dat_i[15] 9.33322e-05
3 *582:15 0.00539887
4 *582:13 0.00530553
5 *582:11 0.00862637
6 *582:9 0.00908697
7 *582:11 *583:11 0.0287208
8 *582:11 *614:13 0.00171585
9 *557:21 *582:11 0.00408622
10 *579:11 *582:11 0.00563402
*RES
1 wbs_dat_i[15] *582:9 17.1661 
2 *582:9 *582:11 56.2128 
3 *582:11 *582:13 8 
4 *582:13 *582:15 109.309 
5 *582:15 *988:wbs_dat_i[15] 1.62607 
*END

*D_NET *583 0.0856789
*CONN
*P wbs_dat_i[16] I
*I *988:wbs_dat_i[16] I *D soc_sys
*CAP
1 wbs_dat_i[16] 0.000498151
2 *988:wbs_dat_i[16] 9.33322e-05
3 *583:15 0.0053453
4 *583:13 0.00525196
5 *583:11 0.00775951
6 *583:9 0.00825766
7 *583:11 *585:11 0.000195725
8 *583:11 *588:11 0.000482382
9 *583:11 *614:13 0
10 *583:11 *616:13 0
11 *550:7 *583:9 0
12 *552:11 *583:11 0
13 *553:11 *583:11 0.000496136
14 *555:11 *583:11 0.00020766
15 *556:11 *583:11 0.0236017
16 *557:21 *583:11 0.00476852
17 *582:11 *583:11 0.0287208
*RES
1 wbs_dat_i[16] *583:9 17.6218 
2 *583:9 *583:11 59.304 
3 *583:11 *583:13 8 
4 *583:13 *583:15 108.605 
5 *583:15 *988:wbs_dat_i[16] 1.62607 
*END

*D_NET *584 0.0770215
*CONN
*P wbs_dat_i[17] I
*I *988:wbs_dat_i[17] I *D soc_sys
*CAP
1 wbs_dat_i[17] 4.50212e-05
2 *988:wbs_dat_i[17] 9.33322e-05
3 *584:15 0.00315236
4 *584:13 0.00305903
5 *584:11 0.0110416
6 *584:9 0.0110416
7 *584:7 0.00249273
8 *584:5 0.00253775
9 *584:11 *593:15 0.0184094
10 *584:11 *618:13 0
11 *549:11 *584:11 0.0251487
12 *550:11 *584:11 0
13 *551:9 *584:7 0
*RES
1 wbs_dat_i[17] *584:5 1.02536 
2 *584:5 *584:7 53.6707 
3 *584:7 *584:9 8 
4 *584:9 *584:11 61.9659 
5 *584:11 *584:13 8 
6 *584:13 *584:15 63.5307 
7 *584:15 *988:wbs_dat_i[17] 1.62607 
*END

*D_NET *585 0.0918857
*CONN
*P wbs_dat_i[18] I
*I *988:wbs_dat_i[18] I *D soc_sys
*CAP
1 wbs_dat_i[18] 0.000672033
2 *988:wbs_dat_i[18] 9.40511e-05
3 *585:15 0.00516337
4 *585:13 0.00506932
5 *585:11 0.00655017
6 *585:9 0.0072222
7 *585:9 wbs_dat_o[18] 0
8 *585:11 *599:11 0
9 *552:11 *585:11 0.0334857
10 *553:11 *585:11 0.0334332
11 *583:11 *585:11 0.000195725
*RES
1 wbs_dat_i[18] *585:9 21.3918 
2 *585:9 *585:11 64.0267 
3 *585:11 *585:13 8 
4 *585:13 *585:15 105.084 
5 *585:15 *988:wbs_dat_i[18] 1.62607 
*END

*D_NET *586 0.0810429
*CONN
*P wbs_dat_i[19] I
*I *988:wbs_dat_i[19] I *D soc_sys
*CAP
1 wbs_dat_i[19] 0.00224477
2 *988:wbs_dat_i[19] 9.33322e-05
3 *586:15 0.0035127
4 *586:13 0.00341937
5 *586:11 0.0112652
6 *586:9 0.0112652
7 *586:7 0.00224477
8 *586:7 *618:17 0
9 *586:11 *595:11 0.0217182
10 *586:11 *600:11 0
11 *550:11 *586:11 0.0252793
12 *573:15 *586:7 0
*RES
1 wbs_dat_i[19] *586:7 47.1975 
2 *586:7 *586:9 8 
3 *586:9 *586:11 66.6885 
4 *586:11 *586:13 8 
5 *586:13 *586:15 71.2779 
6 *586:15 *988:wbs_dat_i[19] 1.62607 
*END

*D_NET *587 0.0289007
*CONN
*P wbs_dat_i[1] I
*I *988:wbs_dat_i[1] I *D soc_sys
*CAP
1 wbs_dat_i[1] 0.00160118
2 *988:wbs_dat_i[1] 0.000658694
3 *587:25 0.00464398
4 *587:11 0.00785603
5 *587:9 0.00547192
6 *587:25 *619:21 0.00681294
7 *988:io_in[20] *587:25 0.00128076
8 *988:wbs_adr_i[3] *988:wbs_dat_i[1] 9.80974e-05
9 *43:35 *587:11 4.13527e-05
10 *44:39 *587:25 9.51734e-05
11 *45:25 *587:25 0
12 *540:25 *587:25 0.000244588
13 *541:27 *988:wbs_dat_i[1] 9.59396e-05
14 *542:15 *587:11 0
*RES
1 wbs_dat_i[1] *587:9 36.2396 
2 *587:9 *587:11 81.6764 
3 *587:11 *587:25 49.9331 
4 *587:25 *988:wbs_dat_i[1] 20.182 
*END

*D_NET *588 0.115516
*CONN
*P wbs_dat_i[20] I
*I *988:wbs_dat_i[20] I *D soc_sys
*CAP
1 wbs_dat_i[20] 0.000540213
2 *988:wbs_dat_i[20] 9.33322e-05
3 *588:15 0.00513576
4 *588:13 0.00504243
5 *588:11 0.00714769
6 *588:9 0.0076879
7 *588:11 *599:11 0
8 *555:11 *588:11 0.0363604
9 *556:11 *588:11 0.0364682
10 *557:21 *588:11 0.00557576
11 *561:11 *588:11 0.00571986
12 *564:11 *588:11 0.00526167
13 *583:11 *588:11 0.000482382
*RES
1 wbs_dat_i[20] *588:9 18.8025 
2 *588:9 *588:11 69.3504 
3 *588:11 *588:13 8 
4 *588:13 *588:15 107.196 
5 *588:15 *988:wbs_dat_i[20] 1.62607 
*END

*D_NET *589 0.0849985
*CONN
*P wbs_dat_i[21] I
*I *988:wbs_dat_i[21] I *D soc_sys
*CAP
1 wbs_dat_i[21] 0.00175852
2 *988:wbs_dat_i[21] 0.000910833
3 *589:15 0.0112253
4 *589:13 0.0103145
5 *589:11 0.00311082
6 *589:9 0.00486934
7 *32:37 *589:15 0.00461628
8 *105:44 *589:15 0.00054585
9 *143:13 *589:15 0.0106721
10 *544:15 *589:15 0.00273129
11 *559:15 *589:15 0.0342437
12 *574:15 *589:9 0
13 *574:15 *589:11 0
*RES
1 wbs_dat_i[21] *589:9 36.2396 
2 *589:9 *589:11 68.295 
3 *589:11 *589:13 8 
4 *589:13 *589:15 72.2699 
5 *589:15 *988:wbs_dat_i[21] 23.8568 
*END

*D_NET *590 0.0814718
*CONN
*P wbs_dat_i[22] I
*I *988:wbs_dat_i[22] I *D soc_sys
*CAP
1 wbs_dat_i[22] 0.00180591
2 *988:wbs_dat_i[22] 0.00126632
3 *590:15 0.0168688
4 *590:13 0.0156025
5 *590:11 0.00277686
6 *590:9 0.00458277
7 *590:15 *592:15 0
8 *105:44 *590:15 0
9 *545:15 *590:15 0.0040206
10 *557:21 *590:9 0
11 *560:15 *590:15 0.0345481
*RES
1 wbs_dat_i[22] *590:9 36.9439 
2 *590:9 *590:11 61.2521 
3 *590:11 *590:13 8 
4 *590:13 *590:15 74.8459 
5 *590:15 *988:wbs_dat_i[22] 30.8996 
*END

*D_NET *591 0.0965461
*CONN
*P wbs_dat_i[23] I
*I *988:wbs_dat_i[23] I *D soc_sys
*CAP
1 wbs_dat_i[23] 0.00164028
2 *988:wbs_dat_i[23] 9.33322e-05
3 *591:15 0.00409157
4 *591:13 0.00399824
5 *591:11 0.0122911
6 *591:9 0.0139314
7 *591:11 *597:11 0.0299861
8 *551:11 *591:11 0.0209397
9 *558:9 *591:9 0
10 *580:11 *591:11 0.00957448
*RES
1 wbs_dat_i[23] *591:9 40.8632 
2 *591:9 *591:11 77.5936 
3 *591:11 *591:13 8 
4 *591:13 *591:15 85.3636 
5 *591:15 *988:wbs_dat_i[23] 1.62607 
*END

*D_NET *592 0.086135
*CONN
*P wbs_dat_i[24] I
*I *988:wbs_dat_i[24] I *D soc_sys
*CAP
1 wbs_dat_i[24] 0.00183457
2 *988:wbs_dat_i[24] 0.00153511
3 *592:15 0.0176403
4 *592:13 0.0161052
5 *592:11 0.00245594
6 *592:9 0.00429051
7 *545:15 *592:15 0
8 *546:15 *592:15 0.00380534
9 *560:15 *592:15 0
10 *562:19 *592:15 0.038468
11 *590:15 *592:15 0
*RES
1 wbs_dat_i[24] *592:9 36.9439 
2 *592:9 *592:11 54.2093 
3 *592:11 *592:13 8 
4 *592:13 *592:15 80.0837 
5 *592:15 *988:wbs_dat_i[24] 37.9425 
*END

*D_NET *593 0.0936593
*CONN
*P wbs_dat_i[25] I
*I *988:wbs_dat_i[25] I *D soc_sys
*CAP
1 wbs_dat_i[25] 0.000806036
2 *988:wbs_dat_i[25] 9.33322e-05
3 *593:19 0.00309693
4 *593:17 0.0030036
5 *593:15 0.0153897
6 *593:13 0.0172168
7 *593:9 0.00263311
8 *593:15 *600:11 0.0330104
9 *593:15 *618:13 0
10 *593:19 *625:17 0
11 *550:11 *593:15 0
12 *578:13 *593:9 0
13 *578:13 *593:13 0
14 *584:11 *593:15 0.0184094
*RES
1 wbs_dat_i[25] *593:9 15.0282 
2 *593:9 *593:13 47.73 
3 *593:13 *593:15 82.5739 
4 *593:15 *593:17 8 
5 *593:17 *593:19 64.235 
6 *593:19 *988:wbs_dat_i[25] 1.62607 
*END

*D_NET *594 0.0637507
*CONN
*P wbs_dat_i[26] I
*I *988:wbs_dat_i[26] I *D soc_sys
*CAP
1 wbs_dat_i[26] 4.49146e-05
2 *988:wbs_dat_i[26] 0.00191051
3 *594:11 0.02802
4 *594:9 0.0261095
5 *594:7 0.00381044
6 *594:5 0.00385535
7 *988:wbs_dat_i[26] *629:17 0
8 *594:11 *613:13 0
9 *546:15 *594:11 0
10 *561:9 *594:7 0
11 *562:19 *594:11 0
*RES
1 wbs_dat_i[26] *594:5 1.02536 
2 *594:5 *594:7 80.4336 
3 *594:7 *594:9 8 
4 *594:9 *594:11 85.4933 
5 *594:11 *988:wbs_dat_i[26] 45.6896 
*END

*D_NET *595 0.0782275
*CONN
*P wbs_dat_i[27] I
*I *988:wbs_dat_i[27] I *D soc_sys
*CAP
1 wbs_dat_i[27] 0.00221675
2 *988:wbs_dat_i[27] 0.000104115
3 *595:15 0.00344704
4 *595:13 0.00334292
5 *595:11 0.0225909
6 *595:9 0.0225909
7 *595:7 0.00221675
8 *595:11 *600:11 0
9 *595:11 *612:13 0
10 *586:11 *595:11 0.0217182
*RES
1 wbs_dat_i[27] *595:7 46.0168 
2 *595:7 *595:9 8 
3 *595:9 *595:11 87.64 
4 *595:11 *595:13 8 
5 *595:13 *595:15 71.9821 
6 *595:15 *988:wbs_dat_i[27] 1.62607 
*END

*D_NET *596 0.0963334
*CONN
*P wbs_dat_i[28] I
*I *988:wbs_dat_i[28] I *D soc_sys
*CAP
1 wbs_dat_i[28] 4.49146e-05
2 *988:wbs_dat_i[28] 9.33322e-05
3 *596:15 0.00249212
4 *596:13 0.00239879
5 *596:11 0.0184767
6 *596:9 0.0184767
7 *596:7 0.00319135
8 *596:5 0.00323626
9 *596:11 *618:13 0
10 *547:15 *596:7 4.77164e-06
11 *563:11 *596:11 0.0479185
*RES
1 wbs_dat_i[28] *596:5 1.02536 
2 *596:5 *596:7 66.3479 
3 *596:7 *596:9 8 
4 *596:9 *596:11 90.7312 
5 *596:11 *596:13 8 
6 *596:13 *596:15 50.8536 
7 *596:15 *988:wbs_dat_i[28] 1.62607 
*END

*D_NET *597 0.085511
*CONN
*P wbs_dat_i[29] I
*I *988:wbs_dat_i[29] I *D soc_sys
*CAP
1 wbs_dat_i[29] 0.0016036
2 *988:wbs_dat_i[29] 9.33322e-05
3 *597:15 0.00400205
4 *597:13 0.00390871
5 *597:11 0.0221568
6 *597:9 0.0237604
7 *597:11 *617:13 0
8 *591:11 *597:11 0.0299861
*RES
1 wbs_dat_i[29] *597:9 40.4075 
2 *597:9 *597:11 92.792 
3 *597:11 *597:13 8 
4 *597:13 *597:15 86.0679 
5 *597:15 *988:wbs_dat_i[29] 1.62607 
*END

*D_NET *598 0.0279382
*CONN
*P wbs_dat_i[2] I
*I *988:wbs_dat_i[2] I *D soc_sys
*CAP
1 wbs_dat_i[2] 4.49146e-05
2 *988:wbs_dat_i[2] 0.00197112
3 *598:13 0.00680696
4 *598:7 0.00833146
5 *598:5 0.00354054
6 *598:13 *602:17 0.00655293
7 *598:13 *642:17 0
8 *598:13 *643:13 0.000690296
9 *565:9 *598:7 0
*RES
1 wbs_dat_i[2] *598:5 1.02536 
2 *598:5 *598:7 80.4336 
3 *598:7 *598:13 37.0075 
4 *598:13 *988:wbs_dat_i[2] 37.6896 
*END

*D_NET *599 0.100114
*CONN
*P wbs_dat_i[30] I
*I *988:wbs_dat_i[30] I *D soc_sys
*CAP
1 wbs_dat_i[30] 0.000978681
2 *988:wbs_dat_i[30] 9.33322e-05
3 *599:15 0.0046266
4 *599:13 0.00453327
5 *599:11 0.0186802
6 *599:9 0.0196589
7 *552:11 *599:11 0.00225481
8 *553:11 *599:11 0
9 *555:11 *599:11 0
10 *556:11 *599:11 0
11 *566:9 *599:9 0
12 *566:11 *599:11 0.0492886
13 *585:11 *599:11 0
14 *588:11 *599:11 0
*RES
1 wbs_dat_i[30] *599:9 26.0732 
2 *599:9 *599:11 95.9691 
3 *599:11 *599:13 8 
4 *599:13 *599:15 100.858 
5 *599:15 *988:wbs_dat_i[30] 1.62607 
*END

*D_NET *600 0.091418
*CONN
*P wbs_dat_i[31] I
*I *988:wbs_dat_i[31] I *D soc_sys
*CAP
1 wbs_dat_i[31] 4.49146e-05
2 *988:wbs_dat_i[31] 9.33322e-05
3 *600:15 0.00305629
4 *600:13 0.00296296
5 *600:11 0.0235278
6 *600:9 0.0235278
7 *600:7 0.00257483
8 *600:5 0.00261975
9 *550:11 *600:11 0
10 *567:9 *600:7 0
11 *586:11 *600:11 0
12 *593:15 *600:11 0.0330104
13 *595:11 *600:11 0
*RES
1 wbs_dat_i[31] *600:5 1.02536 
2 *600:5 *600:7 52.2621 
3 *600:7 *600:9 8 
4 *600:9 *600:11 98.5451 
5 *600:11 *600:13 8 
6 *600:13 *600:15 64.9393 
7 *600:15 *988:wbs_dat_i[31] 1.62607 
*END

*D_NET *601 0.0299185
*CONN
*P wbs_dat_i[3] I
*I *988:wbs_dat_i[3] I *D soc_sys
*CAP
1 wbs_dat_i[3] 0.00138841
2 *988:wbs_dat_i[3] 9.40511e-05
3 *601:15 0.00426314
4 *601:13 0.0100683
5 *601:9 0.0072876
6 *601:9 wbs_dat_o[3] 0
7 *601:13 *604:13 0.00681707
8 *565:13 *601:13 0
*RES
1 wbs_dat_i[3] *601:9 39.9311 
2 *601:9 *601:13 32.0128 
3 *601:13 *601:15 86.0679 
4 *601:15 *988:wbs_dat_i[3] 1.62607 
*END

*D_NET *602 0.0438912
*CONN
*P wbs_dat_i[4] I
*I *988:wbs_dat_i[4] I *D soc_sys
*CAP
1 wbs_dat_i[4] 0.000155038
2 *988:wbs_dat_i[4] 0.0019283
3 *602:17 0.00550631
4 *602:11 0.00707537
5 *602:9 0.00365239
6 *602:17 *607:11 0.00611233
7 *602:17 *609:13 0
8 *602:17 *643:13 0.0129086
9 *546:15 *602:17 0
10 *598:13 *602:17 0.00655293
*RES
1 wbs_dat_i[4] *602:9 3.90464 
2 *602:9 *602:11 79.7293 
3 *602:11 *602:17 43.8768 
4 *602:17 *988:wbs_dat_i[4] 36.9854 
*END

*D_NET *603 0.0407706
*CONN
*P wbs_dat_i[5] I
*I *988:wbs_dat_i[5] I *D soc_sys
*CAP
1 wbs_dat_i[5] 0.0015683
2 *988:wbs_dat_i[5] 0.00129135
3 *603:17 0.00717396
4 *603:11 0.00859584
5 *603:9 0.00428154
6 *603:17 *609:13 0
7 *105:44 *603:17 0
8 *545:15 *603:17 0.006089
9 *569:17 *603:17 0.0117706
10 *581:11 *988:wbs_dat_i[5] 0
*RES
1 wbs_dat_i[5] *603:9 36.2396 
2 *603:9 *603:11 61.2521 
3 *603:11 *603:17 46.3669 
4 *603:17 *988:wbs_dat_i[5] 22.8996 
*END

*D_NET *604 0.0386656
*CONN
*P wbs_dat_i[6] I
*I *988:wbs_dat_i[6] I *D soc_sys
*CAP
1 wbs_dat_i[6] 0.00144197
2 *988:wbs_dat_i[6] 9.33322e-05
3 *604:15 0.00416825
4 *604:13 0.0118884
5 *604:9 0.00925547
6 *604:13 *610:13 0
7 *604:13 *612:13 0
8 *550:7 *604:15 0
9 *565:13 *604:13 0
10 *580:11 *604:13 0.00500105
11 *601:13 *604:13 0.00681707
*RES
1 wbs_dat_i[6] *604:9 40.6354 
2 *604:9 *604:13 40.7712 
3 *604:13 *604:15 85.3636 
4 *604:15 *988:wbs_dat_i[6] 1.62607 
*END

*D_NET *605 0.0387716
*CONN
*P wbs_dat_i[7] I
*I *988:wbs_dat_i[7] I *D soc_sys
*CAP
1 wbs_dat_i[7] 0.000781899
2 *988:wbs_dat_i[7] 9.33322e-05
3 *605:15 0.00485724
4 *605:13 0.0137356
5 *605:9 0.0097536
6 *605:13 *615:13 0.00236347
7 *548:11 *605:13 0.00718643
*RES
1 wbs_dat_i[7] *605:9 25.3689 
2 *605:9 *605:13 43.4331 
3 *605:13 *605:15 100.154 
4 *605:15 *988:wbs_dat_i[7] 1.62607 
*END

*D_NET *606 0.0425858
*CONN
*P wbs_dat_i[8] I
*I *988:wbs_dat_i[8] I *D soc_sys
*CAP
1 wbs_dat_i[8] 4.53735e-05
2 *988:wbs_dat_i[8] 9.33322e-05
3 *606:15 0.00256152
4 *606:13 0.00246819
5 *606:11 0.00939985
6 *606:7 0.0124729
7 *606:5 0.00311839
8 *606:7 *630:9 0
9 *606:11 *611:13 0
10 *606:11 *613:13 0
11 *547:11 *606:11 0.0124262
12 *573:11 *606:7 0
*RES
1 wbs_dat_i[8] *606:5 1.02536 
2 *606:5 *606:7 67.0521 
3 *606:7 *606:11 46.4384 
4 *606:11 *606:13 8 
5 *606:13 *606:15 50.1493 
6 *606:15 *988:wbs_dat_i[8] 1.62607 
*END

*D_NET *607 0.0403435
*CONN
*P wbs_dat_i[9] I
*I *988:wbs_dat_i[9] I *D soc_sys
*CAP
1 wbs_dat_i[9] 4.53735e-05
2 *988:wbs_dat_i[9] 0.00197382
3 *607:11 0.0133672
4 *607:7 0.0150964
5 *607:5 0.00374844
6 *607:11 *613:13 0
7 *546:15 *607:11 0
8 *602:17 *607:11 0.00611233
*RES
1 wbs_dat_i[9] *607:5 1.02536 
2 *607:5 *607:7 81.1379 
3 *607:7 *607:11 49.0144 
4 *607:11 *988:wbs_dat_i[9] 45.6896 
*END

*D_NET *608 0.0263812
*CONN
*P wbs_dat_o[0] O
*I *988:wbs_dat_o[0] O *D soc_sys
*CAP
1 wbs_dat_o[0] 0.00157897
2 *988:wbs_dat_o[0] 0.00244431
3 *608:29 0.00521099
4 *608:27 0.00393257
5 *608:23 0.00274486
6 *608:23 *988:wbs_stb_i 0.00244115
7 *988:wbs_adr_i[3] *608:23 0.000938159
8 *36:29 *608:27 0.000337335
9 *42:43 *608:23 4.07138e-06
10 *43:35 *608:23 0.000954471
11 *66:25 *608:23 0.00511953
12 *113:29 *608:27 0
13 *541:15 *608:29 0
14 *541:19 *608:27 0.000193448
15 *541:27 *608:23 0.000481336
16 *576:7 wbs_dat_o[0] 0
*RES
1 *988:wbs_dat_o[0] *608:23 49.7885 
2 *608:23 *608:27 25.15 
3 *608:27 *608:29 79.3875 
4 *608:29 wbs_dat_o[0] 36.2396 
*END

*D_NET *609 0.0518953
*CONN
*P wbs_dat_o[10] O
*I *988:wbs_dat_o[10] O *D soc_sys
*CAP
1 wbs_dat_o[10] 0.00167412
2 *988:wbs_dat_o[10] 0.00140539
3 *609:17 0.00406816
4 *609:15 0.00239404
5 *609:13 0.0094546
6 *609:11 0.01086
7 *609:13 *643:13 0
8 *545:15 *609:13 0
9 *546:15 *609:13 0.0215112
10 *559:11 *609:11 0.00052782
11 *602:17 *609:13 0
12 *603:17 *609:13 0
*RES
1 *988:wbs_dat_o[10] *609:11 37.9425 
2 *609:11 *609:13 44.3632 
3 *609:13 *609:15 8 
4 *609:15 *609:17 54.2093 
5 *609:17 wbs_dat_o[10] 36.9439 
*END

*D_NET *610 0.048357
*CONN
*P wbs_dat_o[11] O
*I *988:wbs_dat_o[11] O *D soc_sys
*CAP
1 wbs_dat_o[11] 0.00120879
2 *988:wbs_dat_o[11] 9.33322e-05
3 *610:13 0.0132098
4 *610:11 0.012001
5 *610:9 0.00443507
6 *610:7 0.0045284
7 *610:13 *615:13 0
8 *610:13 *617:13 0.0128807
9 *580:11 *610:13 0
10 *604:13 *610:13 0
*RES
1 *988:wbs_dat_o[11] *610:7 1.62607 
2 *610:7 *610:9 92.4064 
3 *610:9 *610:11 8 
4 *610:11 *610:13 47.1109 
5 *610:13 wbs_dat_o[11] 33.8204 
*END

*D_NET *611 0.0504057
*CONN
*P wbs_dat_o[12] O
*I *988:wbs_dat_o[12] O *D soc_sys
*CAP
1 wbs_dat_o[12] 4.49146e-05
2 *988:wbs_dat_o[12] 9.40511e-05
3 *611:17 0.00276414
4 *611:15 0.00271923
5 *611:13 0.0123203
6 *611:11 0.0123203
7 *611:9 0.00285
8 *611:7 0.00294406
9 *611:13 *618:13 0.0143486
10 *547:11 *611:13 0
11 *549:11 *611:13 0
12 *606:11 *611:13 0
*RES
1 *988:wbs_dat_o[12] *611:7 1.62607 
2 *611:7 *611:9 57.1921 
3 *611:9 *611:11 8 
4 *611:11 *611:13 49.7728 
5 *611:13 *611:15 8 
6 *611:15 *611:17 60.0093 
7 *611:17 wbs_dat_o[12] 1.02536 
*END

*D_NET *612 0.0428379
*CONN
*P wbs_dat_o[13] O
*I *988:wbs_dat_o[13] O *D soc_sys
*CAP
1 wbs_dat_o[13] 0.0018149
2 *988:wbs_dat_o[13] 9.33322e-05
3 *612:13 0.017505
4 *612:11 0.01569
5 *612:9 0.00382067
6 *612:7 0.003914
7 *548:9 wbs_dat_o[13] 0
8 *551:11 *612:13 0
9 *571:13 *612:13 0
10 *595:11 *612:13 0
11 *604:13 *612:13 0
*RES
1 *988:wbs_dat_o[13] *612:7 1.62607 
2 *612:7 *612:9 79.025 
3 *612:9 *612:11 8 
4 *612:11 *612:13 51.8336 
5 *612:13 wbs_dat_o[13] 47.4504 
*END

*D_NET *613 0.0446166
*CONN
*P wbs_dat_o[14] O
*I *988:wbs_dat_o[14] O *D soc_sys
*CAP
1 wbs_dat_o[14] 4.53735e-05
2 *988:wbs_dat_o[14] 0.00224765
3 *613:17 0.00348473
4 *613:15 0.00343935
5 *613:13 0.0165759
6 *613:11 0.0165759
7 *613:9 0.00224765
8 *563:11 *613:13 0
9 *581:11 *613:17 0
10 *594:11 *613:13 0
11 *606:11 *613:13 0
12 *607:11 *613:13 0
*RES
1 *988:wbs_dat_o[14] *613:9 44.7325 
2 *613:9 *613:11 8 
3 *613:11 *613:13 55.0107 
4 *613:13 *613:15 8 
5 *613:15 *613:17 74.095 
6 *613:17 wbs_dat_o[14] 1.02536 
*END

*D_NET *614 0.0798488
*CONN
*P wbs_dat_o[15] O
*I *988:wbs_dat_o[15] O *D soc_sys
*CAP
1 wbs_dat_o[15] 0.000236519
2 *988:wbs_dat_o[15] 9.33322e-05
3 *614:13 0.00747512
4 *614:11 0.0072386
5 *614:9 0.00545463
6 *614:7 0.00554796
7 wbs_dat_o[15] *637:17 0.00016857
8 *614:13 wbs_dat_o[9] 0.0021877
9 *614:13 *616:13 0.0271237
10 *557:21 *614:13 0.00221077
11 *573:11 *614:13 0.000382346
12 *579:11 *614:13 0.0200136
13 *582:11 *614:13 0.00171585
14 *583:11 *614:13 0
*RES
1 *988:wbs_dat_o[15] *614:7 1.62607 
2 *614:7 *614:9 112.831 
3 *614:9 *614:11 8 
4 *614:11 *614:13 57.1573 
5 *614:13 wbs_dat_o[15] 13.1682 
*END

*D_NET *615 0.0592659
*CONN
*P wbs_dat_o[16] O
*I *988:wbs_dat_o[16] O *D soc_sys
*CAP
1 wbs_dat_o[16] 0.000887638
2 *988:wbs_dat_o[16] 9.33322e-05
3 *615:13 0.0145188
4 *615:11 0.0136311
5 *615:9 0.00471744
6 *615:7 0.00481077
7 wbs_dat_o[16] *639:17 0
8 *615:13 *617:13 0
9 *548:11 *615:13 0.0101239
10 *552:11 *615:13 0
11 *566:11 *615:13 0.00811944
12 *605:13 *615:13 0.00236347
13 *610:13 *615:13 0
*RES
1 *988:wbs_dat_o[16] *615:7 1.62607 
2 *615:7 *615:9 99.4493 
3 *615:9 *615:11 8 
4 *615:11 *615:13 59.8192 
5 *615:13 wbs_dat_o[16] 26.0732 
*END

*D_NET *616 0.0761869
*CONN
*P wbs_dat_o[17] O
*I *988:wbs_dat_o[17] O *D soc_sys
*CAP
1 wbs_dat_o[17] 0.000239737
2 *988:wbs_dat_o[17] 9.33322e-05
3 *616:13 0.00884691
4 *616:11 0.00860718
5 *616:9 0.00542182
6 *616:7 0.00551516
7 *616:13 *621:13 0.00949507
8 *616:13 *632:21 0.00865467
9 *556:11 *616:13 0
10 *557:21 *616:13 9.24631e-05
11 *573:11 *616:13 0.00097241
12 *578:9 *616:13 0.00112436
13 *583:11 *616:13 0
14 *614:13 *616:13 0.0271237
*RES
1 *988:wbs_dat_o[17] *616:7 1.62607 
2 *616:7 *616:9 113.535 
3 *616:9 *616:11 8 
4 *616:11 *616:13 62.3093 
5 *616:13 wbs_dat_o[17] 12.9404 
*END

*D_NET *617 0.0588157
*CONN
*P wbs_dat_o[18] O
*I *988:wbs_dat_o[18] O *D soc_sys
*CAP
1 wbs_dat_o[18] 0.00122559
2 *988:wbs_dat_o[18] 9.33322e-05
3 *617:13 0.0184667
4 *617:11 0.0172411
5 *617:9 0.00440743
6 *617:7 0.00450076
7 *566:11 *617:13 0
8 *580:11 *617:13 0
9 *585:9 wbs_dat_o[18] 0
10 *597:11 *617:13 0
11 *610:13 *617:13 0.0128807
12 *615:13 *617:13 0
*RES
1 *988:wbs_dat_o[18] *617:7 1.62607 
2 *617:7 *617:9 93.1107 
3 *617:9 *617:11 8 
4 *617:11 *617:13 65.4005 
5 *617:13 wbs_dat_o[18] 33.1161 
*END

*D_NET *618 0.0615517
*CONN
*P wbs_dat_o[19] O
*I *988:wbs_dat_o[19] O *D soc_sys
*CAP
1 wbs_dat_o[19] 4.49146e-05
2 *988:wbs_dat_o[19] 9.33322e-05
3 *618:17 0.00281962
4 *618:15 0.00277471
5 *618:13 0.0178757
6 *618:11 0.0178757
7 *618:9 0.00281288
8 *618:7 0.00290621
9 *547:11 *618:13 0
10 *549:11 *618:13 0
11 *584:11 *618:13 0
12 *586:7 *618:17 0
13 *593:15 *618:13 0
14 *596:11 *618:13 0
15 *611:13 *618:13 0.0143486
*RES
1 *988:wbs_dat_o[19] *618:7 1.62607 
2 *618:7 *618:9 57.8964 
3 *618:9 *618:11 8 
4 *618:11 *618:13 68.0624 
5 *618:13 *618:15 8 
6 *618:15 *618:17 58.6007 
7 *618:17 wbs_dat_o[19] 1.02536 
*END

*D_NET *619 0.0313242
*CONN
*P wbs_dat_o[1] O
*I *988:wbs_dat_o[1] O *D soc_sys
*CAP
1 wbs_dat_o[1] 0.00155525
2 *988:wbs_dat_o[1] 0.00288449
3 *619:25 0.0053416
4 *619:23 0.00378636
5 *619:21 0.00288449
6 *988:io_in[20] *619:21 0.00185849
7 *988:wbs_cyc_i *619:25 0
8 *44:39 *619:21 5.10636e-05
9 *45:25 *619:21 0
10 *540:25 *619:21 0.00611698
11 *541:25 *619:25 3.24898e-05
12 *587:25 *619:21 0.00681294
*RES
1 *988:wbs_dat_o[1] *619:21 43.7896 
2 *619:21 *619:23 8 
3 *619:23 *619:25 81.6764 
4 *619:25 wbs_dat_o[1] 36.2396 
*END

*D_NET *620 0.0762086
*CONN
*P wbs_dat_o[20] O
*I *988:wbs_dat_o[20] O *D soc_sys
*CAP
1 wbs_dat_o[20] 0.000781954
2 *988:wbs_dat_o[20] 0.00037282
3 *620:33 0.00403882
4 *620:31 0.00487274
5 *620:27 0.00200036
6 *620:17 0.014207
7 *620:15 0.0141953
8 *620:15 *622:13 0.000139707
9 *620:17 *622:13 0.034127
10 *620:27 *639:15 9.28558e-05
11 *114:13 *620:17 0
12 *540:25 *620:15 0.000301272
13 *540:25 *620:17 0.000989561
14 *541:27 *620:27 8.91416e-05
15 *556:9 wbs_dat_o[20] 0
*RES
1 *988:wbs_dat_o[20] *620:15 25.681 
2 *620:15 *620:17 69.7797 
3 *620:17 *620:27 25.0024 
4 *620:27 *620:31 31.5686 
5 *620:31 *620:33 71.6093 
6 *620:33 wbs_dat_o[20] 15.0282 
*END

*D_NET *621 0.0905213
*CONN
*P wbs_dat_o[21] O
*I *988:wbs_dat_o[21] O *D soc_sys
*CAP
1 wbs_dat_o[21] 0.000146339
2 *988:wbs_dat_o[21] 9.33322e-05
3 *621:13 0.00827562
4 *621:11 0.00812928
5 *621:9 0.00538193
6 *621:7 0.00547526
7 *621:13 *623:13 0.0016505
8 *621:13 *627:29 0.00185452
9 *621:13 *629:21 0.0250986
10 *621:13 *632:21 0.0214938
11 *557:21 *621:13 9.83919e-05
12 *578:9 *621:13 0.00332869
13 *616:13 *621:13 0.00949507
*RES
1 *988:wbs_dat_o[21] *621:7 1.62607 
2 *621:7 *621:9 114.944 
3 *621:9 *621:11 8 
4 *621:11 *621:13 72.8709 
5 *621:13 wbs_dat_o[21] 11.0554 
*END

*D_NET *622 0.0833225
*CONN
*P wbs_dat_o[22] O
*I *988:wbs_dat_o[22] O *D soc_sys
*CAP
1 wbs_dat_o[22] 8.73992e-05
2 *988:wbs_dat_o[22] 0.000706786
3 *622:25 0.00546854
4 *622:23 0.0057436
5 *622:13 0.0105714
6 *622:11 0.0109158
7 *988:wbs_adr_i[10] *622:25 0.000280191
8 *988:wbs_adr_i[22] *622:13 1.61128e-05
9 *66:25 *622:23 9.18986e-06
10 *114:13 *622:13 0
11 *540:25 *622:11 0.00136628
12 *540:25 *622:13 0.0138442
13 *541:27 *622:23 4.62843e-05
14 *620:15 *622:13 0.000139707
15 *620:17 *622:13 0.034127
*RES
1 *988:wbs_dat_o[22] *622:11 11.529 
2 *622:11 *622:13 72.7851 
3 *622:13 *622:23 24.7896 
4 *622:23 *622:25 114.944 
5 *622:25 wbs_dat_o[22] 1.97821 
*END

*D_NET *623 0.106535
*CONN
*P wbs_dat_o[23] O
*I *988:wbs_dat_o[23] O *D soc_sys
*CAP
1 wbs_dat_o[23] 6.64561e-05
2 *988:wbs_dat_o[23] 0.000120398
3 *623:13 0.00859731
4 *623:11 0.00853085
5 *623:9 0.00547113
6 *623:7 0.00559153
7 *623:13 *625:21 0.0387746
8 *623:13 *627:29 0.0350129
9 *578:9 *623:13 0.00271913
10 *621:13 *623:13 0.0016505
*RES
1 *988:wbs_dat_o[23] *623:7 1.85393 
2 *623:7 *623:9 117.056 
3 *623:9 *623:11 8 
4 *623:11 *623:13 78.0229 
5 *623:13 wbs_dat_o[23] 9.50179 
*END

*D_NET *624 0.113537
*CONN
*P wbs_dat_o[24] O
*I *988:wbs_dat_o[24] O *D soc_sys
*CAP
1 wbs_dat_o[24] 0.00179495
2 *988:wbs_dat_o[24] 0.00033736
3 *624:17 0.00528707
4 *624:15 0.00349212
5 *624:13 0.00945223
6 *624:11 0.00978959
7 *624:13 *626:13 0.0388772
8 *988:wbs_adr_i[11] *624:17 0.00137825
9 *44:23 *624:13 2.83822e-05
10 *66:25 *624:13 0.042356
11 *541:27 *624:13 0.000743712
*RES
1 *988:wbs_dat_o[24] *624:11 13.2925 
2 *624:11 *624:13 80.9424 
3 *624:13 *624:15 8 
4 *624:15 *624:17 78.8593 
5 *624:17 wbs_dat_o[24] 36.2396 
*END

*D_NET *625 0.0873286
*CONN
*P wbs_dat_o[25] O
*I *988:wbs_dat_o[25] O *D soc_sys
*CAP
1 wbs_dat_o[25] 9.58152e-05
2 *988:wbs_dat_o[25] 0.000522932
3 *625:21 0.0161672
4 *625:19 0.0160714
5 *625:17 0.00521616
6 *625:15 0.0057391
7 *625:15 *626:13 0.000881952
8 *625:21 *627:29 0.00297451
9 *66:25 *625:15 0.000884962
10 *593:19 *625:17 0
11 *623:13 *625:21 0.0387746
*RES
1 *988:wbs_dat_o[25] *625:15 22.98 
2 *625:15 *625:17 114.239 
3 *625:17 *625:19 8 
4 *625:19 *625:21 81.8011 
5 *625:21 wbs_dat_o[25] 9.87464 
*END

*D_NET *626 0.118215
*CONN
*P wbs_dat_o[26] O
*I *988:wbs_dat_o[26] O *D soc_sys
*CAP
1 wbs_dat_o[26] 0.00178373
2 *988:wbs_dat_o[26] 0.000293496
3 *626:17 0.00555408
4 *626:15 0.00377035
5 *626:13 0.0103225
6 *626:11 0.010616
7 *626:11 *632:17 4.77164e-06
8 *626:13 *628:13 0.0416151
9 *626:13 *629:15 0.00127504
10 *988:wbs_adr_i[12] *626:17 0
11 *42:27 *626:13 0.000293527
12 *43:23 *626:13 0.000316139
13 *66:25 *626:13 0.00197827
14 *541:27 *626:13 0.000632836
15 *624:13 *626:13 0.0388772
16 *625:15 *626:13 0.000881952
*RES
1 *988:wbs_dat_o[26] *626:11 12.5882 
2 *626:11 *626:13 86.1803 
3 *626:13 *626:15 8 
4 *626:15 *626:17 79.5636 
5 *626:17 wbs_dat_o[26] 36.2396 
*END

*D_NET *627 0.115083
*CONN
*P wbs_dat_o[27] O
*I *988:wbs_dat_o[27] O *D soc_sys
*CAP
1 wbs_dat_o[27] 8.67596e-05
2 *988:wbs_dat_o[27] 0.00374789
3 *627:29 0.00793646
4 *627:27 0.0078497
5 *627:25 0.00500111
6 *627:23 0.008749
7 *627:29 *629:21 0.0376687
8 *38:33 *627:23 4.93993e-05
9 *39:17 *627:23 4.62843e-05
10 *114:13 *627:23 0
11 *540:25 *627:23 0.00410561
12 *621:13 *627:29 0.00185452
13 *623:13 *627:29 0.0350129
14 *625:21 *627:29 0.00297451
*RES
1 *988:wbs_dat_o[27] *627:23 46.925 
2 *627:23 *627:25 110.718 
3 *627:25 *627:27 8 
4 *627:27 *627:29 76.048 
5 *627:29 wbs_dat_o[27] 9.97821 
*END

*D_NET *628 0.126933
*CONN
*P wbs_dat_o[28] O
*I *988:wbs_dat_o[28] O *D soc_sys
*CAP
1 wbs_dat_o[28] 0.00185665
2 *988:wbs_dat_o[28] 0.00025294
3 *628:17 0.00577237
4 *628:15 0.00391572
5 *628:13 0.0105134
6 *628:11 0.0107663
7 *628:13 *629:15 2.97703e-05
8 *628:13 *631:13 0.0443741
9 *628:13 *632:13 0.00614494
10 *541:27 *628:13 0.00169147
11 *580:15 wbs_dat_o[28] 0
12 *580:15 *628:17 0
13 *626:13 *628:13 0.0416151
*RES
1 *988:wbs_dat_o[28] *628:11 11.8839 
2 *628:11 *628:13 91.4181 
3 *628:13 *628:15 8 
4 *628:15 *628:17 80.2679 
5 *628:17 wbs_dat_o[28] 36.9439 
*END

*D_NET *629 0.12289
*CONN
*P wbs_dat_o[29] O
*I *988:wbs_dat_o[29] O *D soc_sys
*CAP
1 wbs_dat_o[29] 0.000117357
2 *988:wbs_dat_o[29] 0.00255834
3 *629:21 0.00775059
4 *629:19 0.00763323
5 *629:17 0.00522267
6 *629:15 0.00778101
7 *629:15 *632:13 0.00926061
8 *629:21 *632:21 0.00789424
9 *988:wbs_dat_i[26] *629:17 0
10 *66:25 *629:15 0.0105994
11 *621:13 *629:21 0.0250986
12 *626:13 *629:15 0.00127504
13 *627:29 *629:21 0.0376687
14 *628:13 *629:15 2.97703e-05
*RES
1 *988:wbs_dat_o[29] *629:15 41.5272 
2 *629:15 *629:17 112.126 
3 *629:17 *629:19 8 
4 *629:19 *629:21 73.5579 
5 *629:21 wbs_dat_o[29] 10.3511 
*END

*D_NET *630 0.0244062
*CONN
*P wbs_dat_o[2] O
*I *988:wbs_dat_o[2] O *D soc_sys
*CAP
1 wbs_dat_o[2] 0.000155038
2 *988:wbs_dat_o[2] 9.13831e-05
3 *630:17 0.00263522
4 *630:15 0.00912483
5 *630:9 0.00947652
6 *630:7 0.00292325
7 *630:9 *638:17 0
8 *554:13 *630:15 0
9 *606:7 *630:9 0
*RES
1 *988:wbs_dat_o[2] *630:7 1.62607 
2 *630:7 *630:9 57.8964 
3 *630:9 *630:15 37.7803 
4 *630:15 *630:17 57.1921 
5 *630:17 wbs_dat_o[2] 3.90464 
*END

*D_NET *631 0.1418
*CONN
*P wbs_dat_o[30] O
*I *988:wbs_dat_o[30] O *D soc_sys
*CAP
1 wbs_dat_o[30] 0.00188834
2 *988:wbs_dat_o[30] 0.00021073
3 *631:17 0.00572466
4 *631:15 0.00383632
5 *631:13 0.0103351
6 *631:11 0.0105459
7 *631:13 *632:13 0.00306078
8 *988:wbs_dat_i[14] *631:17 0.000260161
9 *40:29 *631:13 0.00937599
10 *541:27 *631:13 0.0521881
11 *628:13 *631:13 0.0443741
*RES
1 *988:wbs_dat_o[30] *631:11 11.1796 
2 *631:11 *631:13 96.656 
3 *631:13 *631:15 8 
4 *631:15 *631:17 80.9721 
5 *631:17 wbs_dat_o[30] 36.9439 
*END

*D_NET *632 0.1052
*CONN
*P wbs_dat_o[31] O
*I *988:wbs_dat_o[31] O *D soc_sys
*CAP
1 wbs_dat_o[31] 0.00022286
2 *988:wbs_dat_o[31] 0.00443312
3 *632:21 0.0128955
4 *632:19 0.0126726
5 *632:17 0.00504696
6 *632:15 0.00504696
7 *632:13 0.00443312
8 *66:25 *632:13 0.00304637
9 *541:27 *632:13 0.000888434
10 *556:11 *632:21 0
11 *616:13 *632:21 0.00865467
12 *621:13 *632:21 0.0214938
13 *626:11 *632:17 4.77164e-06
14 *628:13 *632:13 0.00614494
15 *629:15 *632:13 0.00926061
16 *629:21 *632:21 0.00789424
17 *631:13 *632:13 0.00306078
*RES
1 *988:wbs_dat_o[31] *632:13 42.0965 
2 *632:13 *632:15 8 
3 *632:15 *632:17 111.422 
4 *632:17 *632:19 8 
5 *632:19 *632:21 69.4363 
6 *632:21 wbs_dat_o[31] 12.2361 
*END

*D_NET *633 0.0403311
*CONN
*P wbs_dat_o[3] O
*I *988:wbs_dat_o[3] O *D soc_sys
*CAP
1 wbs_dat_o[3] 0.00157089
2 *988:wbs_dat_o[3] 0.00350754
3 *633:17 0.00492261
4 *633:15 0.00335172
5 *633:13 0.00350754
6 *633:17 *643:7 0
7 *988:wbs_dat_i[0] *633:17 0
8 *32:37 *633:13 0.00260733
9 *115:17 *633:13 0.00727393
10 *118:13 *633:13 0.0135895
11 *601:9 wbs_dat_o[3] 0
*RES
1 *988:wbs_dat_o[3] *633:13 44.0559 
2 *633:13 *633:15 8 
3 *633:15 *633:17 73.225 
4 *633:17 wbs_dat_o[3] 36.2396 
*END

*D_NET *634 0.0434012
*CONN
*P wbs_dat_o[4] O
*I *988:wbs_dat_o[4] O *D soc_sys
*CAP
1 wbs_dat_o[4] 0.0015683
2 *988:wbs_dat_o[4] 0.000852624
3 *634:17 0.00468235
4 *634:15 0.00636952
5 *634:11 0.0041081
6 *634:11 *635:21 0
7 *32:37 *634:15 0.00259535
8 *105:44 *634:15 0
9 *143:13 *634:15 0.00831666
10 *570:17 *634:15 0.0149083
*RES
1 *988:wbs_dat_o[4] *634:11 22.4482 
2 *634:11 *634:15 36.6496 
3 *634:15 *634:17 69.7036 
4 *634:17 wbs_dat_o[4] 36.2396 
*END

*D_NET *635 0.0457372
*CONN
*P wbs_dat_o[5] O
*I *988:wbs_dat_o[5] O *D soc_sys
*CAP
1 wbs_dat_o[5] 0.00402306
2 *988:wbs_dat_o[5] 0.00137049
3 *635:21 0.00879869
4 *635:19 0.00614611
5 wbs_dat_o[5] wbs_dat_o[6] 0.00278781
6 wbs_dat_o[5] wbs_dat_o[7] 0.0101474
7 wbs_dat_o[5] wbs_dat_o[9] 0.00664697
8 *635:19 *636:15 0.00011777
9 *635:19 *638:15 0.000936345
10 *66:25 *635:19 0.00255733
11 *580:9 *635:21 0.00220515
12 *634:11 *635:21 0
*RES
1 *988:wbs_dat_o[5] *635:19 26.3786 
2 *635:19 *635:21 110.718 
3 *635:21 wbs_dat_o[5] 45.318 
*END

*D_NET *636 0.0454595
*CONN
*P wbs_dat_o[6] O
*I *988:wbs_dat_o[6] O *D soc_sys
*CAP
1 wbs_dat_o[6] 0.00536998
2 *988:wbs_dat_o[6] 0.000958879
3 *636:17 0.0104506
4 *636:15 0.00603953
5 wbs_dat_o[6] wbs_dat_o[9] 0.00947127
6 *636:15 *637:15 0.0019796
7 *636:15 *638:15 0.000331902
8 *636:15 *639:17 5.33105e-05
9 wbs_dat_o[5] wbs_dat_o[6] 0.00278781
10 *66:25 *636:15 0.00325127
11 *549:7 *636:17 0
12 *572:9 wbs_dat_o[6] 0
13 *579:11 wbs_dat_o[6] 0.00464761
14 *635:19 *636:15 0.00011777
*RES
1 *988:wbs_dat_o[6] *636:15 27.445 
2 *636:15 *636:17 109.309 
3 *636:17 wbs_dat_o[6] 49.0921 
*END

*D_NET *637 0.054044
*CONN
*P wbs_dat_o[7] O
*I *988:wbs_dat_o[7] O *D soc_sys
*CAP
1 wbs_dat_o[7] 0.00318733
2 *988:wbs_dat_o[7] 0.00162475
3 *637:17 0.00764446
4 *637:15 0.00608189
5 wbs_dat_o[7] wbs_dat_o[9] 0.0021987
6 *637:15 *638:15 0.00100593
7 *637:15 *639:15 0.00302616
8 wbs_dat_o[15] *637:17 0.00016857
9 wbs_dat_o[5] wbs_dat_o[7] 0.0101474
10 *66:25 *637:15 0.00151634
11 *571:15 *637:17 0.00173852
12 *573:11 wbs_dat_o[7] 0.0137243
13 *636:15 *637:15 0.0019796
*RES
1 *988:wbs_dat_o[7] *637:15 30.2613 
2 *637:15 *637:17 112.126 
3 *637:17 wbs_dat_o[7] 45.6442 
*END

*D_NET *638 0.0680455
*CONN
*P wbs_dat_o[8] O
*I *988:wbs_dat_o[8] O *D soc_sys
*CAP
1 wbs_dat_o[8] 0.00167069
2 *988:wbs_dat_o[8] 0.000223045
3 *638:17 0.00544597
4 *638:15 0.00900824
5 *638:11 0.00545601
6 *638:15 *639:15 0.00613605
7 *988:io_in[20] *638:15 0.000369613
8 *988:wbs_adr_i[3] *638:15 0.00186434
9 *40:29 *638:15 0.00378069
10 *42:29 *638:15 0.00264399
11 *43:25 *638:15 0.00435656
12 *44:25 *638:15 0.00229014
13 *66:25 *638:15 0.00139921
14 *541:27 *638:15 0.0211268
15 *630:9 *638:17 0
16 *635:19 *638:15 0.000936345
17 *636:15 *638:15 0.000331902
18 *637:15 *638:15 0.00100593
*RES
1 *988:wbs_dat_o[8] *638:11 11.1796 
2 *638:11 *638:15 47.1253 
3 *638:15 *638:17 80.9721 
4 *638:17 wbs_dat_o[8] 36.9439 
*END

*D_NET *639 0.0603628
*CONN
*P wbs_dat_o[9] O
*I *988:wbs_dat_o[9] O *D soc_sys
*CAP
1 wbs_dat_o[9] 0.00284091
2 *988:wbs_dat_o[9] 0.00304457
3 *639:17 0.00804202
4 *639:15 0.00824569
5 wbs_dat_o[16] *639:17 0
6 wbs_dat_o[5] wbs_dat_o[9] 0.00664697
7 wbs_dat_o[6] wbs_dat_o[9] 0.00947127
8 wbs_dat_o[7] wbs_dat_o[9] 0.0021987
9 *42:29 *639:15 0.00170742
10 *44:25 *639:15 0.00196296
11 *66:25 *639:15 0.0017796
12 *541:27 *639:15 0.0014681
13 *544:9 wbs_dat_o[9] 0
14 *551:9 *639:17 0
15 *573:11 wbs_dat_o[9] 0.000781707
16 *579:11 wbs_dat_o[9] 0.000676804
17 *614:13 wbs_dat_o[9] 0.0021877
18 *620:27 *639:15 9.28558e-05
19 *636:15 *639:17 5.33105e-05
20 *637:15 *639:15 0.00302616
21 *638:15 *639:15 0.00613605
*RES
1 *988:wbs_dat_o[9] *639:15 37.5426 
2 *639:15 *639:17 111.422 
3 *639:17 wbs_dat_o[9] 43.9144 
*END

*D_NET *640 0.0255759
*CONN
*P wbs_sel_i[0] I
*I *988:wbs_sel_i[0] I *D soc_sys
*CAP
1 wbs_sel_i[0] 8.66535e-05
2 *988:wbs_sel_i[0] 0.0032321
3 *640:7 0.00763968
4 *640:5 0.00449423
5 *32:37 *988:wbs_sel_i[0] 0.000730391
6 *105:44 *988:wbs_sel_i[0] 0.00291793
7 *143:13 *988:wbs_sel_i[0] 0.000384268
8 *541:15 *640:7 0
9 *554:7 *640:7 0
10 *576:17 *988:wbs_sel_i[0] 0.00609067
*RES
1 wbs_sel_i[0] *640:5 1.97821 
2 *640:5 *640:7 101.562 
3 *640:7 *988:wbs_sel_i[0] 47.8155 
*END

*D_NET *641 0.0231492
*CONN
*P wbs_sel_i[1] I
*I *988:wbs_sel_i[1] I *D soc_sys
*CAP
1 wbs_sel_i[1] 0.00204
2 *988:wbs_sel_i[1] 9.13831e-05
3 *641:15 0.00349069
4 *641:13 0.00883793
5 *641:7 0.00747862
6 *571:13 *641:13 0.00121061
7 *572:11 *641:15 0
*RES
1 wbs_sel_i[1] *641:7 47.1975 
2 *641:7 *641:13 34.6891 
3 *641:13 *641:15 71.2779 
4 *641:15 *988:wbs_sel_i[1] 1.62607 
*END

*D_NET *642 0.0248824
*CONN
*P wbs_sel_i[2] I
*I *988:wbs_sel_i[2] I *D soc_sys
*CAP
1 wbs_sel_i[2] 0.00160118
2 *988:wbs_sel_i[2] 0.00163989
3 *642:17 0.00841303
4 *642:11 0.00920014
5 *642:9 0.00402817
6 *642:17 *643:13 0
7 *543:17 *642:17 0
8 *598:13 *642:17 0
*RES
1 wbs_sel_i[2] *642:9 36.2396 
2 *642:9 *642:11 53.505 
3 *642:11 *642:17 38.5531 
4 *642:17 *988:wbs_sel_i[2] 30.6468 
*END

*D_NET *643 0.0353003
*CONN
*P wbs_sel_i[3] I
*I *988:wbs_sel_i[3] I *D soc_sys
*CAP
1 wbs_sel_i[3] 4.49146e-05
2 *988:wbs_sel_i[3] 0.00193287
3 *643:13 0.00718533
4 *643:7 0.00887291
5 *643:5 0.00366536
6 *598:13 *643:13 0.000690296
7 *602:17 *643:13 0.0129086
8 *609:13 *643:13 0
9 *633:17 *643:7 0
10 *642:17 *643:13 0
*RES
1 wbs_sel_i[3] *643:5 1.02536 
2 *643:5 *643:7 81.8421 
3 *643:7 *643:13 42.2453 
4 *643:13 *988:wbs_sel_i[3] 36.2811 
*END

*D_NET *644 0.0250114
*CONN
*P wbs_stb_i I
*I *988:wbs_stb_i I *D soc_sys
*CAP
1 wbs_stb_i 0.00155525
2 *988:wbs_stb_i 0.00217225
3 *644:11 0.00581905
4 *644:9 0.00520205
5 *42:29 *988:wbs_stb_i 0.000182169
6 *42:43 *988:wbs_stb_i 0.000588903
7 *43:35 *988:wbs_stb_i 0.00118383
8 *44:25 *988:wbs_stb_i 0.000210316
9 *44:39 *988:wbs_stb_i 0.00482945
10 *69:25 *988:wbs_stb_i 4.62763e-05
11 *113:21 *988:wbs_stb_i 0.000152655
12 *113:27 *644:11 1.61501e-05
13 *541:19 *988:wbs_stb_i 0.000130187
14 *541:27 *988:wbs_stb_i 0.000481719
15 *608:23 *988:wbs_stb_i 0.00244115
*RES
1 wbs_stb_i *644:9 36.2396 
2 *644:9 *644:11 80.2679 
3 *644:11 *988:wbs_stb_i 31.1026 
*END

*D_NET *645 0.0218115
*CONN
*P wbs_we_i I
*I *988:wbs_we_i I *D soc_sys
*CAP
1 wbs_we_i 0.00155525
2 *988:wbs_we_i 7.95874e-05
3 *645:21 0.00384307
4 *645:11 0.00640736
5 *645:9 0.00419912
6 *105:44 *645:21 0
7 *543:17 *645:21 0.00572713
*RES
1 wbs_we_i *645:9 36.2396 
2 *645:9 *645:11 61.2521 
3 *645:11 *645:21 49.6202 
4 *645:21 *988:wbs_we_i 1.35679 
*END

*D_NET *646 0.233527
*CONN
*I *988:adc_chopclk I *D soc_sys
*I *984:buf_chopclk O *D CF_ADC_DSM20
*CAP
1 *988:adc_chopclk 0.000390075
2 *984:buf_chopclk 0.00139112
3 *646:18 0.0182565
4 *646:16 0.0178664
5 *646:14 0.0129954
6 *646:12 0.0143865
7 *646:12 *659:16 4.73887e-05
8 *646:12 *660:12 0.00146737
9 *646:12 *669:13 0.00178071
10 *646:14 *659:18 0.0507964
11 *646:14 *661:19 0.0270666
12 *646:14 *663:27 1.07299e-05
13 *646:14 *715:45 0.00337821
14 *646:14 *741:17 0.00537754
15 *646:14 *754:17 0
16 *646:18 *653:27 0.0479385
17 *646:18 *659:22 0.000602744
18 *646:18 *671:37 0.00619664
19 *646:18 *693:39 0.010752
20 *646:18 *715:43 0.000291338
21 *646:18 *766:15 0.00415381
22 *646:18 *808:25 0.00838052
23 *108:13 *646:18 0
*RES
1 *984:buf_chopclk *646:12 20.2149 
2 *646:12 *646:14 648.792 
3 *646:14 *646:16 8 
4 *646:16 *646:18 91.4181 
5 *646:18 *988:adc_chopclk 13.6239 
*END

*D_NET *647 0.317782
*CONN
*I *988:adc_dout[0] I *D soc_sys
*I *984:dout[0] I *D CF_ADC_DSM20
*CAP
1 *988:adc_dout[0] 0.000194599
2 *984:dout[0] 0.00172307
3 *647:17 0.0113125
4 *647:15 0.0111179
5 *647:13 0.0115621
6 *647:11 0.0132852
7 *647:13 *648:13 0.0668925
8 *647:13 *659:18 0.0118565
9 *647:13 *665:27 0.0438425
10 *647:13 *715:43 2.12347e-06
11 *647:13 *740:13 0.00263611
12 *647:13 *753:17 0.00732128
13 *647:13 *754:17 0
14 *647:17 *648:17 0.0547711
15 *647:17 *659:22 2.58697e-05
16 *647:17 *693:39 0.00607139
17 *647:17 *715:33 0.00828511
18 *647:17 *740:9 0.00252336
19 *647:17 *755:13 0.050452
20 *647:17 *760:13 0.000889233
21 *647:17 *762:13 0.00102663
22 *647:17 *771:17 0.000227778
23 *647:17 *790:29 0.0115746
24 *19:53 *647:11 0.000188889
*RES
1 *984:dout[0] *647:11 24.261 
2 *647:11 *647:13 855.148 
3 *647:13 *647:15 8 
4 *647:15 *647:17 102.495 
5 *647:17 *988:adc_dout[0] 10.8068 
*END

*D_NET *648 0.327706
*CONN
*I *988:adc_dout[1] I *D soc_sys
*I *984:dout[1] I *D CF_ADC_DSM20
*CAP
1 *988:adc_dout[1] 0.000255939
2 *984:dout[1] 0.00155998
3 *648:17 0.0105653
4 *648:15 0.0103093
5 *648:13 0.0108176
6 *648:11 0.0123776
7 *648:11 *649:8 0
8 *648:11 *653:13 0
9 *648:13 *665:27 0.000318311
10 *648:13 *667:19 0.0674622
11 *648:13 *715:43 1.24585e-05
12 *648:13 *740:13 0.0029023
13 *648:13 *753:17 0.00851148
14 *648:17 *988:adc_dout[6] 0.000351989
15 *648:17 *659:22 0.0512289
16 *648:17 *667:23 0.00828511
17 *648:17 *693:39 0.00719956
18 *648:17 *766:15 2.12729e-05
19 *648:17 *771:17 0.00244509
20 *648:17 *805:25 0.0113677
21 *19:53 *648:11 5.08741e-05
22 *647:13 *648:13 0.0668925
23 *647:17 *648:17 0.0547711
*RES
1 *984:dout[1] *648:11 20.8815 
2 *648:11 *648:13 862.191 
3 *648:13 *648:15 8 
4 *648:15 *648:17 101.465 
5 *648:17 *988:adc_dout[1] 11.5111 
*END

*D_NET *649 0.259939
*CONN
*I *988:adc_dout[2] I *D soc_sys
*I *984:dout[2] I *D CF_ADC_DSM20
*CAP
1 *988:adc_dout[2] 6.56056e-05
2 *984:dout[2] 0.00160325
3 *649:26 0.0143747
4 *649:24 0.0146606
5 *649:14 0.011468
6 *649:12 0.0111165
7 *649:10 0.00715111
8 *649:8 0.00875436
9 *649:8 *650:11 0.000557238
10 *649:8 *653:13 0.000128158
11 *649:10 *650:13 0.0437887
12 *649:10 *663:27 2.31765e-05
13 *649:10 *715:45 0.00389631
14 *649:10 *741:17 0.0019166
15 *649:10 *754:17 0.00949856
16 *649:10 *756:25 0.0255731
17 *649:14 *650:17 0.0524977
18 *649:14 *752:21 0.0527271
19 *649:14 *756:21 0
20 *649:24 *656:65 0
21 *649:24 *817:13 9.14716e-05
22 *649:26 *792:35 0
23 *70:33 *649:14 4.66463e-05
24 *648:11 *649:8 0
*RES
1 *984:dout[2] *649:8 20.2635 
2 *649:8 *649:10 557.939 
3 *649:10 *649:12 8 
4 *649:12 *649:14 101.078 
5 *649:14 *649:24 24.7485 
6 *649:24 *649:26 309.326 
7 *649:26 *988:adc_dout[2] 1.25321 
*END

*D_NET *650 0.237251
*CONN
*I *988:adc_dout[3] I *D soc_sys
*I *984:dout[3] I *D CF_ADC_DSM20
*CAP
1 *988:adc_dout[3] 6.56056e-05
2 *984:dout[3] 0.0016876
3 *650:29 0.0143711
4 *650:27 0.0147187
5 *650:17 0.0184614
6 *650:15 0.0180481
7 *650:13 0.00658746
8 *650:11 0.00827506
9 *650:11 *651:8 0
10 *650:11 *653:13 0.000193261
11 *650:13 *663:27 0.0439463
12 *650:13 *715:45 0.00453522
13 *650:13 *741:17 0.0023393
14 *650:13 *754:17 4.7492e-05
15 *650:17 *756:21 0.00708458
16 *650:27 *656:65 0
17 *650:27 *817:13 4.62843e-05
18 *649:8 *650:11 0.000557238
19 *649:10 *650:13 0.0437887
20 *649:14 *650:17 0.0524977
*RES
1 *984:dout[3] *650:11 22.6633 
2 *650:11 *650:13 559.348 
3 *650:13 *650:15 8 
4 *650:15 *650:17 100.134 
5 *650:17 *650:27 24.7896 
6 *650:27 *650:29 309.326 
7 *650:29 *988:adc_dout[3] 1.25321 
*END

*D_NET *651 0.216889
*CONN
*I *988:adc_dout[4] I *D soc_sys
*I *984:dout[4] I *D CF_ADC_DSM20
*CAP
1 *988:adc_dout[4] 0.00229427
2 *984:dout[4] 0.000293356
3 *651:16 0.00229427
4 *651:14 0.0192363
5 *651:12 0.0192363
6 *651:10 0.0194198
7 *651:8 0.0197132
8 *651:8 *652:11 0.000136916
9 *651:10 *984:FCHOP[1] 0.000360141
10 *651:10 *653:15 0.00833917
11 *651:10 *653:23 0
12 *651:10 *654:13 0.000608061
13 *651:10 *704:17 0.00812289
14 *651:10 *757:41 0.000272211
15 *651:10 *780:17 0.047645
16 *651:10 *785:41 0.000479248
17 *651:10 *803:17 0.0127408
18 *651:10 *803:23 0.00226468
19 *651:10 *804:17 0.000369831
20 *651:10 *806:17 0
21 *651:10 *814:29 2.11157e-05
22 *651:10 *815:17 0
23 *651:10 *815:25 0.00126421
24 *651:10 *819:17 0
25 *651:14 *822:13 0.0517771
26 *650:11 *651:8 0
*RES
1 *984:dout[4] *651:8 16.8288 
2 *651:8 *651:10 834.019 
3 *651:10 *651:12 8 
4 *651:12 *651:14 95.8832 
5 *651:14 *651:16 8 
6 *651:16 *988:adc_dout[4] 46.4725 
*END

*D_NET *652 0.229028
*CONN
*I *988:adc_dout[5] I *D soc_sys
*I *984:dout[5] I *D CF_ADC_DSM20
*CAP
1 *988:adc_dout[5] 6.56056e-05
2 *984:dout[5] 0.000534734
3 *652:21 0.0126507
4 *652:19 0.0125851
5 *652:17 0.0192908
6 *652:15 0.0192908
7 *652:13 0.0084948
8 *652:11 0.00902953
9 *652:11 *653:13 0.000182126
10 *652:13 *653:23 0.0282557
11 *652:13 *654:13 0.000574099
12 *652:13 *704:17 0.00049486
13 *652:13 *755:33 0.00038055
14 *652:13 *757:37 0.00157373
15 *652:13 *771:33 0.00884514
16 *652:13 *804:17 0.00467919
17 *652:13 *812:17 0.000451005
18 *652:13 *813:17 0.0300112
19 *652:13 *820:29 4.67137e-05
20 *652:17 *791:21 0.00400397
21 *652:17 *794:45 0.0514574
22 *652:17 *873:13 0
23 *20:47 *652:13 0.0159933
24 *651:8 *652:11 0.000136916
*RES
1 *984:dout[5] *652:11 19.5988 
2 *652:11 *652:13 602.309 
3 *652:13 *652:15 8 
4 *652:15 *652:17 95.368 
5 *652:17 *652:19 8 
6 *652:19 *652:21 279.042 
7 *652:21 *988:adc_dout[5] 1.25321 
*END

*D_NET *653 0.274204
*CONN
*I *988:adc_dout[6] I *D soc_sys
*I *984:dout[6] I *D CF_ADC_DSM20
*CAP
1 *988:adc_dout[6] 0.00127683
2 *984:dout[6] 0.000729203
3 *653:27 0.00974876
4 *653:25 0.00847194
5 *653:23 0.0138163
6 *653:21 0.014083
7 *653:15 0.0037637
8 *653:13 0.00422618
9 *988:adc_dout[6] *659:22 0.00056814
10 *988:adc_dout[6] *693:39 0.000594499
11 *988:adc_dout[6] *766:15 0.00272422
12 *988:adc_dout[6] *770:37 0.000608876
13 *988:adc_dout[6] *808:25 0.000182169
14 *653:15 *984:FCHOP[1] 0.00157695
15 *653:15 *755:33 0.00318593
16 *653:15 *757:41 0.0161679
17 *653:15 *785:41 0.00047745
18 *653:15 *814:29 2.31209e-05
19 *653:15 *815:25 0.00125976
20 *653:21 *755:31 0.000267419
21 *653:23 *654:13 0.0309124
22 *653:23 *799:17 0.00164609
23 *653:23 *804:17 0.00573604
24 *653:23 *813:17 0.00808654
25 *653:27 *659:22 0.0482641
26 *653:27 *693:39 0.00877544
27 *653:27 *766:15 0.000146544
28 *19:53 *653:13 0.00149574
29 *646:18 *653:27 0.0479385
30 *648:11 *653:13 0
31 *648:17 *988:adc_dout[6] 0.000351989
32 *649:8 *653:13 0.000128158
33 *650:11 *653:13 0.000193261
34 *651:10 *653:15 0.00833917
35 *651:10 *653:23 0
36 *652:11 *653:13 0.000182126
37 *652:13 *653:23 0.0282557
*RES
1 *984:dout[6] *653:13 36.343 
2 *653:13 *653:15 227.629 
3 *653:15 *653:21 16.5712 
4 *653:21 *653:23 637.524 
5 *653:23 *653:25 8 
6 *653:25 *653:27 89.3144 
7 *653:27 *988:adc_dout[6] 18.8861 
*END

*D_NET *654 0.203047
*CONN
*I *988:adc_dout[7] I *D soc_sys
*I *984:dout[7] I *D CF_ADC_DSM20
*CAP
1 *988:adc_dout[7] 6.56056e-05
2 *984:dout[7] 0.000513717
3 *654:21 0.0110089
4 *654:19 0.0109433
5 *654:17 0.0284417
6 *654:15 0.0284417
7 *654:13 0.00880493
8 *654:11 0.00931865
9 *654:13 *704:17 0.00134619
10 *654:13 *755:33 0.00038055
11 *654:13 *757:37 0.00157595
12 *654:13 *780:17 0.000447391
13 *654:13 *786:17 0.0477554
14 *654:13 *799:17 0.00494998
15 *654:13 *820:29 4.9241e-05
16 *654:17 *795:13 0
17 *654:17 *819:13 0
18 *654:17 *874:13 0
19 *19:53 *654:11 8.63641e-05
20 *20:47 *654:13 0.0168232
21 *651:10 *654:13 0.000608061
22 *652:13 *654:13 0.000574099
23 *653:23 *654:13 0.0309124
*RES
1 *984:dout[7] *654:11 19.3339 
2 *654:11 *654:13 647.384 
3 *654:13 *654:15 8 
4 *654:15 *654:17 93.3072 
5 *654:17 *654:19 8 
6 *654:19 *654:21 244.532 
7 *654:21 *988:adc_dout[7] 1.25321 
*END

*D_NET *655 0.429412
*CONN
*I *986:iref I *D CF_BUF_HIZ
*I *984:iin I *D CF_ADC_DSM20
*I *985:ibg_2p375uA O *D CF_BGR
*CAP
1 *986:iref 7.16448e-05
2 *984:iin 0.000653382
3 *985:ibg_2p375uA 0.00529905
4 *655:65 0.00277495
5 *655:63 0.00274873
6 *655:61 0.00776543
7 *655:59 0.00772002
8 *655:57 0.0866142
9 *655:55 0.0866142
10 *655:53 0.00460571
11 *655:51 0.00646312
12 *655:30 0.00449287
13 *655:22 0.0341829
14 *655:20 0.0322009
15 *655:18 0.0300983
16 *655:16 0.0300983
17 *655:14 0.00529905
18 *984:iin *984:iinc 1.4548e-05
19 *984:iin *984:itrim_sum[1] 6.27951e-06
20 *984:iin *984:itrim_2_3[0] 0
21 *984:iin *984:itrim_2_3[2] 0.000294471
22 *984:iin *984:itrim_sum[5] 0.000182428
23 *984:iin *674:25 2.37336e-05
24 *984:iin *732:29 7.65759e-05
25 *984:iin *733:17 0.00011635
26 *984:iin *749:21 3.36755e-06
27 *984:iin *749:25 0.00043867
28 *986:iref *986:iref_casc 4.67133e-05
29 *655:18 *737:9 0
30 *655:30 *732:29 0.00226102
31 *655:30 *749:25 0.00539447
32 *655:51 *984:itrim_sum[0] 2.17681e-05
33 *655:51 *984:itrim_sum[1] 5.38235e-05
34 *655:51 *984:itrim_sum[3] 0.00265788
35 *655:51 *726:13 0
36 *655:53 *742:17 0.0128216
37 *655:57 *684:15 7.29107e-05
38 *655:57 *701:19 0.00398802
39 *655:57 *702:21 0.000248167
40 *655:57 *705:23 0.000377124
41 *655:57 *706:19 8.36201e-05
42 *655:57 *755:23 0.00432525
43 *655:57 *756:21 8.36201e-05
44 *655:57 *757:21 0.00251007
45 *655:57 *764:21 0.00431618
46 *655:57 *770:43 0.0264114
47 *655:57 *771:31 2.10846e-05
48 *655:57 *783:27 0.000989282
49 *655:65 *986:iref_casc 1.09886e-05
50 *986:vpwrb *655:57 0
51 *986:vcm *655:65 1.04117e-05
52 *24:13 *655:57 0
53 *26:9 *655:61 0
54 *26:9 *655:65 0
55 *45:19 *655:14 0.00038255
56 *71:27 *655:14 0.000773023
57 *120:27 *655:18 0.0126915
*RES
1 *985:ibg_2p375uA *655:14 43.3499 
2 *655:14 *655:16 8 
3 *655:16 *655:18 696.684 
4 *655:18 *655:20 8 
5 *655:20 *655:22 101.336 
6 *655:22 *655:30 22.0485 
7 *655:30 *984:iin 18.4957 
8 *655:30 *655:51 21.6803 
9 *655:51 *655:53 163.539 
10 *655:53 *655:55 8 
11 *655:55 *655:57 357.004 
12 *655:57 *655:59 8 
13 *655:59 *655:61 178.951 
14 *655:61 *655:63 1.09786 
15 *655:63 *655:65 62.7073 
16 *655:65 *986:iref 1.97821 
*END

*D_NET *656 0.619492
*CONN
*I *986:iref_casc I *D CF_BUF_HIZ
*I *987:nbias I *D CF_REFBUF
*I *984:iinc I *D CF_ADC_DSM20
*I *985:ibg_3uA O *D CF_BGR
*CAP
1 *986:iref_casc 0.000389515
2 *987:nbias 0.00139758
3 *984:iinc 0.00561619
4 *985:ibg_3uA 0.000294184
5 *656:69 0.011443
6 *656:67 0.0110534
7 *656:65 0.0580437
8 *656:63 0.0580437
9 *656:61 0.00535858
10 *656:42 0.0036053
11 *656:40 0.00738173
12 *656:23 0.0289808
13 *656:21 0.0287232
14 *656:19 0.0236547
15 *656:17 0.0184807
16 *656:15 0.00244091
17 *656:13 0.0027351
18 *984:iinc *749:21 0
19 *656:13 *670:13 0.00010889
20 *656:15 *670:15 0.0065085
21 *656:19 *985:finetune 0
22 *656:19 *985:CurrAbsTrim[0] 0.0023883
23 *656:19 *670:19 0.0157985
24 *656:19 *670:29 7.5095e-06
25 *656:19 *836:17 0
26 *656:19 *853:15 0
27 *656:19 *868:17 0
28 *656:23 *697:13 0.0370434
29 *656:23 *698:17 0.0137482
30 *656:23 *733:17 0
31 *656:40 *868:17 0
32 *656:61 *984:itrim_2_3[2] 1.04361e-05
33 *656:61 *984:itrim_2_3[4] 2.68408e-05
34 *656:61 *732:29 0.00685133
35 *656:61 *733:17 0.00456793
36 *656:61 *749:25 0.000190987
37 *656:65 *660:18 0.00288459
38 *656:65 *714:13 0.00165118
39 *656:65 *717:13 0.00211662
40 *656:65 *749:13 0
41 *656:65 *752:19 0
42 *656:65 *817:13 0
43 *984:iin *984:iinc 1.4548e-05
44 *986:iref *986:iref_casc 4.67133e-05
45 *986:vcm *986:iref_casc 0.000393983
46 *13:14 *656:65 0.127082
47 *14:39 *656:69 6.24949e-05
48 *25:9 *656:69 0
49 *32:13 *656:65 0.0354421
50 *45:19 *656:19 0.0155355
51 *49:15 *656:15 0.00242233
52 *72:28 *656:19 0
53 *76:29 *656:19 0.0494635
54 *76:29 *656:40 0.0147335
55 *77:20 *656:19 0.000444594
56 *104:29 *656:65 0.0120462
57 *109:18 *656:19 0
58 *121:22 *656:15 0.000248381
59 *649:24 *656:65 0
60 *650:27 *656:65 0
61 *655:65 *986:iref_casc 1.09886e-05
*RES
1 *985:ibg_3uA *656:13 35.6964 
2 *656:13 *656:15 88.7089 
3 *656:15 *656:17 8 
4 *656:17 *656:19 106.574 
5 *656:19 *656:21 8 
6 *656:21 *656:23 141.587 
7 *656:23 *984:iinc 16.8344 
8 *656:19 *656:40 35.1469 
9 *656:40 *656:42 49.9732 
10 *656:42 *987:nbias 44.1346 
11 *984:iinc *656:61 46.6413 
12 *656:61 *656:63 8 
13 *656:63 *656:65 352.925 
14 *656:65 *656:67 8 
15 *656:67 *656:69 255.273 
16 *656:69 *986:iref_casc 39.1143 
*END

*D_NET *657 0.43904
*CONN
*I *984:PBUF_INP I *D CF_ADC_DSM20
*I *984:INP I *D CF_ADC_DSM20
*I *986:out1 O *D CF_BUF_HIZ
*CAP
1 *984:PBUF_INP 0.000299858
2 *984:INP 0.000302182
3 *986:out1 3.8428e-05
4 *657:28 0.00652136
5 *657:26 0.00692271
6 *657:18 0.00118568
7 *657:16 0.000782
8 *657:14 0.0745188
9 *657:12 0.0745188
10 *657:10 0.023395
11 *657:8 0.0234335
12 *657:8 *986:bypass_p 2.68408e-05
13 *657:14 *714:21 0.0280424
14 *657:14 *720:37 0
15 *657:14 *722:21 1.36509e-05
16 *657:14 *723:37 0.0759198
17 *657:14 *752:29 0.0245197
18 *657:14 *753:21 2.17681e-05
19 *657:14 *755:37 3.12959e-05
20 *657:14 *756:63 0
21 *657:14 *761:21 0
22 *657:14 *765:21 0.00486764
23 *657:14 *776:21 0.00402538
24 *657:18 *712:17 0.00450166
25 *657:18 *736:13 0.00449676
26 *657:26 *700:17 0.000102921
27 *657:26 *736:13 0
28 *657:26 *823:17 0.000559115
29 *657:28 *984:VREFQ 2.11157e-05
30 *657:28 *700:17 0.00313982
31 *657:28 *736:13 0
32 *657:28 *823:17 0.0179139
33 *984:INN *984:INP 0.000135588
34 *984:PBUF_INN *984:PBUF_INP 0.00020577
35 *14:35 *657:14 0.0584734
36 *23:32 *657:10 0.000103082
*RES
1 *986:out1 *657:8 16.0989 
2 *657:8 *657:10 72.0272 
3 *657:10 *657:12 8 
4 *657:12 *657:14 351.981 
5 *657:14 *657:16 8 
6 *657:16 *657:18 57.7204 
7 *657:18 *657:26 40.6679 
8 *657:26 *657:28 227.629 
9 *657:28 *984:INP 19.8368 
10 *657:26 *984:PBUF_INP 20.1371 
*END

*D_NET *658 0.213028
*CONN
*I *988:adc_ov_one I *D soc_sys
*I *984:overload_det_one O *D CF_ADC_DSM20
*CAP
1 *988:adc_ov_one 6.56056e-05
2 *984:overload_det_one 0.000587629
3 *658:23 0.0141604
4 *658:21 0.0140948
5 *658:19 0.00800916
6 *658:17 0.00800916
7 *658:15 0.0046568
8 *658:13 0.00524443
9 *658:13 *984:MODINPUT 0.000112596
10 *658:13 *984:BUF_FCHOP[1] 9.03778e-05
11 *658:13 *659:16 0.000663388
12 *658:13 *669:13 0.000666854
13 *658:15 *750:13 0
14 *658:15 *756:39 0.0010317
15 *658:15 *784:17 0.0245678
16 *658:15 *785:33 1.02387e-05
17 *658:15 *801:17 0.00401439
18 *658:15 *816:17 0.000204794
19 *658:15 *817:17 0.0270713
20 *658:19 *801:13 4.06794e-05
21 *658:19 *812:13 0.049745
22 *13:14 *658:19 0.0499398
23 *104:29 *658:19 4.14138e-05
*RES
1 *984:overload_det_one *658:13 20.1745 
2 *658:13 *658:15 350.879 
3 *658:15 *658:17 8 
4 *658:17 *658:19 92.0192 
5 *658:19 *658:21 8 
6 *658:21 *658:23 303.692 
7 *658:23 *988:adc_ov_one 1.25321 
*END

*D_NET *659 0.250646
*CONN
*I *988:adc_ov_zero I *D soc_sys
*I *984:overload_det_zero O *D CF_ADC_DSM20
*CAP
1 *988:adc_ov_zero 0.000316948
2 *984:overload_det_zero 0.00141178
3 *659:22 0.00954878
4 *659:20 0.00923183
5 *659:18 0.00904048
6 *659:16 0.0104523
7 *659:16 *984:MODBIT 0.00178002
8 *659:16 *669:13 0.000543522
9 *659:18 *661:19 4.63531e-05
10 *659:18 *665:27 0.027992
11 *659:18 *715:45 0.0029023
12 *659:18 *752:25 0.00468927
13 *659:22 *693:39 0.00777402
14 *659:22 *715:43 0.000248208
15 *659:22 *770:37 0.000614805
16 *988:adc_dout[6] *659:22 0.00056814
17 *646:12 *659:16 4.73887e-05
18 *646:14 *659:18 0.0507964
19 *646:18 *659:22 0.000602744
20 *647:13 *659:18 0.0118565
21 *647:17 *659:22 2.58697e-05
22 *648:17 *659:22 0.0512289
23 *653:27 *659:22 0.0482641
24 *658:13 *659:16 0.000663388
*RES
1 *984:overload_det_zero *659:16 20.2065 
2 *659:16 *659:18 651.609 
3 *659:18 *659:20 8 
4 *659:20 *659:22 95.1104 
5 *659:22 *988:adc_ov_zero 12.2154 
*END

*D_NET *660 0.228031
*CONN
*I *988:adc_scanout I *D soc_sys
*I *984:SCANOUTPUT O *D CF_ADC_DSM20
*CAP
1 *988:adc_scanout 6.56056e-05
2 *984:SCANOUTPUT 0.00142195
3 *660:22 0.0143889
4 *660:20 0.0143233
5 *660:18 0.0121988
6 *660:16 0.0121988
7 *660:14 0.00431618
8 *660:12 0.00573813
9 *660:12 *984:dig_test_sel[1] 0
10 *660:12 *795:17 0.000138783
11 *660:14 *662:19 0.0270079
12 *660:14 *667:19 0
13 *660:14 *715:55 0
14 *660:14 *757:25 0.0255334
15 *660:14 *789:25 0.000300659
16 *660:14 *877:17 0.00451785
17 *660:18 *661:23 0.00716496
18 *660:18 *662:23 0.00242914
19 *660:18 *663:31 0.00280446
20 *660:18 *664:31 0.00412087
21 *660:18 *817:13 0.00687086
22 *660:22 *770:39 0.00453962
23 *32:13 *660:18 0.0329696
24 *69:37 *660:18 0.0061163
25 *70:33 *660:18 0.0345132
26 *646:12 *660:12 0.00146737
27 *656:65 *660:18 0.00288459
*RES
1 *984:SCANOUTPUT *660:12 19.5737 
2 *660:12 *660:14 343.836 
3 *660:14 *660:16 8 
4 *660:16 *660:18 92.2768 
5 *660:18 *660:20 8 
6 *660:20 *660:22 308.622 
7 *660:22 *988:adc_scanout 1.25321 
*END

*D_NET *661 0.293163
*CONN
*I *988:adc_test[0] I *D soc_sys
*I *984:test[0] I *D CF_ADC_DSM20
*CAP
1 *988:adc_test[0] 6.56056e-05
2 *984:test[0] 0.000132585
3 *661:27 0.0144306
4 *661:25 0.014365
5 *661:23 0.00673423
6 *661:21 0.00673423
7 *661:19 0.0089893
8 *661:17 0.0123519
9 *661:13 0.00349518
10 *661:13 *662:9 8.35466e-05
11 *661:13 *663:17 3.9307e-05
12 *661:17 *662:11 0.00022031
13 *661:17 *663:19 0.00248547
14 *661:17 *666:15 0.0022643
15 *661:17 *667:17 0.00166679
16 *661:17 *741:33 0.00769955
17 *661:17 *744:21 0.015129
18 *661:17 *746:21 0.00037454
19 *661:19 *663:27 0.050806
20 *661:19 *665:27 0.00817558
21 *661:19 *741:17 0.00863953
22 *661:19 *754:17 0
23 *661:23 *662:23 0.000269772
24 *661:23 *663:31 0.0459728
25 *661:23 *744:13 0.00757746
26 *661:23 *817:13 0.00186337
27 *19:51 *661:17 0.00469938
28 *69:37 *661:23 0.0333853
29 *70:33 *661:23 0.000234223
30 *646:14 *661:19 0.0270666
31 *659:18 *661:19 4.63531e-05
32 *660:18 *661:23 0.00716496
*RES
1 *984:test[0] *661:13 25.698 
2 *661:13 *661:17 37.2507 
3 *661:17 *661:19 647.208 
4 *661:19 *661:21 15 
5 *661:21 *661:23 502.301 
6 *661:23 *661:25 15 
7 *661:25 *661:27 308.798 
8 *661:27 *988:adc_test[0] 1.25321 
*END

*D_NET *662 0.285286
*CONN
*I *988:adc_test[1] I *D soc_sys
*I *984:test[1] I *D CF_ADC_DSM20
*CAP
1 *988:adc_test[1] 6.56056e-05
2 *984:test[1] 0.000166493
3 *662:27 0.014391
4 *662:25 0.0143254
5 *662:23 0.00618783
6 *662:21 0.00618783
7 *662:19 0.00949533
8 *662:17 0.0104901
9 *662:11 0.00332989
10 *662:9 0.00250162
11 *662:9 *663:17 0.000100123
12 *662:9 *663:19 4.83308e-05
13 *662:9 *664:19 6.49635e-06
14 *662:9 *665:21 4.11359e-05
15 *662:9 *666:13 3.7122e-06
16 *662:9 *667:5 8.06848e-06
17 *662:9 *787:21 3.6485e-06
18 *662:11 *984:EN_DWA 5.8162e-05
19 *662:11 *984:SCANINPUT 1.70074e-05
20 *662:11 *984:SCANMODE 0.000241422
21 *662:11 *984:SCANCLK 5.85112e-06
22 *662:11 *984:SCANEN 3.32734e-05
23 *662:11 *663:19 0.0115669
24 *662:11 *666:13 2.54319e-06
25 *662:11 *667:7 0.00687694
26 *662:11 *741:33 0.0013447
27 *662:17 *663:19 2.11101e-05
28 *662:17 *663:25 0.00233351
29 *662:17 *667:17 0.000414695
30 *662:19 *664:27 0.0498604
31 *662:19 *744:17 0.000148341
32 *662:19 *789:25 0.0122987
33 *662:19 *877:17 0.00402
34 *662:23 *663:31 0.0453726
35 *662:23 *664:31 0.0448414
36 *19:35 *662:11 0.000174996
37 *19:51 *662:11 0.0012855
38 *32:13 *662:23 0.00700449
39 *660:14 *662:19 0.0270079
40 *660:18 *662:23 0.00242914
41 *661:13 *662:9 8.35466e-05
42 *661:17 *662:11 0.00022031
43 *661:23 *662:23 0.000269772
*RES
1 *984:test[1] *662:9 4.31375 
2 *662:9 *662:11 126.875 
3 *662:11 *662:17 42.1979 
4 *662:17 *662:19 647.031 
5 *662:19 *662:21 15 
6 *662:21 *662:23 490.39 
7 *662:23 *662:25 15 
8 *662:25 *662:27 308.094 
9 *662:27 *988:adc_test[1] 1.25321 
*END

*D_NET *663 0.298619
*CONN
*I *988:adc_test[2] I *D soc_sys
*I *984:test[2] I *D CF_ADC_DSM20
*CAP
1 *988:adc_test[2] 6.73347e-05
2 *984:test[2] 0.000187177
3 *663:35 0.0147427
4 *663:33 0.0146754
5 *663:31 0.00621482
6 *663:29 0.00621482
7 *663:27 0.00900718
8 *663:25 0.00997778
9 *663:19 0.00255184
10 *663:17 0.00176842
11 *663:17 *664:19 8.01759e-05
12 *663:17 *665:21 2.23143e-05
13 *663:17 *666:13 1.01003e-05
14 *663:17 *787:21 4.03402e-06
15 *663:19 *665:23 2.02872e-05
16 *663:19 *666:15 0.0116322
17 *663:19 *787:21 2.4585e-05
18 *663:25 *665:23 0.00019842
19 *663:25 *666:15 0.000768561
20 *663:25 *787:21 1.6158e-05
21 *663:27 *715:45 0.00519252
22 *663:27 *741:17 0.00338509
23 *663:27 *754:17 0
24 *19:51 *663:25 0.00023712
25 *32:13 *663:31 0.00606707
26 *69:37 *663:31 2.1819e-05
27 *646:14 *663:27 1.07299e-05
28 *649:10 *663:27 2.31765e-05
29 *650:13 *663:27 0.0439463
30 *660:18 *663:31 0.00280446
31 *661:13 *663:17 3.9307e-05
32 *661:17 *663:19 0.00248547
33 *661:19 *663:27 0.050806
34 *661:23 *663:31 0.0459728
35 *662:9 *663:17 0.000100123
36 *662:9 *663:19 4.83308e-05
37 *662:11 *663:19 0.0115669
38 *662:17 *663:19 2.11101e-05
39 *662:17 *663:25 0.00233351
40 *662:23 *663:31 0.0453726
*RES
1 *984:test[2] *663:17 33.4437 
2 *663:17 *663:19 128.781 
3 *663:19 *663:25 48.6296 
4 *663:25 *663:27 647.031 
5 *663:27 *663:29 15 
6 *663:29 *663:31 492.296 
7 *663:31 *663:33 15 
8 *663:33 *663:35 308.446 
9 *663:35 *988:adc_test[2] 1.25321 
*END

*D_NET *664 0.273697
*CONN
*I *988:adc_test[3] I *D soc_sys
*I *984:test[3] I *D CF_ADC_DSM20
*CAP
1 *988:adc_test[3] 6.56056e-05
2 *984:test[3] 0.00139473
3 *664:35 0.0143764
4 *664:33 0.0143108
5 *664:31 0.0137385
6 *664:29 0.0137385
7 *664:27 0.00952982
8 *664:25 0.010915
9 *664:19 0.00277994
10 *664:19 *665:21 6.5394e-05
11 *664:19 *666:13 8.22421e-06
12 *664:19 *741:27 0.000271232
13 *664:19 *741:33 0.00747954
14 *664:25 *667:17 6.98299e-06
15 *664:25 *734:21 0.00750971
16 *664:25 *740:17 4.52243e-05
17 *664:25 *741:27 0.00724743
18 *664:27 *734:17 4.15283e-05
19 *664:27 *744:17 0.0497672
20 *20:55 *664:19 0.00748665
21 *32:13 *664:31 0.014009
22 *660:18 *664:31 0.00412087
23 *662:9 *664:19 6.49635e-06
24 *662:19 *664:27 0.0498604
25 *662:23 *664:31 0.0448414
26 *663:17 *664:19 8.01759e-05
*RES
1 *984:test[3] *664:19 46.794 
2 *664:19 *664:25 30.0093 
3 *664:25 *664:27 643.334 
4 *664:27 *664:29 15 
5 *664:29 *664:31 479.432 
6 *664:31 *664:33 15 
7 *664:33 *664:35 307.742 
8 *664:35 *988:adc_test[3] 1.25321 
*END

*D_NET *665 0.282761
*CONN
*I *988:adc_test[4] I *D soc_sys
*I *984:test[4] I *D CF_ADC_DSM20
*CAP
1 *988:adc_test[4] 6.56056e-05
2 *984:test[4] 0.000164816
3 *665:35 0.0138649
4 *665:33 0.0137992
5 *665:31 0.00597135
6 *665:29 0.00597135
7 *665:27 0.00972027
8 *665:25 0.00972027
9 *665:23 0.00213839
10 *665:21 0.00230321
11 *665:21 *666:13 0.00015567
12 *665:21 *667:5 2.2514e-05
13 *665:23 *666:15 0.013634
14 *665:23 *744:21 0.00272431
15 *665:23 *787:21 0.0144537
16 *665:27 *667:19 0.00243138
17 *665:27 *752:25 0.00988767
18 *665:27 *754:17 0
19 *665:27 *789:25 0
20 *665:31 *666:23 0.0426589
21 *665:31 *668:25 4.49877e-05
22 *665:31 *741:13 0.000200278
23 *665:31 *777:13 0.0439104
24 *665:31 *816:13 0.00824175
25 *647:13 *665:27 0.0438425
26 *648:13 *665:27 0.000318311
27 *659:18 *665:27 0.027992
28 *661:19 *665:27 0.00817558
29 *662:9 *665:21 4.11359e-05
30 *663:17 *665:21 2.23143e-05
31 *663:19 *665:23 2.02872e-05
32 *663:25 *665:23 0.00019842
33 *664:19 *665:21 6.5394e-05
*RES
1 *984:test[4] *665:21 34.5002 
2 *665:21 *665:23 158.796 
3 *665:23 *665:25 15 
4 *665:25 *665:27 659.004 
5 *665:27 *665:29 15 
6 *665:29 *665:31 479.909 
7 *665:31 *665:33 15 
8 *665:33 *665:35 297.882 
9 *665:35 *988:adc_test[4] 1.25321 
*END

*D_NET *666 0.287736
*CONN
*I *988:adc_test[5] I *D soc_sys
*I *984:test[5] I *D CF_ADC_DSM20
*CAP
1 *988:adc_test[5] 6.56056e-05
2 *984:test[5] 0.000218043
3 *666:27 0.0138955
4 *666:25 0.0138299
5 *666:23 0.00566809
6 *666:21 0.00566809
7 *666:19 0.00986291
8 *666:17 0.00986291
9 *666:15 0.00201619
10 *666:13 0.00223423
11 *666:13 *667:5 5.64004e-05
12 *666:13 *668:15 2.71422e-05
13 *666:19 *747:17 0.0509942
14 *666:19 *750:13 0.0509906
15 *666:23 *668:25 0.0416932
16 *666:23 *741:13 0.00951517
17 *661:17 *666:15 0.0022643
18 *662:9 *666:13 3.7122e-06
19 *662:11 *666:13 2.54319e-06
20 *663:17 *666:13 1.01003e-05
21 *663:19 *666:15 0.0116322
22 *663:25 *666:15 0.000768561
23 *664:19 *666:13 8.22421e-06
24 *665:21 *666:13 0.00015567
25 *665:23 *666:15 0.013634
26 *665:31 *666:23 0.0426589
*RES
1 *984:test[5] *666:13 33.3298 
2 *666:13 *666:15 149.744 
3 *666:15 *666:17 15 
4 *666:17 *666:19 658.3 
5 *666:19 *666:21 15 
6 *666:21 *666:23 466.092 
7 *666:23 *666:25 15 
8 *666:25 *666:27 298.234 
9 *666:27 *988:adc_test[5] 1.25321 
*END

*D_NET *667 0.252757
*CONN
*I *988:adc_test[6] I *D soc_sys
*I *984:test[6] I *D CF_ADC_DSM20
*CAP
1 *988:adc_test[6] 0.000303672
2 *984:test[6] 5.04825e-05
3 *667:23 0.0141638
4 *667:21 0.0138601
5 *667:19 0.0271855
6 *667:17 0.0291323
7 *667:7 0.00414487
8 *667:5 0.00224856
9 *667:5 *668:15 7.2014e-05
10 *667:5 *737:21 8.49955e-06
11 *667:7 *984:EN_DEM 3.40783e-05
12 *667:7 *668:15 1.59285e-05
13 *667:7 *741:33 0.00307838
14 *667:17 *734:21 5.77181e-06
15 *667:17 *739:21 0.000218163
16 *667:17 *741:27 0
17 *667:17 *741:33 4.93791e-05
18 *667:17 *827:21 9.28078e-06
19 *667:19 *715:43 7.23298e-05
20 *667:19 *715:55 0.00131467
21 *667:19 *740:13 0.015285
22 *667:19 *755:25 0
23 *667:19 *757:25 0
24 *667:19 *789:25 0
25 *667:23 *805:25 0.0428388
26 *667:23 *808:25 0
27 *19:51 *667:17 0.00470285
28 *20:55 *667:17 0.00673144
29 *648:13 *667:19 0.0674622
30 *648:17 *667:23 0.00828511
31 *660:14 *667:19 0
32 *661:17 *667:17 0.00166679
33 *662:9 *667:5 8.06848e-06
34 *662:11 *667:7 0.00687694
35 *662:17 *667:17 0.000414695
36 *664:25 *667:17 6.98299e-06
37 *665:21 *667:5 2.2514e-05
38 *665:27 *667:19 0.00243138
39 *666:13 *667:5 5.64004e-05
*RES
1 *984:test[6] *667:5 1.83321 
2 *667:5 *667:7 75.2498 
3 *667:7 *667:17 46.6787 
4 *667:17 *667:19 951.811 
5 *667:19 *667:21 15 
6 *667:21 *667:23 467.998 
7 *667:23 *988:adc_test[6] 19.0393 
*END

*D_NET *668 0.261426
*CONN
*I *988:adc_test[7] I *D soc_sys
*I *984:test[7] I *D CF_ADC_DSM20
*CAP
1 *988:adc_test[7] 6.56056e-05
2 *984:test[7] 0.000427259
3 *668:29 0.0139321
4 *668:27 0.0138665
5 *668:25 0.0135987
6 *668:23 0.0135987
7 *668:21 0.0101122
8 *668:19 0.0101122
9 *668:17 0.0023024
10 *668:15 0.00272966
11 *668:15 *984:EN_DEM 2.81323e-05
12 *668:15 *737:21 0.000364037
13 *668:17 *756:63 0.00202848
14 *668:17 *763:21 0.000179826
15 *668:17 *771:37 0.0131254
16 *668:17 *784:29 0.00768582
17 *668:21 *739:17 0.0506742
18 *668:21 *744:17 8.32633e-05
19 *668:21 *747:17 0.0510756
20 *668:21 *750:13 3.74743e-05
21 *668:21 *789:25 0
22 *668:25 *741:13 0.00805958
23 *668:25 *779:13 0
24 *668:29 *766:17 0.00548569
25 *665:31 *668:25 4.49877e-05
26 *666:13 *668:15 2.71422e-05
27 *666:23 *668:25 0.0416932
28 *667:5 *668:15 7.2014e-05
29 *667:7 *668:15 1.59285e-05
*RES
1 *984:test[7] *668:15 37.483 
2 *668:15 *668:17 149.267 
3 *668:17 *668:19 15 
4 *668:19 *668:21 661.821 
5 *668:21 *668:23 15 
6 *668:23 *668:25 456.564 
7 *668:25 *668:27 15 
8 *668:27 *668:29 298.586 
9 *668:29 *988:adc_test[7] 1.25321 
*END

*D_NET *669 0.159434
*CONN
*I *988:adc_test_dig I *D soc_sys
*I *984:test_dig_out O *D CF_ADC_DSM20
*CAP
1 *988:adc_test_dig 6.56056e-05
2 *984:test_dig_out 0.00339862
3 *669:23 0.0122418
4 *669:21 0.0121762
5 *669:19 0.0162391
6 *669:17 0.0162391
7 *669:15 0.0122539
8 *669:13 0.0156525
9 *669:13 *984:MODBIT 0.000379269
10 *669:13 *984:MODINPUT 9.48831e-05
11 *669:13 *984:itrim_comp[3] 0
12 *669:13 *984:BUF_FCHOP[1] 1.14178e-05
13 *669:15 *758:13 0.0105102
14 *669:19 *783:13 4.47499e-05
15 *669:19 *785:13 0.0457674
16 *20:11 *669:19 0.00922231
17 *114:21 *669:19 0.00214607
18 *646:12 *669:13 0.00178071
19 *658:13 *669:13 0.000666854
20 *659:16 *669:13 0.000543522
*RES
1 *984:test_dig_out *669:13 25.7574 
2 *669:13 *669:15 383.981 
3 *669:15 *669:17 8 
4 *669:17 *669:19 96.9995 
5 *669:19 *669:21 8 
6 *669:21 *669:23 269.886 
7 *669:23 *988:adc_test_dig 1.25321 
*END

*D_NET *670 0.160796
*CONN
*I *987:ref_1v2 I *D CF_REFBUF
*I *984:VREF I *D CF_ADC_DSM20
*I *984:VREFQ I *D CF_ADC_DSM20
*I *985:Vout O *D CF_BGR
*CAP
1 *987:ref_1v2 0.000107854
2 *984:VREF 5.0389e-05
3 *984:VREFQ 0.00116638
4 *985:Vout 0.000511525
5 *670:59 0.00895028
6 *670:57 0.0102614
7 *670:31 0.0188543
8 *670:29 0.0179212
9 *670:21 0.00160185
10 *670:19 0.0281251
11 *670:17 0.0281251
12 *670:15 0.000987721
13 *670:13 0.00149925
14 *984:VREFQ *736:13 0
15 *670:29 *868:17 1.40476e-05
16 *670:31 *695:13 1.77893e-05
17 *670:31 *711:29 1.62618e-05
18 *670:31 *732:29 0.00352986
19 *670:31 *733:17 0.00015344
20 *670:31 *749:25 0.00361645
21 *45:13 *670:13 0
22 *45:13 *670:15 0.00030974
23 *45:19 *670:19 0.00574892
24 *49:15 *670:15 0.000882438
25 *121:22 *670:15 0.00590032
26 *656:13 *670:13 0.00010889
27 *656:15 *670:15 0.0065085
28 *656:19 *670:19 0.0157985
29 *656:19 *670:29 7.5095e-06
30 *657:28 *984:VREFQ 2.11157e-05
*RES
1 *985:Vout *670:13 40.6886 
2 *670:13 *670:15 82.8986 
3 *670:15 *670:17 15 
4 *670:17 *670:19 581.388 
5 *670:19 *670:21 15 
6 *670:21 *670:29 18.885 
7 *670:29 *670:31 67.4576 
8 *670:31 *984:VREFQ 39.659 
9 *984:VREFQ *984:VREF 1.06679 
10 *670:21 *670:57 46.4857 
11 *670:57 *670:59 186.429 
12 *670:59 *987:ref_1v2 17.2993 
*END

*D_NET *671 0.394601
*CONN
*I *986:pd I *D CF_BUF_HIZ
*I *988:analog_ctrl[0] O *D soc_sys
*CAP
1 *986:pd 0.0137925
2 *988:analog_ctrl[0] 0.000183788
3 *671:39 0.0137925
4 *671:37 0.0390999
5 *671:35 0.0392883
6 *671:29 0.019236
7 *671:27 0.0191675
8 *671:21 0.0120748
9 *671:19 0.0119909
10 *671:13 0.00873898
11 *671:11 0.00888676
12 *671:13 *693:13 0.019287
13 *671:13 *715:29 0.00300554
14 *671:13 *770:13 1.2632e-05
15 *671:13 *770:15 0
16 *671:13 *782:11 0.000663911
17 *671:13 *790:15 0.000409247
18 *671:13 *790:17 0.000234801
19 *671:13 *794:13 0.00175089
20 *671:13 *800:15 0.000190023
21 *671:13 *805:13 0.000803612
22 *671:13 *808:13 0.00616543
23 *671:13 *811:15 0.00232355
24 *671:13 *844:15 0.000700485
25 *671:13 *866:13 0.00056912
26 *671:19 *821:15 2.2154e-05
27 *671:21 *693:21 0.0283202
28 *671:21 *720:29 0.000145451
29 *671:21 *728:17 0.000147467
30 *671:21 *748:9 0
31 *671:21 *792:31 0.000640935
32 *671:21 *794:27 0.000257213
33 *671:21 *794:29 0.00387801
34 *671:21 *808:13 0.000359095
35 *671:21 *808:23 0.000156142
36 *671:21 *824:13 0.000277601
37 *671:21 *828:13 0
38 *671:21 *829:13 0
39 *671:21 *866:13 0.00320529
40 *671:29 *693:39 0.00516264
41 *671:29 *711:25 0.00531817
42 *671:29 *715:33 0.00581181
43 *671:29 *728:17 0.0129038
44 *671:29 *732:17 0.00507126
45 *671:29 *735:13 0.000563075
46 *671:29 *740:9 0.00254549
47 *671:29 *754:13 0.000125621
48 *671:29 *755:13 0.00495454
49 *671:29 *756:15 2.64827e-05
50 *671:29 *757:15 1.2632e-05
51 *671:29 *764:15 0.00537833
52 *671:29 *766:15 0.00054008
53 *671:29 *770:27 0.00251572
54 *671:29 *771:17 0.00752113
55 *671:29 *790:29 0.00174365
56 *671:29 *792:31 0.000956387
57 *671:29 *794:29 0.00153947
58 *671:29 *805:25 0.00801152
59 *671:29 *808:25 0.000957941
60 *671:35 *787:9 0
61 *671:35 *788:9 3.8848e-05
62 *671:35 *794:39 4.9256e-05
63 *671:37 *766:15 0.00216313
64 *671:37 *790:29 0
65 *671:37 *808:25 0.0546216
66 *47:21 *671:13 9.39922e-05
67 *108:13 *671:13 0
68 *108:13 *671:29 0
69 *646:18 *671:37 0.00619664
*RES
1 *988:analog_ctrl[0] *671:11 12.2154 
2 *671:11 *671:13 46.5099 
3 *671:13 *671:19 23.6732 
4 *671:19 *671:21 400.821 
5 *671:21 *671:27 24.3775 
6 *671:27 *671:29 74.76 
7 *671:29 *671:35 26.1382 
8 *671:35 *671:37 1044.48 
9 *671:37 *671:39 15 
10 *671:39 *986:pd 305.629 
*END

*D_NET *672 0.0788803
*CONN
*I *984:itrim_2_3[1] I *D CF_ADC_DSM20
*I *988:analog_ctrl[100] O *D soc_sys
*CAP
1 *984:itrim_2_3[1] 0.00664762
2 *988:analog_ctrl[100] 0.000928982
3 *672:17 0.0334855
4 *672:15 0.0277669
5 *984:itrim_2_3[1] *984:itrim_sum[3] 0
6 *984:itrim_2_3[1] *984:itrim_2_3[0] 0.000995235
7 *984:itrim_2_3[1] *984:itrim_2_3[2] 0
8 *984:itrim_2_3[1] *984:itrim_2_3[4] 0.000607389
9 *984:itrim_2_3[1] *984:itrim_sum[5] 0
10 *984:itrim_2_3[1] *984:itrim_2_3[5] 0
11 *984:itrim_2_3[1] *674:25 0
12 *984:itrim_2_3[1] *731:17 9.17486e-05
13 *672:15 *824:13 0.000435408
14 *672:15 *867:17 6.83145e-05
15 *672:17 *674:9 0.00785317
16 *108:13 *672:15 0
*RES
1 *988:analog_ctrl[100] *672:15 23.2685 
2 *672:15 *672:17 84.7205 
3 *672:17 *984:itrim_2_3[1] 36.9752 
*END

*D_NET *673 0.0919339
*CONN
*I *984:itrim_2_3[2] I *D CF_ADC_DSM20
*I *988:analog_ctrl[101] O *D soc_sys
*CAP
1 *984:itrim_2_3[2] 0.00320472
2 *988:analog_ctrl[101] 7.50142e-05
3 *673:17 0.0150049
4 *673:15 0.0141221
5 *673:9 0.0051378
6 *673:7 0.00289089
7 *984:itrim_2_3[2] *984:itrim_2_3[0] 0
8 *984:itrim_2_3[2] *984:itrim_2_3[4] 9.31364e-05
9 *984:itrim_2_3[2] *984:itrim_2_3[5] 0
10 *984:itrim_2_3[2] *984:itrim_1[0] 0.00110899
11 *984:itrim_2_3[2] *674:25 0.000344762
12 *984:itrim_2_3[2] *733:17 0.000179651
13 *984:itrim_2_3[2] *749:21 3.12727e-05
14 *673:15 *681:15 0.00259534
15 *673:15 *782:17 0.00661007
16 *673:17 *687:13 0.028849
17 *673:17 *748:21 0.00811761
18 *673:17 *870:17 0.00326372
19 *984:iin *984:itrim_2_3[2] 0.000294471
20 *984:itrim_2_3[1] *984:itrim_2_3[2] 0
21 *656:61 *984:itrim_2_3[2] 1.04361e-05
*RES
1 *988:analog_ctrl[101] *673:7 1.25321 
2 *673:7 *673:9 59.305 
3 *673:9 *673:15 28.4208 
4 *673:15 *673:17 412.856 
5 *673:17 *984:itrim_2_3[2] 24.7481 
*END

*D_NET *674 0.0697431
*CONN
*I *984:itrim_2_3[3] I *D CF_ADC_DSM20
*I *988:analog_ctrl[102] O *D soc_sys
*CAP
1 *984:itrim_2_3[3] 0
2 *988:analog_ctrl[102] 7.48937e-05
3 *674:25 0.0058498
4 *674:9 0.0266109
5 *674:7 0.020836
6 *674:25 *984:itrim_2_3[4] 2.19644e-05
7 *674:25 *984:itrim_2_3[5] 0.00775601
8 *674:25 *984:itrim_1[0] 5.94289e-06
9 *674:25 *749:21 1.49333e-06
10 *674:25 *749:25 0.000364411
11 *984:iin *674:25 2.37336e-05
12 *984:itrim_2_3[1] *674:25 0
13 *984:itrim_2_3[2] *674:25 0.000344762
14 *672:17 *674:9 0.00785317
*RES
1 *988:analog_ctrl[102] *674:7 1.25321 
2 *674:7 *674:9 467.086 
3 *674:9 *674:25 49.6145 
4 *674:25 *984:itrim_2_3[3] 8 
*END

*D_NET *675 0.0582184
*CONN
*I *984:itrim_2_3[4] I *D CF_ADC_DSM20
*I *988:analog_ctrl[103] O *D soc_sys
*CAP
1 *984:itrim_2_3[4] 0.00102998
2 *988:analog_ctrl[103] 7.48937e-05
3 *675:15 0.00705178
4 *675:9 0.0261042
5 *675:7 0.0201573
6 *984:itrim_2_3[4] *984:itrim_sum[2] 0
7 *984:itrim_2_3[4] *984:itrim_sum[5] 1.7787e-05
8 *984:itrim_2_3[4] *678:25 0
9 *984:itrim_2_3[4] *679:17 0.00121169
10 *984:itrim_2_3[4] *736:13 0.00182146
11 *984:itrim_2_3[1] *984:itrim_2_3[4] 0.000607389
12 *984:itrim_2_3[2] *984:itrim_2_3[4] 9.31364e-05
13 *656:61 *984:itrim_2_3[4] 2.68408e-05
14 *674:25 *984:itrim_2_3[4] 2.19644e-05
*RES
1 *988:analog_ctrl[103] *675:7 1.25321 
2 *675:7 *675:9 451.592 
3 *675:9 *675:15 32.2848 
4 *675:15 *984:itrim_2_3[4] 41.2914 
*END

*D_NET *676 0.0700355
*CONN
*I *984:itrim_2_3[5] I *D CF_ADC_DSM20
*I *988:analog_ctrl[104] O *D soc_sys
*CAP
1 *984:itrim_2_3[5] 0.00407374
2 *988:analog_ctrl[104] 0.000839912
3 *676:17 0.0246464
4 *676:15 0.0214125
5 *984:itrim_2_3[5] *984:itrim_1[0] 0.000659259
6 *984:itrim_2_3[5] *731:17 0.000395687
7 *676:15 *824:13 0.000917285
8 *676:17 *677:9 0
9 *676:17 *678:15 5.73415e-05
10 *984:itrim_2_3[1] *984:itrim_2_3[5] 0
11 *984:itrim_2_3[2] *984:itrim_2_3[5] 0
12 *108:13 *676:15 0
13 *118:17 *676:17 0.00927735
14 *674:25 *984:itrim_2_3[5] 0.00775601
*RES
1 *988:analog_ctrl[104] *676:15 22.693 
2 *676:15 *676:17 464.269 
3 *676:17 *984:itrim_2_3[5] 39.7663 
*END

*D_NET *677 0.0939702
*CONN
*I *984:itrim_sum[0] I *D CF_ADC_DSM20
*I *988:analog_ctrl[105] O *D soc_sys
*CAP
1 *984:itrim_sum[0] 0.00102716
2 *988:analog_ctrl[105] 7.48937e-05
3 *677:17 0.00646342
4 *677:15 0.00835317
5 *677:9 0.0079283
6 *677:7 0.00508628
7 *984:itrim_sum[0] *984:itrim_sum[1] 0.000478981
8 *984:itrim_sum[0] *984:itrim_sum[3] 0.00166677
9 *984:itrim_sum[0] *984:itrim_sum[5] 0.00054237
10 *677:15 *802:13 0.00658829
11 *677:17 *689:17 0.0228187
12 *677:17 *691:9 0.0226537
13 *677:17 *717:17 0.00325976
14 *677:17 *719:17 0
15 *677:17 *728:33 0.00497706
16 *677:17 *876:21 0.00202959
17 *655:51 *984:itrim_sum[0] 2.17681e-05
18 *676:17 *677:9 0
*RES
1 *988:analog_ctrl[105] *677:7 1.25321 
2 *677:7 *677:9 109.309 
3 *677:9 *677:15 28.4208 
4 *677:15 *677:17 372.712 
5 *677:17 *984:itrim_sum[0] 20.5463 
*END

*D_NET *678 0.0715456
*CONN
*I *984:itrim_sum[1] I *D CF_ADC_DSM20
*I *988:analog_ctrl[106] O *D soc_sys
*CAP
1 *984:itrim_sum[1] 0.000436673
2 *988:analog_ctrl[106] 0.000420227
3 *678:25 0.00161488
4 *678:23 0.00630381
5 *678:17 0.0229917
6 *678:15 0.0182863
7 *984:itrim_sum[1] *984:itrim_sum[5] 0.00054753
8 *678:15 *824:13 1.70365e-05
9 *678:23 *984:itrim_1[9] 0
10 *678:23 *870:15 0
11 *678:25 *679:17 0.000532903
12 *678:25 *681:17 0.00162088
13 *678:25 *694:17 0.000118547
14 *678:25 *700:17 0.000303222
15 *678:25 *702:23 8.11434e-05
16 *678:25 *736:13 0
17 *984:iin *984:itrim_sum[1] 6.27951e-06
18 *984:itrim_sum[0] *984:itrim_sum[1] 0.000478981
19 *984:itrim_2_3[4] *678:25 0
20 *108:13 *678:15 4.59554e-06
21 *118:17 *678:17 0.0176697
22 *655:51 *984:itrim_sum[1] 5.38235e-05
23 *676:17 *678:15 5.73415e-05
*RES
1 *988:analog_ctrl[106] *678:15 22.4271 
2 *678:15 *678:17 77.9931 
3 *678:17 *678:23 29.7517 
4 *678:23 *678:25 43.8107 
5 *678:25 *984:itrim_sum[1] 17.6268 
*END

*D_NET *679 0.0552017
*CONN
*I *984:itrim_sum[2] I *D CF_ADC_DSM20
*I *988:analog_ctrl[107] O *D soc_sys
*CAP
1 *984:itrim_sum[2] 0.000404405
2 *988:analog_ctrl[107] 7.48937e-05
3 *679:17 0.00563317
4 *679:9 0.0256846
5 *679:7 0.0205307
6 *984:itrim_sum[2] *984:itrim_sum[4] 0.000182958
7 *984:itrim_sum[2] *984:itrim_2_3[0] 7.63068e-05
8 *984:itrim_sum[2] *984:itrim_sum[5] 0.000676224
9 *679:17 *736:13 0.000193934
10 *984:itrim_2_3[4] *984:itrim_sum[2] 0
11 *984:itrim_2_3[4] *679:17 0.00121169
12 *678:25 *679:17 0.000532903
*RES
1 *988:analog_ctrl[107] *679:7 1.25321 
2 *679:7 *679:9 459.339 
3 *679:9 *679:17 49.1618 
4 *679:17 *984:itrim_sum[2] 17.344 
*END

*D_NET *680 0.0769293
*CONN
*I *984:itrim_sum[3] I *D CF_ADC_DSM20
*I *988:analog_ctrl[108] O *D soc_sys
*CAP
1 *984:itrim_sum[3] 0.00343549
2 *988:analog_ctrl[108] 0.000753483
3 *680:17 0.0307376
4 *680:15 0.0280556
5 *984:itrim_sum[3] *984:itrim_sum[4] 3.95629e-05
6 *984:itrim_sum[3] *984:itrim_sum[5] 0.000246226
7 *984:itrim_sum[3] *726:13 0
8 *984:itrim_sum[3] *731:17 0.000254188
9 *680:15 *715:29 0.000128083
10 *680:15 *824:13 0.000967765
11 *680:17 *683:9 0.00798656
12 *680:17 *866:25 0
13 *984:itrim_sum[0] *984:itrim_sum[3] 0.00166677
14 *984:itrim_2_3[1] *984:itrim_sum[3] 0
15 *108:13 *680:15 0
16 *655:51 *984:itrim_sum[3] 0.00265788
*RES
1 *988:analog_ctrl[108] *680:15 22.7359 
2 *680:15 *680:17 86.3707 
3 *680:17 *984:itrim_sum[3] 31.0485 
*END

*D_NET *681 0.0842325
*CONN
*I *984:itrim_sum[4] I *D CF_ADC_DSM20
*I *988:analog_ctrl[109] O *D soc_sys
*CAP
1 *984:itrim_sum[4] 0.000413309
2 *988:analog_ctrl[109] 7.48937e-05
3 *681:17 0.0105714
4 *681:15 0.013168
5 *681:9 0.00579605
6 *681:7 0.00286103
7 *984:itrim_sum[4] *984:itrim_2_3[0] 0.00032905
8 *681:15 *782:17 0.00165568
9 *681:17 *692:13 0.0265646
10 *681:17 *694:17 0
11 *681:17 *700:17 0.0054813
12 *681:17 *702:23 0.0124644
13 *681:17 *705:25 2.95125e-05
14 *681:17 *707:17 0.000384505
15 *681:17 *731:17 0
16 *681:17 *736:13 0
17 *984:itrim_sum[2] *984:itrim_sum[4] 0.000182958
18 *984:itrim_sum[3] *984:itrim_sum[4] 3.95629e-05
19 *673:15 *681:15 0.00259534
20 *678:25 *681:17 0.00162088
*RES
1 *988:analog_ctrl[109] *681:7 1.25321 
2 *681:7 *681:9 60.0093 
3 *681:9 *681:15 27.1328 
4 *681:15 *681:17 417.786 
5 *681:17 *984:itrim_sum[4] 17.5943 
*END

*D_NET *682 0.105849
*CONN
*I *984:sleep I *D CF_ADC_DSM20
*I *988:analog_ctrl[10] O *D soc_sys
*CAP
1 *984:sleep 2.27091e-05
2 *988:analog_ctrl[10] 5.03611e-05
3 *682:13 0.0340349
4 *682:11 0.0340122
5 *682:9 0.0153297
6 *682:7 0.0153801
7 *682:9 *844:17 0
8 *86:26 *682:9 0.00701919
*RES
1 *988:analog_ctrl[10] *682:7 1.25321 
2 *682:7 *682:9 350.879 
3 *682:9 *682:11 8 
4 *682:11 *682:13 105.329 
5 *682:13 *984:sleep 8.54893 
*END

*D_NET *683 0.0705821
*CONN
*I *984:itrim_sum[5] I *D CF_ADC_DSM20
*I *988:analog_ctrl[110] O *D soc_sys
*CAP
1 *984:itrim_sum[5] 0.00176855
2 *988:analog_ctrl[110] 7.48937e-05
3 *683:17 0.00293714
4 *683:15 0.0033759
5 *683:9 0.0195423
6 *683:7 0.0174099
7 *984:itrim_sum[5] *984:itrim_2_3[0] 0.000220439
8 *984:itrim_sum[5] *732:29 8.96755e-05
9 *683:9 *866:23 0
10 *683:17 *688:13 0.000393182
11 *683:17 *738:17 0.00728879
12 *984:iin *984:itrim_sum[5] 0.000182428
13 *984:itrim_sum[0] *984:itrim_sum[5] 0.00054237
14 *984:itrim_sum[1] *984:itrim_sum[5] 0.00054753
15 *984:itrim_sum[2] *984:itrim_sum[5] 0.000676224
16 *984:itrim_sum[3] *984:itrim_sum[5] 0.000246226
17 *984:itrim_2_3[1] *984:itrim_sum[5] 0
18 *984:itrim_2_3[4] *984:itrim_sum[5] 1.7787e-05
19 *13:18 *683:17 0.00728209
20 *680:17 *683:9 0.00798656
*RES
1 *988:analog_ctrl[110] *683:7 1.25321 
2 *683:7 *683:9 387.502 
3 *683:9 *683:15 22.2384 
4 *683:15 *683:17 93.1107 
5 *683:17 *984:itrim_sum[5] 37.4647 
*END

*D_NET *684 0.071663
*CONN
*I *984:itrim_1[0] I *D CF_ADC_DSM20
*I *988:analog_ctrl[111] O *D soc_sys
*CAP
1 *984:itrim_1[0] 0.00179411
2 *988:analog_ctrl[111] 7.48937e-05
3 *684:17 0.00377291
4 *684:15 0.00398007
5 *684:9 0.0162724
6 *684:7 0.0143461
7 *684:9 *866:23 0
8 *684:9 *866:25 0.00580836
9 *684:15 *817:13 0
10 *684:17 *688:13 0.000901052
11 *684:17 *714:17 0.00187984
12 *684:17 *723:33 0.000378273
13 *984:itrim_2_3[2] *984:itrim_1[0] 0.00110899
14 *984:itrim_2_3[5] *984:itrim_1[0] 0.000659259
15 *13:18 *684:17 0.0121103
16 *18:15 *684:17 0.00849759
17 *655:57 *684:15 7.29107e-05
18 *674:25 *984:itrim_1[0] 5.94289e-06
*RES
1 *988:analog_ctrl[111] *684:7 1.25321 
2 *684:7 *684:9 316.369 
3 *684:9 *684:15 21.4656 
4 *684:15 *684:17 154.384 
5 *684:17 *984:itrim_1[0] 23.4167 
*END

*D_NET *685 0.0496571
*CONN
*I *984:itrim_1[1] I *D CF_ADC_DSM20
*I *988:analog_ctrl[112] O *D soc_sys
*CAP
1 *984:itrim_1[1] 0.00209
2 *988:analog_ctrl[112] 7.50142e-05
3 *685:19 0.00400007
4 *685:9 0.0203464
5 *685:7 0.0185114
6 *984:itrim_1[1] *984:itrim_1[2] 0
7 *984:itrim_1[1] *731:17 0.000235248
8 *685:19 *716:41 0.0002891
9 *685:19 *719:17 0.00145107
10 *685:19 *876:19 0.0026588
11 *685:19 *876:21 0
*RES
1 *988:analog_ctrl[112] *685:7 1.25321 
2 *685:7 *685:9 402.292 
3 *685:9 *685:19 47.5786 
4 *685:19 *984:itrim_1[1] 17.925 
*END

*D_NET *686 0.0473026
*CONN
*I *984:itrim_1[2] I *D CF_ADC_DSM20
*I *988:analog_ctrl[113] O *D soc_sys
*CAP
1 *984:itrim_1[2] 0.00275521
2 *988:analog_ctrl[113] 7.48937e-05
3 *686:9 0.0218194
4 *686:7 0.0191391
5 *984:itrim_1[2] *984:itrim_1[3] 0.00344525
6 *984:itrim_1[2] *870:15 6.8687e-05
7 *686:9 *828:23 0
8 *984:itrim_1[1] *984:itrim_1[2] 0
*RES
1 *988:analog_ctrl[113] *686:7 1.25321 
2 *686:7 *686:9 426.942 
3 *686:9 *984:itrim_1[2] 24.5905 
*END

*D_NET *687 0.0704452
*CONN
*I *984:itrim_1[3] I *D CF_ADC_DSM20
*I *988:analog_ctrl[114] O *D soc_sys
*CAP
1 *984:itrim_1[3] 0.00209155
2 *988:analog_ctrl[114] 0.00227048
3 *687:13 0.0130401
4 *687:11 0.0109968
5 *687:9 0.00231871
6 *984:itrim_1[3] *984:itrim_1[4] 0.0010252
7 *984:itrim_1[3] *731:17 2.07116e-05
8 *687:9 *748:19 0.000142426
9 *687:9 *794:27 0
10 *687:9 *824:17 0.000766394
11 *687:9 *828:23 0
12 *687:13 *748:21 0.00547856
13 *984:itrim_1[2] *984:itrim_1[3] 0.00344525
14 *673:17 *687:13 0.028849
*RES
1 *988:analog_ctrl[114] *687:9 49.7246 
2 *687:9 *687:11 1.09786 
3 *687:11 *687:13 379.32 
4 *687:13 *984:itrim_1[3] 23.7591 
*END

*D_NET *688 0.0625135
*CONN
*I *984:itrim_1[4] I *D CF_ADC_DSM20
*I *988:analog_ctrl[115] O *D soc_sys
*CAP
1 *984:itrim_1[4] 0.00201076
2 *988:analog_ctrl[115] 0.000353346
3 *688:13 0.0210524
4 *688:11 0.019395
5 *984:itrim_1[4] *731:17 4.19416e-05
6 *688:11 *770:15 4.52243e-05
7 *688:11 *790:27 0.000812432
8 *688:11 *792:15 0.000715128
9 *688:13 *714:17 0.000815252
10 *688:13 *723:33 0.0118359
11 *688:13 *738:17 0.000342859
12 *688:13 *792:29 0.0002881
13 *984:itrim_1[3] *984:itrim_1[4] 0.0010252
14 *13:18 *688:13 0.00171152
15 *18:15 *688:13 0.000774114
16 *683:17 *688:13 0.000393182
17 *684:17 *688:13 0.000901052
*RES
1 *988:analog_ctrl[115] *688:11 18.565 
2 *688:11 *688:13 77.3584 
3 *688:13 *984:itrim_1[4] 21.8647 
*END

*D_NET *689 0.0644279
*CONN
*I *984:itrim_1[5] I *D CF_ADC_DSM20
*I *988:analog_ctrl[116] O *D soc_sys
*CAP
1 *984:itrim_1[5] 0.0014197
2 *988:analog_ctrl[116] 0.00199354
3 *689:17 0.0109047
4 *689:15 0.0114785
5 *984:itrim_1[5] *984:itrim_1[8] 0.000397547
6 *984:itrim_1[5] *984:itrim_1[7] 0.000239355
7 *984:itrim_1[5] *690:25 0.000125256
8 *984:itrim_1[5] *731:17 1.95819e-05
9 *689:17 *691:9 0.00345808
10 *689:17 *717:17 0.00751253
11 *689:17 *718:17 1.47563e-05
12 *689:17 *722:17 1.19831e-05
13 *689:17 *724:17 0
14 *689:17 *727:17 0
15 *689:17 *728:33 0.00403359
16 *689:17 *743:17 0
17 *65:13 *689:15 0
18 *677:17 *689:17 0.0228187
*RES
1 *988:analog_ctrl[116] *689:15 43.4607 
2 *689:15 *689:17 376.938 
3 *689:17 *984:itrim_1[5] 19.9654 
*END

*D_NET *690 0.0560518
*CONN
*I *984:itrim_1[6] I *D CF_ADC_DSM20
*I *988:analog_ctrl[117] O *D soc_sys
*CAP
1 *984:itrim_1[6] 0
2 *988:analog_ctrl[117] 5.86972e-05
3 *690:25 0.00241093
4 *690:9 0.0171062
5 *690:7 0.0147539
6 *690:9 *714:17 0.00622074
7 *690:9 *715:29 0
8 *690:9 *721:17 0.00635197
9 *690:9 *723:33 0.00664533
10 *690:9 *725:17 3.88739e-05
11 *690:9 *738:17 0
12 *690:25 *984:itrim_1[8] 0.000384982
13 *690:25 *984:itrim_1[7] 0.000785541
14 *690:25 *692:13 0
15 *690:25 *736:13 0.00116937
16 *984:itrim_1[5] *690:25 0.000125256
17 *13:18 *690:9 0
*RES
1 *988:analog_ctrl[117] *690:7 1.25321 
2 *690:7 *690:9 384.685 
3 *690:9 *690:25 43.751 
4 *690:25 *984:itrim_1[6] 8 
*END

*D_NET *691 0.0643237
*CONN
*I *984:itrim_1[7] I *D CF_ADC_DSM20
*I *988:analog_ctrl[118] O *D soc_sys
*CAP
1 *984:itrim_1[7] 0.00168702
2 *988:analog_ctrl[118] 5.6041e-05
3 *691:9 0.013767
4 *691:7 0.012136
5 *691:9 *715:29 2.57266e-05
6 *691:9 *719:17 0
7 *691:9 *725:17 0
8 *691:9 *728:31 1.43151e-05
9 *691:9 *728:33 0.00929731
10 *691:9 *770:25 0.000203536
11 *984:itrim_1[5] *984:itrim_1[7] 0.000239355
12 *677:17 *691:9 0.0226537
13 *689:17 *691:9 0.00345808
14 *690:25 *984:itrim_1[7] 0.000785541
*RES
1 *988:analog_ctrl[118] *691:7 1.25321 
2 *691:7 *691:9 398.771 
3 *691:9 *984:itrim_1[7] 20.0283 
*END

*D_NET *692 0.0596009
*CONN
*I *984:itrim_1[8] I *D CF_ADC_DSM20
*I *988:analog_ctrl[119] O *D soc_sys
*CAP
1 *984:itrim_1[8] 0.000355301
2 *988:analog_ctrl[119] 0.000362413
3 *692:13 0.0130674
4 *692:11 0.0130745
5 *984:itrim_1[8] *731:17 8.73652e-05
6 *692:11 *728:31 0.000436373
7 *692:11 *735:13 0.000835103
8 *692:13 *695:11 6.80192e-07
9 *692:13 *700:17 0.00401343
10 *692:13 *736:13 0
11 *984:itrim_1[5] *984:itrim_1[8] 0.000397547
12 *18:23 *692:13 2.11066e-05
13 *681:17 *692:13 0.0265646
14 *690:25 *984:itrim_1[8] 0.000384982
15 *690:25 *692:13 0
*RES
1 *988:analog_ctrl[119] *692:11 18.6079 
2 *692:11 *692:13 400.179 
3 *692:13 *984:itrim_1[8] 18.5792 
*END

*D_NET *693 0.440266
*CONN
*I *984:enable_hv I *D CF_ADC_DSM20
*I *988:analog_ctrl[11] O *D soc_sys
*CAP
1 *984:enable_hv 0.00231697
2 *988:analog_ctrl[11] 0.000236078
3 *693:41 0.0443545
4 *693:39 0.1139
5 *693:35 0.0720227
6 *693:21 0.00984051
7 *693:19 0.00969938
8 *693:13 0.0101326
9 *693:11 0.0103496
10 *984:enable_hv *756:47 2.44773e-05
11 *693:13 *715:29 0.00299643
12 *693:13 *808:13 0.000485186
13 *693:13 *821:15 0.000244632
14 *693:13 *824:13 0.0061006
15 *693:19 *837:15 2.05503e-05
16 *693:21 *720:29 0.000166768
17 *693:21 *792:31 0.000991792
18 *693:21 *794:27 0.000113547
19 *693:21 *824:13 0.00056677
20 *693:35 *696:15 1.91026e-05
21 *693:35 *716:39 4.62843e-05
22 *693:35 *720:29 5.45304e-05
23 *693:35 *732:27 6.6325e-06
24 *693:39 *711:25 0.000595391
25 *693:39 *716:35 0.0013544
26 *693:39 *720:17 0.00160393
27 *693:39 *720:29 0.000292175
28 *693:39 *723:23 0.00179462
29 *693:39 *728:17 0.00198229
30 *693:39 *764:15 0.000603306
31 *693:39 *766:15 0.00449464
32 *693:39 *770:37 0.000126443
33 *693:39 *771:17 0.00184824
34 *693:39 *794:39 0.00011575
35 *693:41 *741:17 0
36 *693:41 *789:17 0.00545102
37 *693:41 *791:23 0.000393514
38 *693:41 *805:37 0.00797266
39 *693:41 *810:17 0.0314971
40 *984:vgnde_vnb *984:enable_hv 4.52005e-05
41 *988:adc_dout[6] *693:39 0.000594499
42 *47:21 *693:13 0.00146945
43 *108:13 *693:13 0
44 *646:18 *693:39 0.010752
45 *647:17 *693:39 0.00607139
46 *648:17 *693:39 0.00719956
47 *653:27 *693:39 0.00877544
48 *659:22 *693:39 0.00777402
49 *671:13 *693:13 0.019287
50 *671:21 *693:21 0.0283202
51 *671:29 *693:39 0.00516264
*RES
1 *988:analog_ctrl[11] *693:11 12.9196 
2 *693:11 *693:13 49.0859 
3 *693:13 *693:19 23.3211 
4 *693:19 *693:21 310.776 
5 *693:21 *693:35 32.8461 
6 *693:35 *693:39 23.0145 
7 *693:39 *693:41 145.902 
8 *693:41 *984:enable_hv 23.0035 
*END

*D_NET *694 0.066698
*CONN
*I *984:itrim_1[9] I *D CF_ADC_DSM20
*I *988:analog_ctrl[120] O *D soc_sys
*CAP
1 *984:itrim_1[9] 0.000732824
2 *988:analog_ctrl[120] 6.3773e-05
3 *694:17 0.0017365
4 *694:9 0.0111686
5 *694:7 0.0102287
6 *984:itrim_1[9] *731:17 0.000161017
7 *694:7 *736:13 1.01078e-05
8 *694:9 *712:17 0.00853715
9 *694:9 *736:13 0.0321927
10 *694:9 *745:17 0.000578332
11 *694:17 *736:13 0.00116981
12 *678:23 *984:itrim_1[9] 0
13 *678:25 *694:17 0.000118547
14 *681:17 *694:17 0
*RES
1 *988:analog_ctrl[120] *694:7 1.25321 
2 *694:7 *694:9 412.856 
3 *694:9 *694:17 45.3343 
4 *694:17 *984:itrim_1[9] 21.3078 
*END

*D_NET *695 0.367596
*CONN
*I *984:refsel[0] I *D CF_ADC_DSM20
*I *988:analog_ctrl[121] O *D soc_sys
*CAP
1 *984:refsel[0] 0.00154088
2 *988:analog_ctrl[121] 0.000104001
3 *695:17 0.0155446
4 *695:15 0.0140037
5 *695:13 0.0200291
6 *695:11 0.0201331
7 *984:refsel[0] *984:refsel[1] 0.00119446
8 *984:refsel[0] *984:SUMCAP3[2] 2.5343e-05
9 *984:refsel[0] *984:SUMCAP3_EN 6.45941e-05
10 *984:refsel[0] *984:SUMCAP2_EN 6.04252e-05
11 *984:refsel[0] *984:SUMCAP2[2] 1.05658e-05
12 *695:11 *700:15 0.000104078
13 *695:11 *735:13 0.000106134
14 *695:13 *700:17 0.000175879
15 *695:13 *709:17 0.00860195
16 *695:13 *711:29 0.0730413
17 *695:13 *713:17 0.00986449
18 *695:13 *732:27 0.00103986
19 *695:13 *732:29 0.071403
20 *695:17 *732:33 0.0738219
21 *695:17 *735:25 3.46308e-05
22 *695:17 *749:29 0.0200471
23 *20:55 *984:refsel[0] 0.000179913
24 *80:13 *695:17 0.0364462
25 *670:31 *695:13 1.77893e-05
26 *692:13 *695:11 6.80192e-07
*RES
1 *988:analog_ctrl[121] *695:11 17.1911 
2 *695:11 *695:13 175.351 
3 *695:13 *695:15 8 
4 *695:15 *695:17 136.584 
5 *695:17 *984:refsel[0] 43.8107 
*END

*D_NET *696 0.319326
*CONN
*I *984:refsel[1] I *D CF_ADC_DSM20
*I *988:analog_ctrl[122] O *D soc_sys
*CAP
1 *984:refsel[1] 0.0021343
2 *988:analog_ctrl[122] 0.00091039
3 *696:21 0.0295767
4 *696:19 0.0274424
5 *696:17 0.0476738
6 *696:15 0.0485842
7 *984:refsel[1] *984:refsel[6] 0
8 *984:refsel[1] *984:refsel[4] 1.02219e-05
9 *984:refsel[1] *984:refsel[3] 9.33529e-06
10 *984:refsel[1] *984:refsel[2] 8.82814e-05
11 *984:refsel[1] *984:SUMCAP3[0] 9.30856e-05
12 *984:refsel[1] *984:SUMCAP3[2] 0
13 *984:refsel[1] *984:FCAP2[3] 0
14 *984:refsel[1] *742:37 0.000100052
15 *696:15 *711:25 0
16 *696:15 *716:39 0.00170424
17 *696:15 *720:29 0.00171017
18 *696:17 *716:41 0
19 *696:17 *720:33 0.0731362
20 *696:17 *727:17 0.0101073
21 *696:17 *735:21 1.9035e-05
22 *696:21 *712:21 0.000642216
23 *696:21 *716:45 0.000190139
24 *696:21 *733:21 0.0734937
25 *696:21 *828:29 0
26 *984:refsel[0] *984:refsel[1] 0.00119446
27 *20:55 *984:refsel[1] 0.000486359
28 *693:35 *696:15 1.91026e-05
*RES
1 *988:analog_ctrl[122] *696:15 24.8999 
2 *696:15 *696:17 175.986 
3 *696:17 *696:19 8 
4 *696:19 *696:21 139.16 
5 *696:21 *984:refsel[1] 47.2838 
*END

*D_NET *697 0.262103
*CONN
*I *984:refsel[2] I *D CF_ADC_DSM20
*I *988:analog_ctrl[123] O *D soc_sys
*CAP
1 *984:refsel[2] 0.000264273
2 *988:analog_ctrl[123] 0.000159414
3 *697:17 0.0145745
4 *697:15 0.0143102
5 *697:13 0.0436982
6 *697:11 0.0438577
7 *984:refsel[2] *984:refsel[5] 6.10364e-06
8 *984:refsel[2] *984:refsel[4] 0.000340676
9 *984:refsel[2] *984:refsel[3] 5.84435e-05
10 *984:refsel[2] *984:SUMCAP3[0] 8.72499e-05
11 *984:refsel[2] *984:SUMCAP3[1] 0
12 *984:refsel[2] *984:FCAP1[4] 6.48951e-06
13 *984:refsel[2] *778:29 0
14 *697:11 *700:15 0.00018531
15 *697:11 *735:13 0.000188931
16 *697:13 *698:17 0.00254614
17 *697:13 *699:13 0
18 *697:13 *733:17 0
19 *697:13 *749:21 0.0121674
20 *697:17 *699:25 0.0132331
21 *697:17 *700:21 0.0394697
22 *697:17 *714:21 0.0396445
23 *697:17 *742:37 8.1601e-05
24 *697:17 *777:33 9.10986e-05
25 *984:refsel[1] *984:refsel[2] 8.82814e-05
26 *656:23 *697:13 0.0370434
*RES
1 *988:analog_ctrl[123] *697:11 17.3629 
2 *697:11 *697:13 173.066 
3 *697:13 *697:15 8 
4 *697:15 *697:17 133.707 
5 *697:17 *984:refsel[2] 30.1154 
*END

*D_NET *698 0.225102
*CONN
*I *984:refsel[3] I *D CF_ADC_DSM20
*I *988:analog_ctrl[124] O *D soc_sys
*CAP
1 *984:refsel[3] 0.00018064
2 *988:analog_ctrl[124] 0.000470404
3 *698:21 0.0232964
4 *698:19 0.0231158
5 *698:17 0.0421421
6 *698:15 0.0426125
7 *984:refsel[3] *984:refsel[6] 2.5343e-05
8 *984:refsel[3] *984:refsel[4] 5.69585e-05
9 *698:15 *716:35 5.10636e-05
10 *698:17 *699:13 0
11 *698:17 *749:21 0.00450377
12 *698:21 *984:SUMCAPFB[0] 5.34153e-05
13 *698:21 *703:43 9.94326e-05
14 *698:21 *821:29 0.0716609
15 *984:refsel[2] *984:refsel[3] 5.84435e-05
16 *984:refsel[1] *984:refsel[3] 9.33529e-06
17 *20:55 *698:21 0.000466251
18 *108:13 *698:15 4.59554e-06
19 *656:23 *698:17 0.0137482
20 *697:13 *698:17 0.00254614
*RES
1 *988:analog_ctrl[124] *698:15 22.4271 
2 *698:15 *698:17 171.035 
3 *698:17 *698:19 8 
4 *698:19 *698:21 132.849 
5 *698:21 *984:refsel[3] 25.1404 
*END

*D_NET *699 0.279595
*CONN
*I *984:refsel[4] I *D CF_ADC_DSM20
*I *988:analog_ctrl[125] O *D soc_sys
*CAP
1 *984:refsel[4] 0.000237419
2 *988:analog_ctrl[125] 0.000104319
3 *699:25 0.013233
4 *699:23 0.0129956
5 *699:21 0.00945084
6 *699:19 0.01092
7 *699:13 0.0192957
8 *699:11 0.0179309
9 *984:refsel[4] *984:refsel[13] 0
10 *984:refsel[4] *984:refsel[6] 0.000117351
11 *984:refsel[4] *984:refsel[5] 0.000141651
12 *984:refsel[4] *984:FCAP1[4] 4.71529e-06
13 *699:11 *700:15 0.000104078
14 *699:11 *735:13 0.000106134
15 *699:19 *701:19 3.79341e-06
16 *699:19 *703:19 2.0599e-05
17 *699:19 *706:19 0.00283918
18 *699:19 *817:13 0
19 *699:21 *701:21 0.0496499
20 *699:21 *703:21 0.0497193
21 *699:21 *706:21 4.75128e-05
22 *699:21 *708:17 1.45715e-05
23 *699:25 *700:21 0.000158357
24 *699:25 *709:29 9.41704e-05
25 *699:25 *718:21 0.0392906
26 *699:25 *718:31 0.000272377
27 *699:25 *730:21 0.0388566
28 *699:25 *780:29 0.000308033
29 *984:refsel[3] *984:refsel[4] 5.69585e-05
30 *984:refsel[2] *984:refsel[4] 0.000340676
31 *984:refsel[1] *984:refsel[4] 1.02219e-05
32 *19:23 *699:21 3.74769e-05
33 *697:13 *699:13 0
34 *697:17 *699:25 0.0132331
35 *698:17 *699:13 0
*RES
1 *988:analog_ctrl[125] *699:11 17.1911 
2 *699:11 *699:13 56.9221 
3 *699:13 *699:19 21.5944 
4 *699:19 *699:21 644.038 
5 *699:21 *699:23 15 
6 *699:23 *699:25 762.431 
7 *699:25 *984:refsel[4] 36.5871 
*END

*D_NET *700 0.34631
*CONN
*I *984:refsel[5] I *D CF_ADC_DSM20
*I *988:analog_ctrl[126] O *D soc_sys
*CAP
1 *984:refsel[5] 0.000279492
2 *988:analog_ctrl[126] 0.000862488
3 *700:21 0.013148
4 *700:19 0.0128685
5 *700:17 0.0367556
6 *700:15 0.0376181
7 *984:refsel[5] *984:refsel[10] 4.83486e-05
8 *984:refsel[5] *984:refsel[9] 0.00012338
9 *984:refsel[5] *984:refsel[7] 0.000166288
10 *984:refsel[5] *984:refsel[6] 6.92542e-05
11 *984:refsel[5] *984:FCAP1[4] 9.66488e-05
12 *700:15 *711:25 0.00124306
13 *700:15 *728:31 0.0014017
14 *700:15 *735:13 0.00108122
15 *700:17 *702:23 0.00986449
16 *700:17 *705:25 0.00860195
17 *700:17 *711:29 0.0720878
18 *700:17 *823:17 0.00727241
19 *700:21 *984:refsel[14] 0.00533063
20 *700:21 *701:25 0.00207002
21 *700:21 *702:27 0.0017879
22 *700:21 *710:21 0.0632664
23 *700:21 *714:21 0.000301657
24 *700:21 *718:21 0.0154848
25 *700:21 *742:37 0.00100269
26 *700:21 *777:33 9.10986e-05
27 *984:refsel[4] *984:refsel[5] 0.000141651
28 *984:refsel[2] *984:refsel[5] 6.10364e-06
29 *657:26 *700:17 0.000102921
30 *657:28 *700:17 0.00313982
31 *678:25 *700:17 0.000303222
32 *681:17 *700:17 0.0054813
33 *692:13 *700:17 0.00401343
34 *695:11 *700:15 0.000104078
35 *695:13 *700:17 0.000175879
36 *697:11 *700:15 0.00018531
37 *697:17 *700:21 0.0394697
38 *699:11 *700:15 0.000104078
39 *699:25 *700:21 0.000158357
*RES
1 *988:analog_ctrl[126] *700:15 23.0958 
2 *700:15 *700:17 172.685 
3 *700:17 *700:19 8 
4 *700:19 *700:21 135.682 
5 *700:21 *984:refsel[5] 30.0118 
*END

*D_NET *701 0.312622
*CONN
*I *984:refsel[6] I *D CF_ADC_DSM20
*I *988:analog_ctrl[127] O *D soc_sys
*CAP
1 *984:refsel[6] 0.000291888
2 *988:analog_ctrl[127] 0.00011939
3 *701:25 0.00914919
4 *701:23 0.0088573
5 *701:21 0.0177486
6 *701:19 0.0188669
7 *701:13 0.0210739
8 *701:11 0.020075
9 *984:refsel[6] *984:refsel[7] 0.000292466
10 *984:refsel[6] *703:43 1.05658e-05
11 *701:11 *732:17 9.9595e-05
12 *701:11 *735:13 0.000103309
13 *701:13 *702:15 0
14 *701:13 *732:17 6.99019e-05
15 *701:19 *702:21 0.00321713
16 *701:19 *703:19 0.000222895
17 *701:21 *743:17 0
18 *701:25 *702:27 0.0687553
19 *701:25 *706:25 0.000339936
20 *701:25 *710:21 0.0116195
21 *701:25 *718:21 0.0694041
22 *701:25 *718:31 0.000114856
23 *701:25 *787:29 2.79662e-05
24 *984:refsel[5] *984:refsel[6] 6.92542e-05
25 *984:refsel[4] *984:refsel[6] 0.000117351
26 *984:refsel[3] *984:refsel[6] 2.5343e-05
27 *984:refsel[1] *984:refsel[6] 0
28 *19:23 *701:21 0.00623836
29 *655:57 *701:19 0.00398802
30 *699:19 *701:19 3.79341e-06
31 *699:21 *701:21 0.0496499
32 *700:21 *701:25 0.00207002
*RES
1 *988:analog_ctrl[127] *701:11 17.1911 
2 *701:11 *701:13 57.5568 
3 *701:13 *701:19 23.5693 
4 *701:19 *701:21 639.46 
5 *701:21 *701:23 15 
6 *701:23 *701:25 762.431 
7 *701:25 *984:refsel[6] 36.0589 
*END

*D_NET *702 0.340131
*CONN
*I *984:refsel[7] I *D CF_ADC_DSM20
*I *988:analog_ctrl[128] O *D soc_sys
*CAP
1 *984:refsel[7] 0.000248446
2 *988:analog_ctrl[128] 0.00011664
3 *702:27 0.00882581
4 *702:25 0.00857737
5 *702:23 0.00816934
6 *702:21 0.00896073
7 *702:15 0.0187691
8 *702:13 0.0180944
9 *984:refsel[7] *984:refsel[11] 2.05503e-05
10 *984:refsel[7] *984:refsel[10] 1.55328e-05
11 *984:refsel[7] *984:refsel[9] 4.9166e-05
12 *984:refsel[7] *984:refsel[8] 6.09486e-05
13 *702:13 *732:17 4.62843e-05
14 *702:13 *735:13 4.93993e-05
15 *702:15 *703:13 0
16 *702:15 *723:23 0.000263776
17 *702:21 *703:19 2.0599e-05
18 *702:21 *705:23 0.00364227
19 *702:23 *705:25 0.0500557
20 *702:23 *707:17 6.65598e-06
21 *702:23 *730:17 4.04698e-05
22 *702:23 *736:13 0
23 *702:23 *823:17 0.0351197
24 *702:27 *706:25 0.0686275
25 *702:27 *710:21 0.0134076
26 *702:27 *787:29 6.53382e-05
27 *984:refsel[6] *984:refsel[7] 0.000292466
28 *984:refsel[5] *984:refsel[7] 0.000166288
29 *655:57 *702:21 0.000248167
30 *678:25 *702:23 8.11434e-05
31 *681:17 *702:23 0.0124644
32 *700:17 *702:23 0.00986449
33 *700:21 *702:27 0.0017879
34 *701:13 *702:15 0
35 *701:19 *702:21 0.00321713
36 *701:25 *702:27 0.0687553
*RES
1 *988:analog_ctrl[128] *702:13 17.3521 
2 *702:13 *702:15 57.4299 
3 *702:15 *702:21 22.8824 
4 *702:21 *702:23 639.812 
5 *702:23 *702:25 15 
6 *702:25 *702:27 752.902 
7 *702:27 *984:refsel[7] 35.0543 
*END

*D_NET *703 0.337217
*CONN
*I *984:refsel[8] I *D CF_ADC_DSM20
*I *988:analog_ctrl[129] O *D soc_sys
*CAP
1 *984:refsel[8] 1.70281e-05
2 *988:analog_ctrl[129] 0.000104319
3 *703:43 0.00228371
4 *703:25 0.0130769
5 *703:23 0.0108103
6 *703:21 0.00928827
7 *703:19 0.0104745
8 *703:13 0.019123
9 *703:11 0.0180412
10 *984:refsel[8] *984:refsel[9] 6.28383e-05
11 *703:11 *732:17 0.000104078
12 *703:11 *735:13 0.000106134
13 *703:13 *705:17 0
14 *703:13 *706:13 0
15 *703:13 *723:23 0
16 *703:19 *705:23 0.00420127
17 *703:19 *706:19 0.00490376
18 *703:21 *706:21 0.0497149
19 *703:25 *706:25 0.0115935
20 *703:25 *707:21 0.0341616
21 *703:25 *708:21 0.0133749
22 *703:25 *710:21 0.0637019
23 *703:25 *714:21 0
24 *703:25 *821:29 2.64347e-05
25 *703:43 *984:refsel[14] 0.0106428
26 *703:43 *984:refsel[10] 1.05658e-05
27 *703:43 *707:21 0.0109535
28 *703:43 *710:21 4.83628e-05
29 *703:43 *742:37 9.24822e-05
30 *703:43 *777:33 5.45472e-05
31 *984:refsel[7] *984:refsel[8] 6.09486e-05
32 *984:refsel[6] *703:43 1.05658e-05
33 *20:55 *703:43 8.99889e-05
34 *698:21 *703:43 9.94326e-05
35 *699:19 *703:19 2.0599e-05
36 *699:21 *703:21 0.0497193
37 *701:19 *703:19 0.000222895
38 *702:15 *703:13 0
39 *702:21 *703:19 2.0599e-05
*RES
1 *988:analog_ctrl[129] *703:11 17.1911 
2 *703:11 *703:13 57.176 
3 *703:13 *703:19 25.2867 
4 *703:19 *703:21 640.341 
5 *703:21 *703:23 8 
6 *703:23 *703:25 116.706 
7 *703:25 *703:43 45.5881 
8 *703:43 *984:refsel[8] 15.7768 
*END

*D_NET *704 0.4182
*CONN
*I *984:iso I *D CF_ADC_DSM20
*I *988:analog_ctrl[12] O *D soc_sys
*CAP
1 *984:iso 0.000368706
2 *988:analog_ctrl[12] 5.22483e-05
3 *704:17 0.0221962
4 *704:15 0.0218274
5 *704:13 0.0594772
6 *704:11 0.0594772
7 *704:9 0.00438193
8 *704:7 0.00443418
9 *704:13 *811:21 0.152516
10 *704:17 *755:33 0.0124878
11 *704:17 *780:17 0.00650164
12 *704:17 *786:17 0.0012365
13 *704:17 *793:17 0
14 *704:17 *795:17 0
15 *704:17 *798:17 0.0143682
16 *704:17 *799:17 0.0430989
17 *704:17 *802:17 0
18 *704:17 *803:17 0.00392629
19 *704:17 *803:23 0.00047177
20 *704:17 *812:17 0.000891841
21 *15:37 *984:iso 2.65696e-05
22 *15:43 *984:iso 0
23 *20:47 *704:17 0.00049486
24 *651:10 *704:17 0.00812289
25 *652:13 *704:17 0.00049486
26 *654:13 *704:17 0.00134619
*RES
1 *988:analog_ctrl[12] *704:7 1.25321 
2 *704:7 *704:9 95.2236 
3 *704:9 *704:11 8 
4 *704:11 *704:13 283.802 
5 *704:13 *704:15 8 
6 *704:15 *704:17 128.259 
7 *704:17 *984:iso 17.5109 
*END

*D_NET *705 0.340909
*CONN
*I *984:refsel[9] I *D CF_ADC_DSM20
*I *988:analog_ctrl[130] O *D soc_sys
*CAP
1 *984:refsel[9] 0.000586484
2 *988:analog_ctrl[130] 0.000455762
3 *705:29 0.00882908
4 *705:27 0.00824259
5 *705:25 0.00756178
6 *705:23 0.00853462
7 *705:17 0.0185836
8 *705:15 0.0180665
9 *984:refsel[9] *984:SUMCAPIN[3] 7.44777e-05
10 *984:refsel[9] *984:SUMCAPIN[1] 2.63049e-05
11 *984:refsel[9] *984:SUMCAPIN[0] 4.32869e-05
12 *984:refsel[9] *984:refsel[12] 2.01422e-06
13 *984:refsel[9] *984:refsel[11] 0.000235994
14 *984:refsel[9] *984:refsel[10] 6.49977e-05
15 *984:refsel[9] *984:FCAP1[4] 0.000963147
16 *984:refsel[9] *778:29 0.000239817
17 *984:refsel[9] *823:21 7.74585e-05
18 *705:15 *716:35 4.62843e-05
19 *705:15 *720:17 5.10636e-05
20 *705:17 *706:13 0
21 *705:23 *706:19 0.000248167
22 *705:25 *707:17 0.0501047
23 *705:29 *984:FCAP1[4] 1.03955e-05
24 *705:29 *707:21 0.0154365
25 *705:29 *717:21 0.0676193
26 *705:29 *823:21 0.0676619
27 *984:refsel[8] *984:refsel[9] 6.28383e-05
28 *984:refsel[7] *984:refsel[9] 4.9166e-05
29 *984:refsel[5] *984:refsel[9] 0.00012338
30 *655:57 *705:23 0.000377124
31 *681:17 *705:25 2.95125e-05
32 *700:17 *705:25 0.00860195
33 *702:21 *705:23 0.00364227
34 *702:23 *705:25 0.0500557
35 *703:13 *705:17 0
36 *703:19 *705:23 0.00420127
*RES
1 *988:analog_ctrl[130] *705:15 22.4271 
2 *705:15 *705:17 56.4144 
3 *705:17 *705:23 24.6856 
4 *705:23 *705:25 638.052 
5 *705:25 *705:27 15 
6 *705:27 *705:29 740.515 
7 *705:29 *984:refsel[9] 17.3793 
*END

*D_NET *706 0.336246
*CONN
*I *984:refsel[10] I *D CF_ADC_DSM20
*I *988:analog_ctrl[131] O *D soc_sys
*CAP
1 *984:refsel[10] 0.000230541
2 *988:analog_ctrl[131] 8.68105e-05
3 *706:25 0.00899471
4 *706:23 0.00876417
5 *706:21 0.00932624
6 *706:19 0.01128
7 *706:13 0.0198678
8 *706:11 0.0180008
9 *984:refsel[10] *984:refsel[13] 2.04302e-05
10 *984:refsel[10] *984:refsel[12] 0.0002089
11 *984:refsel[10] *984:refsel[11] 6.45314e-05
12 *706:11 *732:17 3.60466e-05
13 *706:11 *735:13 3.84564e-05
14 *706:19 *817:13 0
15 *706:21 *708:17 0.049779
16 *706:21 *710:17 1.07568e-05
17 *706:25 *984:refsel[14] 0.0017879
18 *706:25 *984:refsel[12] 1.08233e-05
19 *706:25 *708:21 0.0684771
20 *706:25 *738:21 8.06804e-06
21 *706:25 *787:29 0.000715008
22 *984:refsel[9] *984:refsel[10] 6.49977e-05
23 *984:refsel[7] *984:refsel[10] 1.55328e-05
24 *984:refsel[5] *984:refsel[10] 4.83486e-05
25 *655:57 *706:19 8.36201e-05
26 *699:19 *706:19 0.00283918
27 *699:21 *706:21 4.75128e-05
28 *701:25 *706:25 0.000339936
29 *702:27 *706:25 0.0686275
30 *703:13 *706:13 0
31 *703:19 *706:19 0.00490376
32 *703:21 *706:21 0.0497149
33 *703:25 *706:25 0.0115935
34 *703:43 *984:refsel[10] 1.05658e-05
35 *705:17 *706:13 0
36 *705:23 *706:19 0.000248167
*RES
1 *988:analog_ctrl[131] *706:11 17.0605 
2 *706:11 *706:13 57.0491 
3 *706:13 *706:19 26.9181 
4 *706:19 *706:21 641.573 
5 *706:21 *706:23 15 
6 *706:23 *706:25 758.619 
7 *706:25 *984:refsel[10] 34.4432 
*END

*D_NET *707 0.338206
*CONN
*I *984:refsel[11] I *D CF_ADC_DSM20
*I *988:analog_ctrl[132] O *D soc_sys
*CAP
1 *984:refsel[11] 0.000157648
2 *988:analog_ctrl[132] 6.97784e-05
3 *707:21 0.014433
4 *707:19 0.0142754
5 *707:17 0.00812424
6 *707:15 0.00812424
7 *707:13 0.00172291
8 *707:11 0.00172291
9 *707:9 0.0136025
10 *707:7 0.0136722
11 *984:refsel[11] *984:refsel[15] 2.4299e-06
12 *984:refsel[11] *984:refsel[13] 2.79831e-05
13 *984:refsel[11] *984:refsel[12] 6.19461e-05
14 *707:13 *708:13 7.12098e-05
15 *707:13 *709:13 0.00516252
16 *707:13 *733:15 0.00145444
17 *707:17 *709:17 2.36844e-05
18 *707:17 *711:29 0.00986449
19 *707:17 *713:17 2.21057e-05
20 *707:17 *730:17 0.0512502
21 *707:17 *731:17 0
22 *707:21 *717:21 0.0154764
23 *707:21 *738:21 0.0133912
24 *707:21 *742:37 1.95052e-05
25 *707:21 *821:29 0.0393707
26 *707:21 *823:21 0.0133706
27 *984:refsel[10] *984:refsel[11] 6.45314e-05
28 *984:refsel[9] *984:refsel[11] 0.000235994
29 *984:refsel[7] *984:refsel[11] 2.05503e-05
30 *20:55 *707:21 0.00136358
31 *681:17 *707:17 0.000384505
32 *702:23 *707:17 6.65598e-06
33 *703:25 *707:21 0.0341616
34 *703:43 *707:21 0.0109535
35 *705:25 *707:17 0.0501047
36 *705:29 *707:21 0.0154365
*RES
1 *988:analog_ctrl[132] *707:7 1.25321 
2 *707:7 *707:9 300.347 
3 *707:9 *707:11 15 
4 *707:11 *707:13 57.7929 
5 *707:13 *707:15 15 
6 *707:15 *707:17 655.659 
7 *707:17 *707:19 8 
8 *707:19 *707:21 135.468 
9 *707:21 *984:refsel[11] 27.3707 
*END

*D_NET *708 0.301437
*CONN
*I *984:refsel[12] I *D CF_ADC_DSM20
*I *988:analog_ctrl[133] O *D soc_sys
*CAP
1 *984:refsel[12] 0.000508671
2 *988:analog_ctrl[133] 6.45759e-05
3 *708:21 0.0123947
4 *708:19 0.011886
5 *708:17 0.00990217
6 *708:15 0.00990217
7 *708:13 0.00106596
8 *708:11 0.00106596
9 *708:9 0.013649
10 *708:7 0.0137136
11 *984:refsel[12] *984:refsel[14] 1.94355e-05
12 *984:refsel[12] *984:refsel[13] 0.000234997
13 *984:refsel[12] *984:FCAP1[4] 0.000705589
14 *984:refsel[12] *787:29 0.000671528
15 *708:13 *709:13 0.00563842
16 *708:13 *710:13 0.00640826
17 *708:13 *725:13 3.70553e-06
18 *708:13 *733:15 0.00102653
19 *708:17 *710:17 0.0508943
20 *708:17 *743:17 0
21 *708:17 *745:17 6.23248e-06
22 *708:21 *984:refsel[14] 0.00206414
23 *708:21 *984:FCAP1[4] 6.71144e-05
24 *708:21 *738:21 0.0273827
25 *708:21 *738:31 0.000161089
26 *984:refsel[11] *984:refsel[12] 6.19461e-05
27 *984:refsel[10] *984:refsel[12] 0.0002089
28 *984:refsel[9] *984:refsel[12] 2.01422e-06
29 *699:21 *708:17 1.45715e-05
30 *703:25 *708:21 0.0133749
31 *706:21 *708:17 0.049779
32 *706:25 *984:refsel[12] 1.08233e-05
33 *706:25 *708:21 0.0684771
34 *707:13 *708:13 7.12098e-05
*RES
1 *988:analog_ctrl[133] *708:7 1.25321 
2 *708:7 *708:9 301.051 
3 *708:9 *708:11 15 
4 *708:11 *708:13 70.6564 
5 *708:13 *708:15 15 
6 *708:15 *708:17 656.539 
7 *708:17 *708:19 15 
8 *708:19 *708:21 749.66 
9 *708:21 *984:refsel[12] 43.195 
*END

*D_NET *709 0.305033
*CONN
*I *984:refsel[13] I *D CF_ADC_DSM20
*I *988:analog_ctrl[134] O *D soc_sys
*CAP
1 *984:refsel[13] 0.000318263
2 *988:analog_ctrl[134] 6.45759e-05
3 *709:29 0.0011843
4 *709:21 0.022713
5 *709:19 0.021847
6 *709:17 0.00893025
7 *709:15 0.00893025
8 *709:13 0.000998175
9 *709:11 0.000998175
10 *709:9 0.0136235
11 *709:7 0.013688
12 *984:refsel[13] *984:refsel[15] 2.59777e-05
13 *984:refsel[13] *984:refsel[14] 9.33618e-05
14 *984:refsel[13] *778:29 0.000215468
15 *709:13 *710:13 0.000267837
16 *709:13 *733:15 0.00090633
17 *709:17 *713:17 0.0526318
18 *709:17 *731:17 0.052073
19 *709:21 *727:21 0.0684395
20 *709:21 *748:25 0.015595
21 *709:29 *984:refsel[15] 0.000643306
22 *709:29 *718:21 9.58714e-05
23 *709:29 *778:29 0.000945939
24 *709:29 *780:29 0
25 *984:refsel[12] *984:refsel[13] 0.000234997
26 *984:refsel[11] *984:refsel[13] 2.79831e-05
27 *984:refsel[10] *984:refsel[13] 2.04302e-05
28 *984:refsel[4] *984:refsel[13] 0
29 *695:13 *709:17 0.00860195
30 *699:25 *709:29 9.41704e-05
31 *707:13 *709:13 0.00516252
32 *707:17 *709:17 2.36844e-05
33 *708:13 *709:13 0.00563842
*RES
1 *988:analog_ctrl[134] *709:7 1.25321 
2 *709:7 *709:9 300.699 
3 *709:9 *709:11 15 
4 *709:11 *709:13 66.845 
5 *709:13 *709:15 15 
6 *709:15 *709:17 677.316 
7 *709:17 *709:19 15 
8 *709:19 *709:21 747.185 
9 *709:21 *709:29 49.9064 
10 *709:29 *984:refsel[13] 37.0636 
*END

*D_NET *710 0.360278
*CONN
*I *984:refsel[14] I *D CF_ADC_DSM20
*I *988:analog_ctrl[135] O *D soc_sys
*CAP
1 *984:refsel[14] 0.00234941
2 *988:analog_ctrl[135] 6.45759e-05
3 *710:21 0.0110786
4 *710:19 0.00872919
5 *710:17 0.0087988
6 *710:15 0.0087988
7 *710:13 0.00117608
8 *710:11 0.00117608
9 *710:9 0.0136579
10 *710:7 0.0137225
11 *984:refsel[14] *984:SUMCAPFB[2] 8.58908e-06
12 *984:refsel[14] *984:SUMCAPFB[0] 1.31715e-05
13 *984:refsel[14] *984:refsel[15] 0.000199866
14 *984:refsel[14] *742:37 0.000726239
15 *984:refsel[14] *778:29 8.81675e-05
16 *710:13 *713:13 0.00663805
17 *710:13 *725:13 9.8971e-06
18 *710:13 *729:13 0.00036909
19 *710:13 *733:15 0.00150912
20 *710:17 *729:17 0.0514798
21 *710:17 *745:17 2.61151e-05
22 *710:21 *714:21 9.48017e-05
23 *984:refsel[13] *984:refsel[14] 9.33618e-05
24 *984:refsel[12] *984:refsel[14] 1.94355e-05
25 *700:21 *984:refsel[14] 0.00533063
26 *700:21 *710:21 0.0632664
27 *701:25 *710:21 0.0116195
28 *702:27 *710:21 0.0134076
29 *703:25 *710:21 0.0637019
30 *703:43 *984:refsel[14] 0.0106428
31 *703:43 *710:21 4.83628e-05
32 *706:21 *710:17 1.07568e-05
33 *706:25 *984:refsel[14] 0.0017879
34 *708:13 *710:13 0.00640826
35 *708:17 *710:17 0.0508943
36 *708:21 *984:refsel[14] 0.00206414
37 *709:13 *710:13 0.000267837
*RES
1 *988:analog_ctrl[135] *710:7 1.25321 
2 *710:7 *710:9 301.403 
3 *710:9 *710:11 15 
4 *710:11 *710:13 80.6614 
5 *710:13 *710:15 15 
6 *710:15 *710:17 656.715 
7 *710:17 *710:19 8 
8 *710:19 *710:21 116.706 
9 *710:21 *984:refsel[14] 46.9372 
*END

*D_NET *711 0.358071
*CONN
*I *984:refsel[15] I *D CF_ADC_DSM20
*I *988:analog_ctrl[136] O *D soc_sys
*CAP
1 *984:refsel[15] 0.00101725
2 *988:analog_ctrl[136] 0.00245731
3 *711:33 0.0190413
4 *711:31 0.0180241
5 *711:29 0.0198305
6 *711:27 0.0198305
7 *711:25 0.00245731
8 *984:refsel[15] *984:SUMCAPFB[2] 1.59334e-05
9 *984:refsel[15] *984:SUMCAPFB[3] 0.000316035
10 *984:refsel[15] *984:SUMCAPFB[0] 6.28383e-05
11 *984:refsel[15] *777:33 0.000720072
12 *984:refsel[15] *778:29 5.51099e-05
13 *984:refsel[15] *824:25 0
14 *711:25 *715:33 0.000746066
15 *711:25 *716:39 0.00036076
16 *711:25 *720:29 0.000485762
17 *711:25 *728:17 0.000623096
18 *711:25 *728:31 0.000975863
19 *711:25 *732:17 0.00466174
20 *711:25 *735:13 0.000120881
21 *711:25 *770:27 0.000138791
22 *711:25 *790:29 0.0012619
23 *711:25 *805:23 7.57281e-06
24 *711:25 *805:25 0.000160236
25 *711:25 *808:23 5.23252e-05
26 *711:29 *730:17 0.00860195
27 *711:33 *748:25 0.0201876
28 *711:33 *749:29 0.072458
29 *984:refsel[14] *984:refsel[15] 0.000199866
30 *984:refsel[13] *984:refsel[15] 2.59777e-05
31 *984:refsel[11] *984:refsel[15] 2.4299e-06
32 *80:13 *711:33 0.000281182
33 *108:13 *711:25 8.09097e-05
34 *670:31 *711:29 1.62618e-05
35 *671:29 *711:25 0.00531817
36 *693:39 *711:25 0.000595391
37 *695:13 *711:29 0.0730413
38 *696:15 *711:25 0
39 *700:15 *711:25 0.00124306
40 *700:17 *711:29 0.0720878
41 *707:17 *711:29 0.00986449
42 *709:29 *984:refsel[15] 0.000643306
*RES
1 *988:analog_ctrl[136] *711:25 45.0351 
2 *711:25 *711:27 8 
3 *711:27 *711:29 174.716 
4 *711:29 *711:31 8 
5 *711:31 *711:33 134.824 
6 *711:33 *984:refsel[15] 45.5682 
*END

*D_NET *712 0.340135
*CONN
*I *984:FCAP1[0] I *D CF_ADC_DSM20
*I *988:analog_ctrl[137] O *D soc_sys
*CAP
1 *984:FCAP1[0] 0.00217365
2 *988:analog_ctrl[137] 6.45759e-05
3 *712:21 0.0153075
4 *712:19 0.0131339
5 *712:17 0.00993616
6 *712:15 0.0117001
7 *712:9 0.0156008
8 *712:7 0.0139014
9 *984:FCAP1[0] *984:IPCAP1[6] 1.09583e-05
10 *984:FCAP1[0] *984:IPCAP1[1] 0.00014447
11 *984:FCAP1[0] *984:FCAP1[2] 2.05503e-05
12 *984:FCAP1[0] *984:FCAP1[1] 0.000182942
13 *984:FCAP1[0] *984:RESCAPEN 6.09486e-05
14 *984:FCAP1[0] *984:RESCAP[2] 4.36494e-05
15 *984:FCAP1[0] *739:41 0.000130752
16 *712:15 *721:13 0.00171273
17 *712:15 *722:13 0.0014907
18 *712:15 *812:13 0.00870281
19 *712:17 *729:17 1.75427e-05
20 *712:17 *736:13 0.0203457
21 *712:17 *745:17 0.0520147
22 *712:21 *716:45 0.0758855
23 *712:21 *733:21 0.0749139
24 *712:21 *748:25 0.000255096
25 *13:14 *712:15 0.00870281
26 *19:23 *712:17 0
27 *657:18 *712:17 0.00450166
28 *694:9 *712:17 0.00853715
29 *696:21 *712:21 0.000642216
*RES
1 *988:analog_ctrl[137] *712:7 1.25321 
2 *712:7 *712:9 303.692 
3 *712:9 *712:15 32.1989 
4 *712:15 *712:17 675.555 
5 *712:17 *712:19 8 
6 *712:19 *712:21 141.178 
7 *712:21 *984:FCAP1[0] 46.4699 
*END

*D_NET *713 0.35653
*CONN
*I *984:FCAP1[1] I *D CF_ADC_DSM20
*I *988:analog_ctrl[138] O *D soc_sys
*CAP
1 *984:FCAP1[1] 9.6196e-05
2 *988:analog_ctrl[138] 6.45759e-05
3 *713:29 0.00113067
4 *713:21 0.0101413
5 *713:19 0.00910683
6 *713:17 0.0087474
7 *713:15 0.0087474
8 *713:13 0.00132591
9 *713:11 0.00132591
10 *713:9 0.0136682
11 *713:7 0.0137328
12 *984:FCAP1[1] *984:IPCAP1[0] 2.73926e-05
13 *984:FCAP1[1] *984:FCAP1[6] 7.56609e-06
14 *984:FCAP1[1] *984:FCAP1[2] 6.09486e-05
15 *984:FCAP1[1] *984:IPCAP1OFFSET 1.53145e-06
16 *984:FCAP1[1] *787:21 7.65602e-06
17 *713:13 *729:13 0.00807736
18 *713:13 *733:15 0.00203993
19 *713:17 *730:17 0.0515587
20 *713:21 *727:21 0
21 *713:21 *737:13 0.0710035
22 *713:21 *743:21 0.0697004
23 *713:21 *749:29 0.0156283
24 *713:29 *984:FCAP1[2] 0.000417408
25 *713:29 *984:RESCAP[2] 0.000263509
26 *713:29 *984:IPCAP1OFFSET 1.75562e-05
27 *713:29 *727:25 0
28 *713:29 *733:35 0
29 *713:29 *742:37 0.000216439
30 *713:29 *764:37 6.11817e-05
31 *713:29 *788:27 1.45549e-05
32 *984:FCAP1[0] *984:FCAP1[1] 0.000182942
33 *695:13 *713:17 0.00986449
34 *707:17 *713:17 2.21057e-05
35 *709:17 *713:17 0.0526318
36 *710:13 *713:13 0.00663805
*RES
1 *988:analog_ctrl[138] *713:7 1.25321 
2 *713:7 *713:9 301.755 
3 *713:9 *713:11 15 
4 *713:11 *713:13 88.2843 
5 *713:13 *713:15 15 
6 *713:15 *713:17 672.738 
7 *713:17 *713:19 15 
8 *713:19 *713:21 775.294 
9 *713:21 *713:29 49.3057 
10 *713:29 *984:FCAP1[1] 2.78607 
*END

*D_NET *714 0.274515
*CONN
*I *984:FCAP1[2] I *D CF_ADC_DSM20
*I *988:analog_ctrl[139] O *D soc_sys
*CAP
1 *984:FCAP1[2] 0.000449175
2 *988:analog_ctrl[139] 6.45759e-05
3 *714:21 0.0198845
4 *714:19 0.0194353
5 *714:17 0.0098475
6 *714:15 0.0098475
7 *714:13 0.00383691
8 *714:11 0.00383691
9 *714:9 0.013982
10 *714:7 0.0140466
11 *984:FCAP1[2] *984:IPCAP1[4] 0
12 *984:FCAP1[2] *984:IPCAP1[0] 6.5777e-05
13 *984:FCAP1[2] *984:RESCAP[2] 5.32959e-06
14 *984:FCAP1[2] *733:35 1.94114e-05
15 *984:FCAP1[2] *756:79 4.46233e-05
16 *984:FCAP1[2] *788:27 0.000290625
17 *714:13 *717:13 0.00991654
18 *714:13 *719:13 0.000171948
19 *714:13 *721:13 6.2066e-06
20 *714:17 *721:17 0.0119511
21 *714:17 *723:33 0.00482604
22 *714:17 *726:17 0.00325886
23 *714:17 *738:17 0
24 *714:21 *723:37 0.00028343
25 *714:21 *730:21 0.0104756
26 *714:21 *742:37 0.000436198
27 *714:21 *756:63 3.62045e-05
28 *984:FCAP1[1] *984:FCAP1[2] 6.09486e-05
29 *984:FCAP1[0] *984:FCAP1[2] 2.05503e-05
30 *13:18 *714:17 0.000271484
31 *14:21 *714:17 0.0223945
32 *18:15 *714:17 0.0354207
33 *18:63 *714:21 0.000260396
34 *656:65 *714:13 0.00165118
35 *657:14 *714:21 0.0280424
36 *684:17 *714:17 0.00187984
37 *688:13 *714:17 0.000815252
38 *690:9 *714:17 0.00622074
39 *697:17 *714:21 0.0396445
40 *700:21 *714:21 0.000301657
41 *703:25 *714:21 0
42 *710:21 *714:21 9.48017e-05
43 *713:29 *984:FCAP1[2] 0.000417408
*RES
1 *988:analog_ctrl[139] *714:7 1.25321 
2 *714:7 *714:9 305.629 
3 *714:9 *714:11 15 
4 *714:11 *714:13 115.917 
5 *714:13 *714:15 15 
6 *714:15 *714:17 656.011 
7 *714:17 *714:19 8 
8 *714:19 *714:21 143.711 
9 *714:21 *984:FCAP1[2] 32.0625 
*END

*D_NET *715 0.486786
*CONN
*I *984:phi2_buffer I *D CF_ADC_DSM20
*I *988:analog_ctrl[13] O *D soc_sys
*CAP
1 *984:phi2_buffer 0.00122566
2 *988:analog_ctrl[13] 0.0456886
3 *715:55 0.00227013
4 *715:45 0.0278207
5 *715:43 0.027048
6 *715:33 0.0133852
7 *715:31 0.0131134
8 *715:29 0.0456886
9 *984:phi2_buffer *984:SIGN 3.42584e-05
10 *984:phi2_buffer *984:BUF_CHOP_EN 1.62226e-05
11 *984:phi2_buffer *984:BUF_FCHOP[2] 3.70553e-06
12 *984:phi2_buffer *984:BUF_FCHOP[1] 1.76479e-05
13 *984:phi2_buffer *792:47 0.000323084
14 *715:29 *723:33 3.94956e-05
15 *715:29 *728:33 1.09583e-05
16 *715:29 *735:21 3.04461e-05
17 *715:29 *790:15 0.000126949
18 *715:29 *790:17 0.00821038
19 *715:29 *792:29 4.62763e-05
20 *715:29 *794:13 0.0097234
21 *715:29 *794:27 8.21456e-06
22 *715:29 *805:13 0.00873532
23 *715:29 *808:13 0.00853638
24 *715:29 *808:23 4.62763e-05
25 *715:29 *824:13 0.00525062
26 *715:29 *839:15 0.000101838
27 *715:29 *848:15 0.000137382
28 *715:29 *860:15 0.000151122
29 *715:29 *863:15 0.000109903
30 *715:33 *728:31 0.000138791
31 *715:33 *770:27 0.000894185
32 *715:33 *790:29 0.0943362
33 *715:33 *794:29 5.59202e-05
34 *715:33 *805:25 0.0927741
35 *715:33 *808:23 0.000137859
36 *715:45 *740:13 0.00233656
37 *715:45 *741:17 0.025999
38 *715:45 *753:17 0.000334832
39 *715:45 *754:17 0.00216074
40 *715:45 *756:25 0.00353896
41 *715:45 *791:23 0.00295898
42 *715:45 *805:37 0
43 *715:55 *740:13 0.000185018
44 *715:55 *789:25 0
45 *47:21 *715:29 0.000137382
46 *108:13 *715:43 0
47 *120:27 *715:29 5.25021e-05
48 *646:14 *715:45 0.00337821
49 *646:18 *715:43 0.000291338
50 *647:13 *715:43 2.12347e-06
51 *647:17 *715:33 0.00828511
52 *648:13 *715:43 1.24585e-05
53 *649:10 *715:45 0.00389631
54 *650:13 *715:45 0.00453522
55 *659:18 *715:45 0.0029023
56 *659:22 *715:43 0.000248208
57 *660:14 *715:55 0
58 *663:27 *715:45 0.00519252
59 *667:19 *715:43 7.23298e-05
60 *667:19 *715:55 0.00131467
61 *671:13 *715:29 0.00300554
62 *671:29 *715:33 0.00581181
63 *680:15 *715:29 0.000128083
64 *690:9 *715:29 0
65 *691:9 *715:29 2.57266e-05
66 *693:13 *715:29 0.00299643
67 *711:25 *715:33 0.000746066
*RES
1 *988:analog_ctrl[13] *715:29 49.7228 
2 *715:29 *715:31 15 
3 *715:31 *715:33 1034.95 
4 *715:33 *715:43 33.4296 
5 *715:43 *715:45 114.931 
6 *715:45 *715:55 48.9239 
7 *715:55 *984:phi2_buffer 35.0411 
*END

*D_NET *716 0.36001
*CONN
*I *984:FCAP1[3] I *D CF_ADC_DSM20
*I *988:analog_ctrl[140] O *D soc_sys
*CAP
1 *984:FCAP1[3] 2.24254e-05
2 *988:analog_ctrl[140] 0.00337596
3 *716:57 0.00126811
4 *716:45 0.0145691
5 *716:43 0.0133234
6 *716:41 0.0323531
7 *716:39 0.0337564
8 *716:35 0.00477923
9 *984:FCAP1[3] *984:IPCAP1[2] 1.4973e-05
10 *984:FCAP1[3] *984:IPCAP1[1] 6.09486e-05
11 *984:FCAP1[3] *984:FCAP1[4] 7.95952e-05
12 *716:35 *720:17 0.00586911
13 *716:35 *720:29 0.00226079
14 *716:35 *723:23 6.09613e-06
15 *716:35 *728:17 2.50399e-05
16 *716:35 *792:31 0.000420654
17 *716:39 *720:29 0.000347799
18 *716:39 *792:29 0.000589591
19 *716:39 *792:31 0.000114462
20 *716:41 *719:17 0.00514385
21 *716:41 *723:33 0.0726727
22 *716:41 *728:33 0.00807935
23 *716:45 *748:25 0.0771496
24 *716:45 *828:29 0
25 *716:57 *984:IPCAP1[4] 0.000495708
26 *716:57 *984:IPCAP1[3] 0.000870861
27 *716:57 *984:IPCAP1[2] 0.000352682
28 *716:57 *984:FCAP1[4] 0.000149125
29 *716:57 *733:35 0
30 *13:30 *716:41 0.000233674
31 *18:41 *716:41 0.000120267
32 *108:13 *716:35 0.00116501
33 *108:13 *716:39 0.000413001
34 *685:19 *716:41 0.0002891
35 *693:35 *716:39 4.62843e-05
36 *693:39 *716:35 0.0013544
37 *696:15 *716:39 0.00170424
38 *696:17 *716:41 0
39 *696:21 *716:45 0.000190139
40 *698:15 *716:35 5.10636e-05
41 *705:15 *716:35 4.62843e-05
42 *711:25 *716:39 0.00036076
43 *712:21 *716:45 0.0758855
*RES
1 *988:analog_ctrl[140] *716:35 48.4783 
2 *716:35 *716:39 13.8949 
3 *716:39 *716:41 175.478 
4 *716:41 *716:43 8 
5 *716:43 *716:45 142.552 
6 *716:45 *716:57 48.9239 
7 *716:57 *984:FCAP1[3] 1.12893 
*END

*D_NET *717 0.348536
*CONN
*I *984:FCAP1[4] I *D CF_ADC_DSM20
*I *988:analog_ctrl[141] O *D soc_sys
*CAP
1 *984:FCAP1[4] 0.00157918
2 *988:analog_ctrl[141] 6.45759e-05
3 *717:21 0.0103575
4 *717:19 0.00877828
5 *717:17 0.00931903
6 *717:15 0.00931903
7 *717:13 0.0017958
8 *717:11 0.0017958
9 *717:9 0.0139428
10 *717:7 0.0140074
11 *984:FCAP1[4] *984:SUMCAP3[0] 0
12 *984:FCAP1[4] *984:SUMCAP3[1] 0
13 *984:FCAP1[4] *984:SUMCAP3_EN 3.5022e-06
14 *984:FCAP1[4] *984:SUMCAP2[1] 1.78812e-06
15 *984:FCAP1[4] *984:SUMCAP1[1] 1.52591e-05
16 *984:FCAP1[4] *984:SUMCAP1[0] 4.03402e-06
17 *984:FCAP1[4] *984:FCAP3[1] 0.000183982
18 *984:FCAP1[4] *984:FCAP2[2] 1.9912e-05
19 *984:FCAP1[4] *984:FCAP2[0] 1.46965e-05
20 *984:FCAP1[4] *984:DACCAP[4] 1.70724e-05
21 *984:FCAP1[4] *984:DACCAP[0] 4.26663e-05
22 *984:FCAP1[4] *984:DACCAP[2] 1.30878e-05
23 *984:FCAP1[4] *984:IPCAP1[3] 1.76557e-05
24 *984:FCAP1[4] *984:FCAP1[5] 0.000123712
25 *984:FCAP1[4] *984:FCAP1[6] 2.67109e-05
26 *984:FCAP1[4] *738:31 0.000122709
27 *984:FCAP1[4] *756:79 0.00049418
28 *984:FCAP1[4] *787:21 3.97681e-05
29 *984:FCAP1[4] *787:29 0.00129926
30 *717:13 *718:13 0.0108372
31 *717:13 *719:13 2.46906e-05
32 *717:17 *718:17 0.0511469
33 *717:17 *735:21 0.0110007
34 *717:21 *738:21 0.068778
35 *717:21 *738:31 1.92115e-05
36 *717:21 *742:21 0.000252277
37 *717:21 *823:21 4.05745e-05
38 *984:refsel[12] *984:FCAP1[4] 0.000705589
39 *984:refsel[9] *984:FCAP1[4] 0.000963147
40 *984:refsel[5] *984:FCAP1[4] 9.66488e-05
41 *984:refsel[4] *984:FCAP1[4] 4.71529e-06
42 *984:refsel[2] *984:FCAP1[4] 6.48951e-06
43 *984:FCAP1[3] *984:FCAP1[4] 7.95952e-05
44 *13:34 *717:17 0.0168932
45 *13:38 *717:17 3.09427e-05
46 *13:52 *717:17 0.00230993
47 *19:15 *717:17 0.00581965
48 *656:65 *717:13 0.00211662
49 *677:17 *717:17 0.00325976
50 *689:17 *717:17 0.00751253
51 *705:29 *984:FCAP1[4] 1.03955e-05
52 *705:29 *717:21 0.0676193
53 *707:21 *717:21 0.0154764
54 *708:21 *984:FCAP1[4] 6.71144e-05
55 *714:13 *717:13 0.00991654
56 *716:57 *984:FCAP1[4] 0.000149125
*RES
1 *988:analog_ctrl[141] *717:7 1.25321 
2 *717:7 *717:9 305.277 
3 *717:9 *717:11 15 
4 *717:11 *717:13 119.252 
5 *717:13 *717:15 15 
6 *717:15 *717:17 650.905 
7 *717:17 *717:19 15 
8 *717:19 *717:21 753.855 
9 *717:21 *984:FCAP1[4] 39.4607 
*END

*D_NET *718 0.334403
*CONN
*I *984:FCAP1[5] I *D CF_ADC_DSM20
*I *988:analog_ctrl[142] O *D soc_sys
*CAP
1 *984:FCAP1[5] 3.22825e-05
2 *988:analog_ctrl[142] 6.45759e-05
3 *718:31 0.00128343
4 *718:21 0.0123006
5 *718:19 0.0110494
6 *718:17 0.0077057
7 *718:15 0.0077057
8 *718:13 0.00175711
9 *718:11 0.00175711
10 *718:9 0.0139121
11 *718:7 0.0139767
12 *984:FCAP1[5] *984:FCAP1[6] 0.000110488
13 *718:13 *719:13 0.0113132
14 *718:17 *722:17 0.0513876
15 *718:17 *735:21 0.00878196
16 *718:21 *738:21 0
17 *718:31 *984:IPCAP1[2] 0.00029454
18 *718:31 *984:FCAP1[6] 0.000103527
19 *718:31 *730:21 0.00012245
20 *718:31 *733:35 9.7484e-06
21 *718:31 *758:17 0.000382849
22 *718:31 *769:21 0.000464152
23 *718:31 *771:37 0.000274165
24 *718:31 *773:21 7.31833e-05
25 *718:31 *787:29 1.89672e-05
26 *984:FCAP1[4] *984:FCAP1[5] 0.000123712
27 *13:14 *718:13 0.00185655
28 *13:52 *718:17 7.8399e-05
29 *18:71 *718:31 0.000801673
30 *689:17 *718:17 1.47563e-05
31 *699:25 *718:21 0.0392906
32 *699:25 *718:31 0.000272377
33 *700:21 *718:21 0.0154848
34 *701:25 *718:21 0.0694041
35 *701:25 *718:31 0.000114856
36 *709:29 *718:21 9.58714e-05
37 *717:13 *718:13 0.0108372
38 *717:17 *718:17 0.0511469
*RES
1 *988:analog_ctrl[142] *718:7 1.25321 
2 *718:7 *718:9 304.925 
3 *718:9 *718:11 15 
4 *718:11 *718:13 124.016 
5 *718:13 *718:15 15 
6 *718:15 *718:17 654.074 
7 *718:17 *718:19 15 
8 *718:19 *718:21 764.336 
9 *718:21 *718:31 43.2646 
10 *718:31 *984:FCAP1[5] 16.4811 
*END

*D_NET *719 0.33916
*CONN
*I *984:FCAP1[6] I *D CF_ADC_DSM20
*I *988:analog_ctrl[143] O *D soc_sys
*CAP
1 *984:FCAP1[6] 0.000611225
2 *988:analog_ctrl[143] 6.45759e-05
3 *719:21 0.0107154
4 *719:19 0.0101042
5 *719:17 0.0178505
6 *719:15 0.0178505
7 *719:13 0.00198687
8 *719:11 0.00198687
9 *719:9 0.0138815
10 *719:7 0.013946
11 *984:FCAP1[6] *984:IPCAP1[2] 0.000141324
12 *984:FCAP1[6] *984:IPCAP1[0] 0.000110488
13 *984:FCAP1[6] *733:35 0.000794312
14 *984:FCAP1[6] *756:79 1.6318e-05
15 *719:13 *721:13 0.000308158
16 *719:13 *722:13 0.0117456
17 *719:17 *721:17 7.69045e-05
18 *719:17 *723:33 0.00430001
19 *719:17 *725:17 0.0519072
20 *719:17 *876:21 0
21 *719:21 *721:21 0.000276971
22 *719:21 *724:21 0.0135513
23 *719:21 *729:21 0.0718113
24 *719:21 *736:17 0.000470476
25 *719:21 *745:21 0.0719339
26 *719:21 *750:17 0.000543063
27 *719:21 *754:21 0.000354149
28 *719:21 *786:21 8.48502e-06
29 *984:FCAP1[4] *984:FCAP1[6] 2.67109e-05
30 *984:FCAP1[5] *984:FCAP1[6] 0.000110488
31 *984:FCAP1[1] *984:FCAP1[6] 7.56609e-06
32 *13:14 *719:13 0.00234368
33 *13:30 *719:17 0.00111561
34 *14:35 *719:21 0
35 *18:41 *719:17 0
36 *19:15 *719:17 0
37 *677:17 *719:17 0
38 *685:19 *719:17 0.00145107
39 *691:9 *719:17 0
40 *714:13 *719:13 0.000171948
41 *716:41 *719:17 0.00514385
42 *717:13 *719:13 2.46906e-05
43 *718:13 *719:13 0.0113132
44 *718:31 *984:FCAP1[6] 0.000103527
*RES
1 *988:analog_ctrl[143] *719:7 1.25321 
2 *719:7 *719:9 304.573 
3 *719:9 *719:11 15 
4 *719:11 *719:13 134.974 
5 *719:13 *719:15 15 
6 *719:15 *719:17 662.526 
7 *719:17 *719:19 15 
8 *719:19 *719:21 793.399 
9 *719:21 *984:FCAP1[6] 43.9821 
*END

*D_NET *720 0.379945
*CONN
*I *984:FCAP1EN I *D CF_ADC_DSM20
*I *988:analog_ctrl[144] O *D soc_sys
*CAP
1 *984:FCAP1EN 0.0011422
2 *988:analog_ctrl[144] 0.00229623
3 *720:37 0.0281027
4 *720:35 0.0269605
5 *720:33 0.0190267
6 *720:31 0.0190267
7 *720:29 0.00151716
8 *720:17 0.00381339
9 *984:FCAP1EN *984:RESCAP[1] 0
10 *984:FCAP1EN *984:FCAP3EN 5.27419e-05
11 *984:FCAP1EN *984:FCAP1OFFSET 0.000412162
12 *984:FCAP1EN *739:41 5.02149e-05
13 *720:17 *723:23 0.00803303
14 *720:17 *792:31 0.00161886
15 *720:29 *728:17 0.00223714
16 *720:29 *728:31 1.73917e-05
17 *720:29 *792:29 4.93791e-05
18 *720:29 *792:31 0.000100543
19 *720:29 *794:29 0.000245109
20 *720:29 *808:23 0.0015375
21 *720:33 *722:17 0.0101073
22 *720:33 *724:17 0.00881368
23 *720:33 *735:21 0.0731842
24 *720:37 *728:37 0.00991421
25 *720:37 *732:33 0.000323686
26 *720:37 *735:25 0.0742629
27 *720:37 *755:37 0
28 *720:37 *759:13 0.000340503
29 *720:37 *785:53 0.000340503
30 *720:37 *796:13 0.000294933
31 *108:13 *720:17 0
32 *657:14 *720:37 0
33 *671:21 *720:29 0.000145451
34 *693:21 *720:29 0.000166768
35 *693:35 *720:29 5.45304e-05
36 *693:39 *720:17 0.00160393
37 *693:39 *720:29 0.000292175
38 *696:15 *720:29 0.00171017
39 *696:17 *720:33 0.0731362
40 *705:15 *720:17 5.10636e-05
41 *711:25 *720:29 0.000485762
42 *716:35 *720:17 0.00586911
43 *716:35 *720:29 0.00226079
44 *716:39 *720:29 0.000347799
*RES
1 *988:analog_ctrl[144] *720:17 37.2081 
2 *720:17 *720:29 49.4009 
3 *720:29 *720:31 8 
4 *720:31 *720:33 174.335 
5 *720:33 *720:35 8 
6 *720:35 *720:37 143.325 
7 *720:37 *984:FCAP1EN 42.2125 
*END

*D_NET *721 0.286958
*CONN
*I *984:FCAP1OFFSET I *D CF_ADC_DSM20
*I *988:analog_ctrl[145] O *D soc_sys
*CAP
1 *984:FCAP1OFFSET 0.000771122
2 *988:analog_ctrl[145] 6.45759e-05
3 *721:21 0.0261122
4 *721:19 0.0253411
5 *721:17 0.00856144
6 *721:15 0.00856144
7 *721:13 0.00208308
8 *721:11 0.00208308
9 *721:9 0.0138095
10 *721:7 0.0138741
11 *984:FCAP1OFFSET *984:RESCAP[1] 7.15126e-05
12 *984:FCAP1OFFSET *984:FCAP3EN 0.000886271
13 *984:FCAP1OFFSET *984:FCAP2EN 0.000119683
14 *984:FCAP1OFFSET *739:41 2.11157e-05
15 *721:13 *722:13 0.0127088
16 *721:13 *724:13 0.0126682
17 *721:13 *725:13 0.000235577
18 *721:17 *723:33 0.0102113
19 *721:17 *725:17 0.0519602
20 *721:21 *728:37 0.010584
21 *721:21 *729:21 5.67018e-05
22 *721:21 *736:17 0.0403128
23 *721:21 *757:45 0.00127932
24 *721:21 *759:13 0
25 *984:FCAP1EN *984:FCAP1OFFSET 0.000412162
26 *13:14 *721:13 0.000546508
27 *14:19 *721:17 0.000396696
28 *14:21 *721:17 0.0225412
29 *690:9 *721:17 0.00635197
30 *712:15 *721:13 0.00171273
31 *714:13 *721:13 6.2066e-06
32 *714:17 *721:17 0.0119511
33 *719:13 *721:13 0.000308158
34 *719:17 *721:17 7.69045e-05
35 *719:21 *721:21 0.000276971
*RES
1 *988:analog_ctrl[145] *721:7 1.25321 
2 *721:7 *721:9 303.868 
3 *721:9 *721:11 15 
4 *721:11 *721:13 146.409 
5 *721:13 *721:15 15 
6 *721:15 *721:17 664.639 
7 *721:17 *721:19 15 
8 *721:19 *721:21 801.021 
9 *721:21 *984:FCAP1OFFSET 48.0629 
*END

*D_NET *722 0.369942
*CONN
*I *984:FCAP2[0] I *D CF_ADC_DSM20
*I *988:analog_ctrl[146] O *D soc_sys
*CAP
1 *984:FCAP2[0] 0.000468265
2 *988:analog_ctrl[146] 6.45759e-05
3 *722:21 0.0162699
4 *722:19 0.0158016
5 *722:17 0.00797446
6 *722:15 0.00797446
7 *722:13 0.00221295
8 *722:11 0.00221295
9 *722:9 0.0138286
10 *722:7 0.0138931
11 *984:FCAP2[0] *984:FCAP2[2] 0.000101421
12 *984:FCAP2[0] *984:FCAP2[1] 0.000705564
13 *984:FCAP2[0] *984:DACCAPEN 6.57155e-05
14 *984:FCAP2[0] *984:DACCAP[5] 0.000711258
15 *984:FCAP2[0] *984:DACCAP[4] 3.47743e-05
16 *722:13 *724:13 0.000267837
17 *722:17 *724:17 0.0519555
18 *722:21 *723:37 7.54119e-05
19 *722:21 *724:21 0.0734811
20 *722:21 *725:21 0.0734022
21 *722:21 *728:37 1.67025e-05
22 *984:FCAP1[4] *984:FCAP2[0] 1.46965e-05
23 *13:14 *722:13 0.000943145
24 *13:52 *722:17 0
25 *657:14 *722:21 1.36509e-05
26 *689:17 *722:17 1.19831e-05
27 *712:15 *722:13 0.0014907
28 *718:17 *722:17 0.0513876
29 *719:13 *722:13 0.0117456
30 *720:33 *722:17 0.0101073
31 *721:13 *722:13 0.0127088
*RES
1 *988:analog_ctrl[146] *722:7 1.25321 
2 *722:7 *722:9 304.22 
3 *722:9 *722:11 15 
4 *722:11 *722:13 144.503 
5 *722:13 *722:15 15 
6 *722:15 *722:17 661.645 
7 *722:17 *722:19 8 
8 *722:19 *722:21 140.534 
9 *722:21 *984:FCAP2[0] 35.9464 
*END

*D_NET *723 0.413798
*CONN
*I *984:FCAP2[1] I *D CF_ADC_DSM20
*I *988:analog_ctrl[147] O *D soc_sys
*CAP
1 *984:FCAP2[1] 0.000471385
2 *988:analog_ctrl[147] 0.0030464
3 *723:37 0.0120279
4 *723:35 0.0115565
5 *723:33 0.0327826
6 *723:31 0.0348882
7 *723:23 0.00515196
8 *984:FCAP2[1] *984:FCAP3[0] 4.87514e-05
9 *984:FCAP2[1] *984:FCAP2[2] 0.000680648
10 *984:FCAP2[1] *984:DACCAP[5] 5.00681e-05
11 *723:23 *728:17 0.00959846
12 *723:23 *732:17 0
13 *723:23 *735:13 0.000573086
14 *723:31 *728:31 1.54005e-05
15 *723:31 *732:27 0.00272102
16 *723:31 *735:13 0.0014761
17 *723:31 *770:25 0.000249516
18 *723:31 *790:27 1.31877e-05
19 *723:31 *805:23 2.19615e-06
20 *723:33 *725:17 0.0102113
21 *723:33 *726:17 0.00367655
22 *723:33 *728:33 0
23 *723:33 *792:29 2.6376e-06
24 *723:37 *725:21 0.0771048
25 *984:FCAP2[0] *984:FCAP2[1] 0.000705564
26 *13:18 *723:33 0.00165995
27 *14:21 *723:33 0.00403731
28 *18:15 *723:33 0.00376145
29 *108:13 *723:23 0
30 *657:14 *723:37 0.0759198
31 *684:17 *723:33 0.000378273
32 *688:13 *723:33 0.0118359
33 *690:9 *723:33 0.00664533
34 *693:39 *723:23 0.00179462
35 *702:15 *723:23 0.000263776
36 *703:13 *723:23 0
37 *714:17 *723:33 0.00482604
38 *714:21 *723:37 0.00028343
39 *715:29 *723:33 3.94956e-05
40 *716:35 *723:23 6.09613e-06
41 *716:41 *723:33 0.0726727
42 *719:17 *723:33 0.00430001
43 *720:17 *723:23 0.00803303
44 *721:17 *723:33 0.0102113
45 *722:21 *723:37 7.54119e-05
*RES
1 *988:analog_ctrl[147] *723:23 48.921 
2 *723:23 *723:31 17.7403 
3 *723:31 *723:33 174.082 
4 *723:33 *723:35 8 
5 *723:35 *723:37 141.693 
6 *723:37 *984:FCAP2[1] 35.0246 
*END

*D_NET *724 0.411591
*CONN
*I *984:FCAP2[2] I *D CF_ADC_DSM20
*I *988:analog_ctrl[148] O *D soc_sys
*CAP
1 *984:FCAP2[2] 0.000515826
2 *988:analog_ctrl[148] 6.45759e-05
3 *724:21 0.0164937
4 *724:19 0.0159778
5 *724:17 0.00792325
6 *724:15 0.00792325
7 *724:13 0.00223423
8 *724:11 0.00223423
9 *724:9 0.013771
10 *724:7 0.0138356
11 *984:FCAP2[2] *984:FCAP3[0] 0.000732241
12 *984:FCAP2[2] *984:FCAP3[1] 0.000190744
13 *984:FCAP2[2] *984:DACCAP[5] 8.98567e-06
14 *724:13 *725:13 2.46906e-05
15 *724:13 *727:13 0.0140644
16 *724:13 *812:13 0.00221219
17 *724:17 *727:17 0.0520553
18 *724:21 *728:37 0.07345
19 *724:21 *736:17 0.010584
20 *724:21 *745:21 0.0157552
21 *984:FCAP2[1] *984:FCAP2[2] 0.000680648
22 *984:FCAP2[0] *984:FCAP2[2] 0.000101421
23 *984:FCAP1[4] *984:FCAP2[2] 1.9912e-05
24 *689:17 *724:17 0
25 *719:21 *724:21 0.0135513
26 *720:33 *724:17 0.00881368
27 *721:13 *724:13 0.0126682
28 *722:13 *724:13 0.000267837
29 *722:17 *724:17 0.0519555
30 *722:21 *724:21 0.0734811
*RES
1 *988:analog_ctrl[148] *724:7 1.25321 
2 *724:7 *724:9 303.516 
3 *724:9 *724:11 15 
4 *724:11 *724:13 154.508 
5 *724:13 *724:15 15 
6 *724:15 *724:17 663.054 
7 *724:17 *724:19 8 
8 *724:19 *724:21 140.276 
9 *724:21 *984:FCAP2[2] 37.1064 
*END

*D_NET *725 0.387269
*CONN
*I *984:FCAP2[3] I *D CF_ADC_DSM20
*I *988:analog_ctrl[149] O *D soc_sys
*CAP
1 *984:FCAP2[3] 0.00115418
2 *988:analog_ctrl[149] 6.45759e-05
3 *725:21 0.0148334
4 *725:19 0.0136792
5 *725:17 0.00782924
6 *725:15 0.00782924
7 *725:13 0.00252321
8 *725:11 0.00252321
9 *725:9 0.0137133
10 *725:7 0.0137779
11 *984:FCAP2[3] *984:FCAP3[2] 5.88765e-05
12 *984:FCAP2[3] *984:FCAP3[0] 8.91246e-05
13 *984:FCAP2[3] *743:33 6.12496e-06
14 *984:FCAP2[3] *744:21 1.11479e-05
15 *725:13 *727:13 0.0145424
16 *725:13 *729:13 0.000341487
17 *725:13 *730:13 0.0133853
18 *725:13 *801:13 0.00221219
19 *725:21 *728:37 5.00179e-05
20 *725:21 *731:21 0.0135426
21 *725:21 *789:29 0.00015022
22 *984:refsel[1] *984:FCAP2[3] 0
23 *20:55 *984:FCAP2[3] 5.32194e-05
24 *690:9 *725:17 3.88739e-05
25 *691:9 *725:17 0
26 *708:13 *725:13 3.70553e-06
27 *710:13 *725:13 9.8971e-06
28 *719:17 *725:17 0.0519072
29 *721:13 *725:13 0.000235577
30 *721:17 *725:17 0.0519602
31 *722:21 *725:21 0.0734022
32 *723:33 *725:17 0.0102113
33 *723:37 *725:21 0.0771048
34 *724:13 *725:13 2.46906e-05
*RES
1 *988:analog_ctrl[149] *725:7 1.25321 
2 *725:7 *725:9 302.812 
3 *725:9 *725:11 15 
4 *725:11 *725:13 166.895 
5 *725:13 *725:15 15 
6 *725:15 *725:17 662.35 
7 *725:17 *725:19 8 
8 *725:19 *725:21 141.35 
9 *725:21 *984:FCAP2[3] 42.1568 
*END

*D_NET *726 0.186275
*CONN
*I *984:buf_sel I *D CF_ADC_DSM20
*I *988:analog_ctrl[14] O *D soc_sys
*CAP
1 *984:buf_sel 0.00241258
2 *988:analog_ctrl[14] 4.95015e-05
3 *726:17 0.00810229
4 *726:15 0.00568972
5 *726:13 0.0306474
6 *726:11 0.0306474
7 *726:9 0.0212574
8 *726:7 0.0213069
9 *984:buf_sel *731:17 0.000245444
10 *726:17 *738:17 0.00609611
11 *984:itrim_sum[3] *726:13 0
12 *13:18 *726:17 0.0144099
13 *18:15 *726:17 0.0256279
14 *120:27 *726:9 0.0128474
15 *655:51 *726:13 0
16 *714:17 *726:17 0.00325886
17 *723:33 *726:17 0.00367655
*RES
1 *988:analog_ctrl[14] *726:7 1.25321 
2 *726:7 *726:9 487.511 
3 *726:9 *726:11 8 
4 *726:11 *726:13 97.0853 
5 *726:13 *726:15 8 
6 *726:15 *726:17 404.405 
7 *726:17 *984:buf_sel 26.6659 
*END

*D_NET *727 0.333203
*CONN
*I *984:FCAP2EN I *D CF_ADC_DSM20
*I *988:analog_ctrl[150] O *D soc_sys
*CAP
1 *984:FCAP2EN 0.000131381
2 *988:analog_ctrl[150] 6.45759e-05
3 *727:25 0.00112058
4 *727:21 0.0250666
5 *727:19 0.0240774
6 *727:17 0.00836617
7 *727:15 0.00836617
8 *727:13 0.00235499
9 *727:11 0.00235499
10 *727:9 0.0137343
11 *727:7 0.0137989
12 *984:FCAP2EN *984:RESCAP[1] 9.47732e-05
13 *984:FCAP2EN *984:IPCAP1EN 3.3765e-05
14 *984:FCAP2EN *984:FCAP3EN 6.09486e-05
15 *727:13 *730:13 0.000267837
16 *727:13 *812:13 0.00306473
17 *727:17 *743:17 0.0526952
18 *727:21 *737:13 0
19 *727:21 *743:21 0
20 *727:21 *748:25 0.016306
21 *727:25 *984:RESCAP[0] 0.000764619
22 *727:25 *984:IPCAP2EN 2.2177e-05
23 *727:25 *984:FCAP3EN 0.00112828
24 *984:FCAP1OFFSET *984:FCAP2EN 0.000119683
25 *13:52 *727:17 0
26 *19:23 *727:17 0
27 *689:17 *727:17 0
28 *696:17 *727:17 0.0101073
29 *709:21 *727:21 0.0684395
30 *713:21 *727:21 0
31 *713:29 *727:25 0
32 *724:13 *727:13 0.0140644
33 *724:17 *727:17 0.0520553
34 *725:13 *727:13 0.0145424
*RES
1 *988:analog_ctrl[150] *727:7 1.25321 
2 *727:7 *727:9 303.164 
3 *727:9 *727:11 15 
4 *727:11 *727:13 164.513 
5 *727:13 *727:15 15 
6 *727:15 *727:17 674.499 
7 *727:17 *727:19 15 
8 *727:19 *727:21 791.969 
9 *727:21 *727:25 36.6257 
10 *727:25 *984:FCAP2EN 18.7286 
*END

*D_NET *728 0.389254
*CONN
*I *984:FCAP3[0] I *D CF_ADC_DSM20
*I *988:analog_ctrl[151] O *D soc_sys
*CAP
1 *984:FCAP3[0] 0.000655553
2 *988:analog_ctrl[151] 0.00413329
3 *728:37 0.026797
4 *728:35 0.0261415
5 *728:33 0.0331237
6 *728:31 0.0342679
7 *728:17 0.00527746
8 *984:FCAP3[0] *984:FCAP3[3] 6.79163e-05
9 *984:FCAP3[0] *984:FCAP3[2] 0.000387686
10 *984:FCAP3[0] *984:FCAP3[1] 6.72016e-05
11 *984:FCAP3[0] *984:DACCAP[5] 0
12 *984:FCAP3[0] *758:35 0
13 *728:17 *770:27 0.000170252
14 *728:17 *794:29 0.00272087
15 *728:17 *805:25 0.000147467
16 *728:17 *808:25 0.000512561
17 *728:31 *735:13 8.92622e-05
18 *728:31 *770:25 2.9813e-05
19 *728:31 *790:27 2.27197e-05
20 *728:31 *790:29 0.000660975
21 *728:31 *792:29 0.000130718
22 *728:31 *805:23 0.00159587
23 *728:31 *808:23 0.000132349
24 *728:33 *735:21 0.0729404
25 *728:33 *876:21 0.0001646
26 *728:37 *729:21 0.0157552
27 *984:FCAP2[3] *984:FCAP3[0] 8.91246e-05
28 *984:FCAP2[2] *984:FCAP3[0] 0.000732241
29 *984:FCAP2[1] *984:FCAP3[0] 4.87514e-05
30 *13:34 *728:33 0.00296335
31 *13:52 *728:33 0.000915973
32 *18:41 *728:33 0.00206426
33 *18:69 *984:FCAP3[0] 3.16789e-05
34 *19:15 *728:33 0.00548572
35 *108:13 *728:17 0
36 *671:21 *728:17 0.000147467
37 *671:29 *728:17 0.0129038
38 *677:17 *728:33 0.00497706
39 *689:17 *728:33 0.00403359
40 *691:9 *728:31 1.43151e-05
41 *691:9 *728:33 0.00929731
42 *692:11 *728:31 0.000436373
43 *693:39 *728:17 0.00198229
44 *700:15 *728:31 0.0014017
45 *711:25 *728:17 0.000623096
46 *711:25 *728:31 0.000975863
47 *715:29 *728:33 1.09583e-05
48 *715:33 *728:31 0.000138791
49 *716:35 *728:17 2.50399e-05
50 *716:41 *728:33 0.00807935
51 *720:29 *728:17 0.00223714
52 *720:29 *728:31 1.73917e-05
53 *720:37 *728:37 0.00991421
54 *721:21 *728:37 0.010584
55 *722:21 *728:37 1.67025e-05
56 *723:23 *728:17 0.00959846
57 *723:31 *728:31 1.54005e-05
58 *723:33 *728:33 0
59 *724:21 *728:37 0.07345
60 *725:21 *728:37 5.00179e-05
*RES
1 *988:analog_ctrl[151] *728:17 47.7567 
2 *728:17 *728:31 39.5648 
3 *728:31 *728:33 173.701 
4 *728:33 *728:35 8 
5 *728:35 *728:37 140.663 
6 *728:37 *984:FCAP3[0] 36.9821 
*END

*D_NET *729 0.362188
*CONN
*I *984:FCAP3[1] I *D CF_ADC_DSM20
*I *988:analog_ctrl[152] O *D soc_sys
*CAP
1 *984:FCAP3[1] 0.00087139
2 *988:analog_ctrl[152] 6.45759e-05
3 *729:21 0.0100175
4 *729:19 0.00914612
5 *729:17 0.00827009
6 *729:15 0.00827009
7 *729:13 0.00354792
8 *729:11 0.00354792
9 *729:9 0.0136417
10 *729:7 0.0137063
11 *984:FCAP3[1] *984:SUMCAP1_EN 0.000114074
12 *984:FCAP3[1] *984:SUMCAP1[0] 0.000339627
13 *984:FCAP3[1] *984:IPCAP3[1] 0.000279116
14 *984:FCAP3[1] *984:IPCAP3[2] 0.000145421
15 *984:FCAP3[1] *984:IPCAP2[1] 4.61307e-05
16 *984:FCAP3[1] *984:FCAP3[3] 1.77405e-06
17 *984:FCAP3[1] *984:FCAP3[2] 7.71824e-06
18 *984:FCAP3[1] *766:39 0.000184699
19 *729:13 *730:13 0.0148248
20 *729:13 *733:15 0.00304778
21 *729:17 *745:17 0.052123
22 *729:21 *736:17 0.0716402
23 *984:FCAP3[0] *984:FCAP3[1] 6.72016e-05
24 *984:FCAP2[2] *984:FCAP3[1] 0.000190744
25 *984:FCAP1[4] *984:FCAP3[1] 0.000183982
26 *19:23 *729:17 0
27 *710:13 *729:13 0.00036909
28 *710:17 *729:17 0.0514798
29 *712:17 *729:17 1.75427e-05
30 *713:13 *729:13 0.00807736
31 *719:21 *729:21 0.0718113
32 *721:21 *729:21 5.67018e-05
33 *725:13 *729:13 0.000341487
34 *728:37 *729:21 0.0157552
*RES
1 *988:analog_ctrl[152] *729:7 1.25321 
2 *729:7 *729:9 302.108 
3 *729:9 *729:11 15 
4 *729:11 *729:13 169.277 
5 *729:13 *729:15 15 
6 *729:15 *729:17 665.343 
7 *729:17 *729:19 15 
8 *729:19 *729:21 767.195 
9 *729:21 *984:FCAP3[1] 49.0571 
*END

*D_NET *730 0.294113
*CONN
*I *984:FCAP3[2] I *D CF_ADC_DSM20
*I *988:analog_ctrl[153] O *D soc_sys
*CAP
1 *984:FCAP3[2] 0.000332538
2 *988:analog_ctrl[153] 6.45759e-05
3 *730:21 0.0245875
4 *730:19 0.0242549
5 *730:17 0.00816418
6 *730:15 0.00816418
7 *730:13 0.00245415
8 *730:11 0.00245415
9 *730:9 0.0136628
10 *730:7 0.0137274
11 *984:FCAP3[2] *984:IPCAP2[1] 7.29386e-05
12 *984:FCAP3[2] *984:FCAP3[3] 0.000209514
13 *984:FCAP3[2] *743:33 1.85607e-06
14 *730:13 *801:13 0.0034788
15 *730:21 *764:37 0.000298503
16 *730:21 *771:37 0.000590751
17 *730:21 *780:29 0.000306332
18 *730:21 *784:29 0.000745409
19 *984:FCAP3[0] *984:FCAP3[2] 0.000387686
20 *984:FCAP3[1] *984:FCAP3[2] 7.71824e-06
21 *984:FCAP2[3] *984:FCAP3[2] 5.88765e-05
22 *14:35 *730:21 0
23 *18:63 *730:21 0.000644941
24 *18:69 *984:FCAP3[2] 5.94125e-05
25 *699:25 *730:21 0.0388566
26 *702:23 *730:17 4.04698e-05
27 *707:17 *730:17 0.0512502
28 *711:29 *730:17 0.00860195
29 *713:17 *730:17 0.0515587
30 *714:21 *730:21 0.0104756
31 *718:31 *730:21 0.00012245
32 *725:13 *730:13 0.0133853
33 *727:13 *730:13 0.000267837
34 *729:13 *730:13 0.0148248
*RES
1 *988:analog_ctrl[153] *730:7 1.25321 
2 *730:7 *730:9 302.46 
3 *730:9 *730:11 15 
4 *730:11 *730:13 167.371 
5 *730:13 *730:15 15 
6 *730:15 *730:17 657.948 
7 *730:17 *730:19 15 
8 *730:19 *730:21 763.86 
9 *730:21 *984:FCAP3[2] 37.6746 
*END

*D_NET *731 0.253878
*CONN
*I *984:FCAP3[3] I *D CF_ADC_DSM20
*I *988:analog_ctrl[154] O *D soc_sys
*CAP
1 *984:FCAP3[3] 0.000532704
2 *988:analog_ctrl[154] 6.45759e-05
3 *731:21 0.0266198
4 *731:19 0.026087
5 *731:17 0.0190699
6 *731:15 0.0190699
7 *731:13 0.00523947
8 *731:11 0.00523947
9 *731:9 0.0129991
10 *731:7 0.0130637
11 *984:FCAP3[3] *984:IPCAP3[2] 0.000664364
12 *984:FCAP3[3] *984:IPCAP2[2] 3.55007e-05
13 *984:FCAP3[3] *984:IPCAP2[1] 0.000120097
14 *984:FCAP3[3] *984:IPCAP2[0] 6.63824e-05
15 *731:13 *738:13 0.0156461
16 *731:13 *798:13 0.00341509
17 *731:17 *732:29 0.00968356
18 *731:21 *745:21 0.0250743
19 *731:21 *786:21 0.00169537
20 *731:21 *789:29 0.00182179
21 *984:FCAP3[2] *984:FCAP3[3] 0.000209514
22 *984:FCAP3[0] *984:FCAP3[3] 6.79163e-05
23 *984:FCAP3[1] *984:FCAP3[3] 1.77405e-06
24 *984:buf_sel *731:17 0.000245444
25 *984:vpwr_int *731:17 8.77554e-05
26 *984:itrim_1[9] *731:17 0.000161017
27 *984:itrim_1[1] *731:17 0.000235248
28 *984:itrim_1[3] *731:17 2.07116e-05
29 *984:itrim_1[4] *731:17 4.19416e-05
30 *984:itrim_1[8] *731:17 8.73652e-05
31 *984:itrim_1[5] *731:17 1.95819e-05
32 *984:itrim_sum[3] *731:17 0.000254188
33 *984:itrim_2_3[1] *731:17 9.17486e-05
34 *984:itrim_2_3[5] *731:17 0.000395687
35 *14:35 *731:21 0
36 *18:69 *984:FCAP3[3] 0.000134077
37 *681:17 *731:17 0
38 *707:17 *731:17 0
39 *709:17 *731:17 0.052073
40 *725:21 *731:21 0.0135426
*RES
1 *988:analog_ctrl[154] *731:7 1.25321 
2 *731:7 *731:9 289.078 
3 *731:9 *731:11 15 
4 *731:11 *731:13 171.183 
5 *731:13 *731:15 15 
6 *731:15 *731:17 676.611 
7 *731:17 *731:19 15 
8 *731:19 *731:21 761.478 
9 *731:21 *984:FCAP3[3] 42.1904 
*END

*D_NET *732 0.39079
*CONN
*I *984:FCAP3EN I *D CF_ADC_DSM20
*I *988:analog_ctrl[155] O *D soc_sys
*CAP
1 *984:FCAP3EN 0.000806778
2 *988:analog_ctrl[155] 0.00369052
3 *732:33 0.0160243
4 *732:31 0.0152175
5 *732:29 0.0296722
6 *732:27 0.0318686
7 *732:17 0.00588694
8 *984:FCAP3EN *984:IPCAP2EN 2.84559e-05
9 *984:FCAP3EN *984:IPCAP1EN 6.28383e-05
10 *984:FCAP3EN *739:41 3.72178e-05
11 *984:FCAP3EN *741:33 2.11157e-05
12 *732:17 *735:13 0.0126621
13 *732:27 *735:13 0.0027138
14 *732:29 *733:17 0
15 *732:29 *749:25 0.00281336
16 *732:33 *735:25 0.0728785
17 *732:33 *748:25 0
18 *732:33 *749:29 2.56334e-05
19 *732:33 *778:21 0.000164818
20 *732:33 *779:21 0.000340503
21 *732:33 *796:13 0.0118496
22 *984:FCAP2EN *984:FCAP3EN 6.09486e-05
23 *984:FCAP1EN *984:FCAP3EN 5.27419e-05
24 *984:FCAP1OFFSET *984:FCAP3EN 0.000886271
25 *984:iin *732:29 7.65759e-05
26 *984:itrim_sum[5] *732:29 8.96755e-05
27 *655:30 *732:29 0.00226102
28 *656:61 *732:29 0.00685133
29 *670:31 *732:29 0.00352986
30 *671:29 *732:17 0.00507126
31 *693:35 *732:27 6.6325e-06
32 *695:13 *732:27 0.00103986
33 *695:13 *732:29 0.071403
34 *695:17 *732:33 0.0738219
35 *701:11 *732:17 9.9595e-05
36 *701:13 *732:17 6.99019e-05
37 *702:13 *732:17 4.62843e-05
38 *703:11 *732:17 0.000104078
39 *706:11 *732:17 3.60466e-05
40 *711:25 *732:17 0.00466174
41 *720:37 *732:33 0.000323686
42 *723:23 *732:17 0
43 *723:31 *732:27 0.00272102
44 *727:25 *984:FCAP3EN 0.00112828
45 *731:17 *732:29 0.00968356
*RES
1 *988:analog_ctrl[155] *732:17 45.0852 
2 *732:17 *732:27 26.5915 
3 *732:27 *732:29 170.378 
4 *732:29 *732:31 8 
5 *732:31 *732:33 140.319 
6 *732:33 *984:FCAP3EN 42.0157 
*END

*D_NET *733 0.342898
*CONN
*I *984:IPCAP1[0] I *D CF_ADC_DSM20
*I *988:analog_ctrl[156] O *D soc_sys
*CAP
1 *984:IPCAP1[0] 3.40399e-05
2 *988:analog_ctrl[156] 6.45759e-05
3 *733:35 0.00141192
4 *733:21 0.0142793
5 *733:19 0.0129014
6 *733:17 0.0259663
7 *733:15 0.0331926
8 *733:9 0.0208087
9 *733:7 0.013647
10 *733:15 *801:13 0.0172145
11 *733:15 *816:13 0
12 *733:17 *749:25 0.03831
13 *733:21 *828:29 0
14 *733:35 *984:IPCAP1[2] 0
15 *733:35 *756:79 0.000241565
16 *733:35 *764:37 0.000351393
17 *733:35 *788:27 3.82564e-05
18 *984:FCAP1[6] *984:IPCAP1[0] 0.000110488
19 *984:FCAP1[6] *733:35 0.000794312
20 *984:FCAP1[2] *984:IPCAP1[0] 6.5777e-05
21 *984:FCAP1[2] *733:35 1.94114e-05
22 *984:FCAP1[1] *984:IPCAP1[0] 2.73926e-05
23 *984:iin *733:17 0.00011635
24 *984:itrim_2_3[2] *733:17 0.000179651
25 *656:23 *733:17 0
26 *656:61 *733:17 0.00456793
27 *670:31 *733:17 0.00015344
28 *696:21 *733:21 0.0734937
29 *697:13 *733:17 0
30 *707:13 *733:15 0.00145444
31 *708:13 *733:15 0.00102653
32 *709:13 *733:15 0.00090633
33 *710:13 *733:15 0.00150912
34 *712:21 *733:21 0.0749139
35 *713:13 *733:15 0.00203993
36 *713:29 *733:35 0
37 *716:57 *733:35 0
38 *718:31 *733:35 9.7484e-06
39 *729:13 *733:15 0.00304778
40 *732:29 *733:17 0
*RES
1 *988:analog_ctrl[156] *733:7 1.25321 
2 *733:7 *733:9 301.579 
3 *733:9 *733:15 47.9555 
4 *733:15 *733:17 122.293 
5 *733:17 *733:19 8 
6 *733:19 *733:21 138.344 
7 *733:21 *733:35 49.2657 
8 *733:35 *984:IPCAP1[0] 1.48107 
*END

*D_NET *734 0.353257
*CONN
*I *984:IPCAP1[1] I *D CF_ADC_DSM20
*I *988:analog_ctrl[157] O *D soc_sys
*CAP
1 *984:IPCAP1[1] 0.000596782
2 *988:analog_ctrl[157] 6.45759e-05
3 *734:21 0.005365
4 *734:19 0.00476822
5 *734:17 0.0100579
6 *734:15 0.0100579
7 *734:13 0.0184482
8 *734:11 0.0184482
9 *734:9 0.0133014
10 *734:7 0.013366
11 *984:IPCAP1[1] *984:IPCAP1[6] 0.000320185
12 *984:IPCAP1[1] *984:IPCAP1[4] 2.5343e-05
13 *984:IPCAP1[1] *984:IPCAP1[2] 6.09486e-05
14 *984:IPCAP1[1] *739:41 0.000103618
15 *984:IPCAP1[1] *741:33 9.07044e-05
16 *734:13 *739:13 0.0734755
17 *734:13 *746:13 2.1819e-05
18 *734:13 *816:13 0.00803222
19 *734:17 *739:17 0.0508165
20 *734:17 *744:17 0.0498184
21 *734:21 *739:21 0.0218248
22 *734:21 *740:17 0.00429775
23 *984:FCAP1[3] *984:IPCAP1[1] 6.09486e-05
24 *984:FCAP1[0] *984:IPCAP1[1] 0.00014447
25 *20:55 *984:IPCAP1[1] 0.000776495
26 *20:55 *734:21 0.000380793
27 *33:13 *734:13 0.00702452
28 *34:17 *734:13 0.0332922
29 *35:13 *734:13 0.000219701
30 *66:17 *734:13 0.000439253
31 *664:25 *734:21 0.00750971
32 *664:27 *734:17 4.15283e-05
33 *667:17 *734:21 5.77181e-06
*RES
1 *988:analog_ctrl[157] *734:7 1.25321 
2 *734:7 *734:9 295.417 
3 *734:9 *734:11 15 
4 *734:11 *734:13 824.366 
5 *734:13 *734:15 15 
6 *734:15 *734:17 656.363 
7 *734:17 *734:19 8 
8 *734:19 *734:21 42.0019 
9 *734:21 *984:IPCAP1[1] 42.3933 
*END

*D_NET *735 0.432017
*CONN
*I *984:IPCAP1[2] I *D CF_ADC_DSM20
*I *988:analog_ctrl[158] O *D soc_sys
*CAP
1 *984:IPCAP1[2] 0.000878078
2 *988:analog_ctrl[158] 0.00882267
3 *735:25 0.0168965
4 *735:23 0.0160184
5 *735:21 0.0192614
6 *735:19 0.019547
7 *735:13 0.00910821
8 *984:IPCAP1[2] *984:IPCAP1[4] 0.000518247
9 *984:IPCAP1[2] *984:IPCAP1[3] 0.000119278
10 *735:13 *736:9 0.00500696
11 *735:25 *777:21 0.000294933
12 *735:25 *783:33 0.000340503
13 *984:IPCAP1[1] *984:IPCAP1[2] 6.09486e-05
14 *984:FCAP1[3] *984:IPCAP1[2] 1.4973e-05
15 *984:FCAP1[6] *984:IPCAP1[2] 0.000141324
16 *80:13 *735:25 0.000394419
17 *671:29 *735:13 0.000563075
18 *692:11 *735:13 0.000835103
19 *695:11 *735:13 0.000106134
20 *695:17 *735:25 3.46308e-05
21 *696:17 *735:21 1.9035e-05
22 *697:11 *735:13 0.000188931
23 *699:11 *735:13 0.000106134
24 *700:15 *735:13 0.00108122
25 *701:11 *735:13 0.000103309
26 *702:13 *735:13 4.93993e-05
27 *703:11 *735:13 0.000106134
28 *706:11 *735:13 3.84564e-05
29 *711:25 *735:13 0.000120881
30 *715:29 *735:21 3.04461e-05
31 *716:57 *984:IPCAP1[2] 0.000352682
32 *717:17 *735:21 0.0110007
33 *718:17 *735:21 0.00878196
34 *718:31 *984:IPCAP1[2] 0.00029454
35 *720:33 *735:21 0.0731842
36 *720:37 *735:25 0.0742629
37 *723:23 *735:13 0.000573086
38 *723:31 *735:13 0.0014761
39 *728:31 *735:13 8.92622e-05
40 *728:33 *735:21 0.0729404
41 *732:17 *735:13 0.0126621
42 *732:27 *735:13 0.0027138
43 *732:33 *735:25 0.0728785
44 *733:35 *984:IPCAP1[2] 0
*RES
1 *988:analog_ctrl[158] *735:13 46.6514 
2 *735:13 *735:19 8.66453 
3 *735:19 *735:21 174.843 
4 *735:21 *735:23 8 
5 *735:23 *735:25 141.865 
6 *735:25 *984:IPCAP1[2] 41.705 
*END

*D_NET *736 0.292105
*CONN
*I *984:IPCAP1[3] I *D CF_ADC_DSM20
*I *988:analog_ctrl[159] O *D soc_sys
*CAP
1 *984:IPCAP1[3] 0.000628194
2 *988:analog_ctrl[159] 4.11648e-05
3 *736:17 0.0122002
4 *736:15 0.011572
5 *736:13 0.0278301
6 *736:11 0.0278301
7 *736:9 0.00926647
8 *736:7 0.00930763
9 *984:IPCAP1[3] *984:DACCAP[0] 0
10 *984:IPCAP1[3] *984:DACCAP[2] 0.00034363
11 *984:IPCAP1[3] *984:IPCAP1[5] 3.44259e-05
12 *984:IPCAP1[3] *984:IPCAP1[4] 6.31377e-05
13 *984:IPCAP1[3] *739:41 4.82477e-05
14 *736:9 *790:29 0.00200902
15 *736:13 *821:27 0
16 *736:13 *823:17 0
17 *736:17 *754:21 9.79925e-05
18 *736:17 *757:45 0.00041079
19 *984:IPCAP1[2] *984:IPCAP1[3] 0.000119278
20 *984:FCAP1[4] *984:IPCAP1[3] 1.76557e-05
21 *984:VREFQ *736:13 0
22 *984:itrim_2_3[4] *736:13 0.00182146
23 *18:23 *736:13 0
24 *657:18 *736:13 0.00449676
25 *657:26 *736:13 0
26 *657:28 *736:13 0
27 *678:25 *736:13 0
28 *679:17 *736:13 0.000193934
29 *681:17 *736:13 0
30 *690:25 *736:13 0.00116937
31 *692:13 *736:13 0
32 *694:7 *736:13 1.01078e-05
33 *694:9 *736:13 0.0321927
34 *694:17 *736:13 0.00116981
35 *702:23 *736:13 0
36 *712:17 *736:13 0.0203457
37 *716:57 *984:IPCAP1[3] 0.000870861
38 *719:21 *736:17 0.000470476
39 *721:21 *736:17 0.0403128
40 *724:21 *736:17 0.010584
41 *729:21 *736:17 0.0716402
42 *735:13 *736:9 0.00500696
*RES
1 *988:analog_ctrl[159] *736:7 15.8079 
2 *736:7 *736:9 203.932 
3 *736:9 *736:11 15 
4 *736:11 *736:13 967.834 
5 *736:13 *736:15 15 
6 *736:15 *736:17 775.771 
7 *736:17 *984:IPCAP1[3] 45.0179 
*END

*D_NET *737 0.276985
*CONN
*I *984:EN_DEM I *D CF_ADC_DSM20
*I *988:analog_ctrl[15] O *D soc_sys
*CAP
1 *984:EN_DEM 8.06307e-05
2 *988:analog_ctrl[15] 4.95015e-05
3 *737:21 0.00137854
4 *737:13 0.051171
5 *737:11 0.0498731
6 *737:9 0.0422454
7 *737:7 0.0422949
8 *737:13 *743:21 0.000654354
9 *737:13 *749:29 0.000480729
10 *737:13 *759:13 0
11 *737:13 *778:21 4.79612e-05
12 *737:13 *779:21 1.90919e-05
13 *737:13 *780:21 0.0102906
14 *737:13 *796:13 0
15 *80:13 *737:13 0.00696085
16 *655:18 *737:9 0
17 *667:5 *737:21 8.49955e-06
18 *667:7 *984:EN_DEM 3.40783e-05
19 *668:15 *984:EN_DEM 2.81323e-05
20 *668:15 *737:21 0.000364037
21 *713:21 *737:13 0.0710035
22 *727:21 *737:13 0
*RES
1 *988:analog_ctrl[15] *737:7 1.25321 
2 *737:7 *737:9 973.996 
3 *737:9 *737:11 15 
4 *737:11 *737:13 1418.95 
5 *737:13 *737:21 49.6579 
6 *737:21 *984:EN_DEM 2.61 
*END

*D_NET *738 0.284095
*CONN
*I *984:IPCAP1[4] I *D CF_ADC_DSM20
*I *988:analog_ctrl[160] O *D soc_sys
*CAP
1 *984:IPCAP1[4] 0.00046452
2 *988:analog_ctrl[160] 5.03611e-05
3 *738:35 0.00153871
4 *738:31 0.00144025
5 *738:21 0.013042
6 *738:19 0.012676
7 *738:17 0.0213589
8 *738:15 0.0213589
9 *738:13 0.0040745
10 *738:11 0.0040745
11 *738:9 0.0129505
12 *738:7 0.0130008
13 *984:IPCAP1[4] *984:DACCAP[1] 0
14 *984:IPCAP1[4] *984:IPCAP1[6] 6.12418e-07
15 *984:IPCAP1[4] *984:IPCAP1[5] 5.96084e-05
16 *984:IPCAP1[4] *739:41 6.69637e-06
17 *738:13 *742:13 0.000399748
18 *738:13 *743:13 0.0197856
19 *738:13 *797:13 0.00238263
20 *738:17 *742:17 0
21 *738:21 *742:21 8.2761e-05
22 *738:31 *742:37 6.81707e-05
23 *738:31 *824:25 0
24 *738:31 *825:17 0.000173783
25 *738:35 *788:31 0.00249431
26 *984:IPCAP1[3] *984:IPCAP1[4] 6.31377e-05
27 *984:IPCAP1[2] *984:IPCAP1[4] 0.000518247
28 *984:IPCAP1[1] *984:IPCAP1[4] 2.5343e-05
29 *984:FCAP1[4] *738:31 0.000122709
30 *984:FCAP1[2] *984:IPCAP1[4] 0
31 *13:18 *738:17 0.0111918
32 *14:35 *738:35 0.000972871
33 *18:63 *738:35 0.000107226
34 *683:17 *738:17 0.00728879
35 *688:13 *738:17 0.000342859
36 *690:9 *738:17 0
37 *706:25 *738:21 8.06804e-06
38 *707:21 *738:21 0.0133912
39 *708:21 *738:21 0.0273827
40 *708:21 *738:31 0.000161089
41 *714:17 *738:17 0
42 *716:57 *984:IPCAP1[4] 0.000495708
43 *717:21 *738:21 0.068778
44 *717:21 *738:31 1.92115e-05
45 *718:21 *738:21 0
46 *726:17 *738:17 0.00609611
47 *731:13 *738:13 0.0156461
*RES
1 *988:analog_ctrl[160] *738:7 1.25321 
2 *738:7 *738:9 288.726 
3 *738:9 *738:11 15 
4 *738:11 *738:13 228.354 
5 *738:13 *738:15 15 
6 *738:15 *738:17 667.808 
7 *738:17 *738:19 15 
8 *738:19 *738:21 762.669 
9 *738:21 *738:31 38.0889 
10 *738:31 *738:35 46.5893 
11 *738:35 *984:IPCAP1[4] 25.1189 
*END

*D_NET *739 0.370552
*CONN
*I *984:IPCAP1[5] I *D CF_ADC_DSM20
*I *988:analog_ctrl[161] O *D soc_sys
*CAP
1 *984:IPCAP1[5] 2.58208e-05
2 *988:analog_ctrl[161] 5.03611e-05
3 *739:41 0.000911096
4 *739:21 0.00475211
5 *739:17 0.0137531
6 *739:15 0.00988623
7 *739:13 0.0101817
8 *739:11 0.0101817
9 *739:9 0.0133108
10 *739:7 0.0133611
11 *984:IPCAP1[5] *984:DACCAP[2] 3.07193e-05
12 *984:IPCAP1[5] *984:IPCAP1[6] 6.47151e-05
13 *739:13 *746:13 0.070122
14 *739:13 *816:13 0.00466431
15 *739:17 *744:17 2.31765e-05
16 *739:17 *747:17 5.79315e-05
17 *739:41 *984:DACCAP[2] 7.43244e-05
18 *739:41 *984:IPCAP1[6] 0.00049029
19 *739:41 *741:33 0.00115045
20 *739:41 *744:21 0.000987904
21 *984:IPCAP1[4] *984:IPCAP1[5] 5.96084e-05
22 *984:IPCAP1[4] *739:41 6.69637e-06
23 *984:IPCAP1[3] *984:IPCAP1[5] 3.44259e-05
24 *984:IPCAP1[3] *739:41 4.82477e-05
25 *984:IPCAP1[1] *739:41 0.000103618
26 *984:FCAP1[0] *739:41 0.000130752
27 *984:FCAP3EN *739:41 3.72178e-05
28 *984:FCAP1EN *739:41 5.02149e-05
29 *984:FCAP1OFFSET *739:41 2.11157e-05
30 *20:55 *739:21 0.0114426
31 *20:55 *739:41 0.000993657
32 *33:13 *739:13 0.00608442
33 *35:13 *739:13 0.000253646
34 *66:17 *739:13 0.000196487
35 *667:17 *739:21 0.000218163
36 *668:21 *739:17 0.0506742
37 *734:13 *739:13 0.0734755
38 *734:17 *739:17 0.0508165
39 *734:21 *739:21 0.0218248
*RES
1 *988:analog_ctrl[161] *739:7 1.25321 
2 *739:7 *739:9 295.769 
3 *739:9 *739:11 15 
4 *739:11 *739:13 802.927 
5 *739:13 *739:15 15 
6 *739:15 *739:17 656.715 
7 *739:17 *739:21 48.0269 
8 *739:21 *739:41 46.7771 
9 *739:41 *984:IPCAP1[5] 16.4811 
*END

*D_NET *740 0.395233
*CONN
*I *984:IPCAP1[6] I *D CF_ADC_DSM20
*I *988:analog_ctrl[162] O *D soc_sys
*CAP
1 *984:IPCAP1[6] 0.000711872
2 *988:analog_ctrl[162] 5.0199e-05
3 *740:17 0.0101393
4 *740:15 0.00942746
5 *740:13 0.0333764
6 *740:11 0.0333764
7 *740:9 0.0326623
8 *740:7 0.0327125
9 *984:IPCAP1[6] *984:DACCAP[5] 0
10 *984:IPCAP1[6] *984:DACCAP[2] 6.36938e-05
11 *984:IPCAP1[6] *744:21 2.17681e-05
12 *984:IPCAP1[6] *755:55 3.36552e-05
13 *740:9 *750:9 0.0300657
14 *740:9 *754:13 0.00828796
15 *740:9 *755:13 0.0662364
16 *740:9 *758:9 0.0145187
17 *740:13 *753:17 0.0503642
18 *740:13 *789:25 0.00207046
19 *740:13 *873:17 0.0291644
20 *740:13 *877:17 0.000606701
21 *740:17 *741:27 0.00758058
22 *984:IPCAP1[5] *984:IPCAP1[6] 6.47151e-05
23 *984:IPCAP1[4] *984:IPCAP1[6] 6.12418e-07
24 *984:IPCAP1[1] *984:IPCAP1[6] 0.000320185
25 *984:FCAP1[0] *984:IPCAP1[6] 1.09583e-05
26 *20:55 *984:IPCAP1[6] 0.000118189
27 *20:55 *740:17 0
28 *647:13 *740:13 0.00263611
29 *647:17 *740:9 0.00252336
30 *648:13 *740:13 0.0029023
31 *664:25 *740:17 4.52243e-05
32 *667:19 *740:13 0.015285
33 *671:29 *740:9 0.00254549
34 *715:45 *740:13 0.00233656
35 *715:55 *740:13 0.000185018
36 *734:21 *740:17 0.00429775
37 *739:41 *984:IPCAP1[6] 0.00049029
*RES
1 *988:analog_ctrl[162] *740:7 8.98393 
2 *740:7 *740:9 144.721 
3 *740:9 *740:11 8 
4 *740:11 *740:13 171.162 
5 *740:13 *740:15 8 
6 *740:15 *740:17 43.6763 
7 *740:17 *984:IPCAP1[6] 42.5822 
*END

*D_NET *741 0.371226
*CONN
*I *984:IPCAP1EN I *D CF_ADC_DSM20
*I *988:analog_ctrl[163] O *D soc_sys
*CAP
1 *984:IPCAP1EN 4.78378e-05
2 *988:analog_ctrl[163] 5.6041e-05
3 *741:33 0.002831
4 *741:27 0.00498119
5 *741:17 0.0206123
6 *741:15 0.0184143
7 *741:13 0.0262908
8 *741:11 0.0262908
9 *741:9 0.0134379
10 *741:7 0.0134939
11 *984:IPCAP1EN *984:RESCAP[1] 0.000122947
12 *741:13 *777:13 0.00205603
13 *741:13 *801:13 0
14 *741:13 *816:13 0.0766842
15 *741:17 *752:25 0.0484508
16 *741:17 *753:17 0.000500873
17 *741:17 *791:23 0
18 *741:33 *984:IPCAP2EN 1.27321e-05
19 *741:33 *744:21 0.00416346
20 *984:IPCAP1[1] *741:33 9.07044e-05
21 *984:FCAP3EN *984:IPCAP1EN 6.28383e-05
22 *984:FCAP3EN *741:33 2.11157e-05
23 *984:FCAP2EN *984:IPCAP1EN 3.3765e-05
24 *20:55 *741:33 0.00374323
25 *36:9 *741:13 0.00058987
26 *104:29 *741:13 0.00690373
27 *646:14 *741:17 0.00537754
28 *649:10 *741:17 0.0019166
29 *650:13 *741:17 0.0023393
30 *661:17 *741:33 0.00769955
31 *661:19 *741:17 0.00863953
32 *662:11 *741:33 0.0013447
33 *663:27 *741:17 0.00338509
34 *664:19 *741:27 0.000271232
35 *664:19 *741:33 0.00747954
36 *664:25 *741:27 0.00724743
37 *665:31 *741:13 0.000200278
38 *666:23 *741:13 0.00951517
39 *667:7 *741:33 0.00307838
40 *667:17 *741:27 0
41 *667:17 *741:33 4.93791e-05
42 *668:25 *741:13 0.00805958
43 *693:41 *741:17 0
44 *715:45 *741:17 0.025999
45 *739:41 *741:33 0.00115045
46 *740:17 *741:27 0.00758058
*RES
1 *988:analog_ctrl[163] *741:7 1.25321 
2 *741:7 *741:9 298.058 
3 *741:9 *741:11 8 
4 *741:11 *741:13 144.269 
5 *741:13 *741:15 8 
6 *741:15 *741:17 117.596 
7 *741:17 *741:27 39.9413 
8 *741:27 *741:33 36.8419 
9 *741:33 *984:IPCAP1EN 16.7607 
*END

*D_NET *742 0.268993
*CONN
*I *984:IPCAP1OFFSET I *D CF_ADC_DSM20
*I *988:analog_ctrl[164] O *D soc_sys
*CAP
1 *984:IPCAP1OFFSET 0.000100467
2 *988:analog_ctrl[164] 5.6041e-05
3 *742:37 0.00239377
4 *742:21 0.0274614
5 *742:19 0.0251681
6 *742:17 0.026499
7 *742:15 0.026499
8 *742:13 0.00792134
9 *742:11 0.00792134
10 *742:9 0.0128641
11 *742:7 0.0129202
12 *984:IPCAP1OFFSET *984:RESCAP[2] 0.000129602
13 *984:IPCAP1OFFSET *984:RESCAP[0] 0.000141956
14 *984:IPCAP1OFFSET *787:21 1.05235e-05
15 *742:13 *743:13 0.000296436
16 *742:13 *745:13 0.0211743
17 *742:13 *781:13 0.00966439
18 *742:21 *984:bw[3] 0.000141954
19 *742:21 *821:29 0.0308695
20 *742:21 *823:21 0.0384422
21 *742:37 *984:RESCAP[2] 0.000214207
22 *742:37 *747:25 0.00145688
23 *742:37 *756:63 0.000200604
24 *742:37 *787:29 2.95594e-05
25 *742:37 *825:17 2.78989e-05
26 *984:refsel[14] *742:37 0.000726239
27 *984:refsel[1] *742:37 0.000100052
28 *984:FCAP1[1] *984:IPCAP1OFFSET 1.53145e-06
29 *20:55 *742:37 6.96714e-05
30 *655:53 *742:17 0.0128216
31 *697:17 *742:37 8.1601e-05
32 *700:21 *742:37 0.00100269
33 *703:43 *742:37 9.24822e-05
34 *707:21 *742:37 1.95052e-05
35 *713:29 *984:IPCAP1OFFSET 1.75562e-05
36 *713:29 *742:37 0.000216439
37 *714:21 *742:37 0.000436198
38 *717:21 *742:21 0.000252277
39 *738:13 *742:13 0.000399748
40 *738:17 *742:17 0
41 *738:21 *742:21 8.2761e-05
42 *738:31 *742:37 6.81707e-05
*RES
1 *988:analog_ctrl[164] *742:7 1.25321 
2 *742:7 *742:9 287.67 
3 *742:9 *742:11 15 
4 *742:11 *742:13 251.699 
5 *742:13 *742:15 15 
6 *742:15 *742:17 667.104 
7 *742:17 *742:19 15 
8 *742:19 *742:21 767.195 
9 *742:21 *742:37 44.3635 
10 *742:37 *984:IPCAP1OFFSET 17.8068 
*END

*D_NET *743 0.306148
*CONN
*I *984:IPCAP2[0] I *D CF_ADC_DSM20
*I *988:analog_ctrl[165] O *D soc_sys
*CAP
1 *984:IPCAP2[0] 2.363e-05
2 *988:analog_ctrl[165] 5.6041e-05
3 *743:33 0.00109124
4 *743:21 0.0238192
5 *743:19 0.0227516
6 *743:17 0.0199959
7 *743:15 0.0199959
8 *743:13 0.00359717
9 *743:11 0.00359717
10 *743:9 0.0129159
11 *743:7 0.0129719
12 *984:IPCAP2[0] *984:IPCAP2[1] 7.89906e-05
13 *743:13 *745:13 0.0216508
14 *743:13 *797:13 0.00474708
15 *743:21 *749:29 0.0135439
16 *743:33 *984:IPCAP3[1] 0
17 *743:33 *984:IPCAP3[0] 1.33572e-05
18 *743:33 *984:IPCAP2[2] 0.000817097
19 *743:33 *984:DACCAP[5] 0
20 *743:33 *766:39 0.00127464
21 *984:FCAP3[3] *984:IPCAP2[0] 6.63824e-05
22 *984:FCAP3[2] *743:33 1.85607e-06
23 *984:FCAP2[3] *743:33 6.12496e-06
24 *19:23 *743:17 0
25 *689:17 *743:17 0
26 *701:21 *743:17 0
27 *708:17 *743:17 0
28 *713:21 *743:21 0.0697004
29 *727:17 *743:17 0.0526952
30 *727:21 *743:21 0
31 *737:13 *743:21 0.000654354
32 *738:13 *743:13 0.0197856
33 *742:13 *743:13 0.000296436
*RES
1 *988:analog_ctrl[165] *743:7 1.25321 
2 *743:7 *743:9 288.374 
3 *743:9 *743:11 15 
4 *743:11 *743:13 242.647 
5 *743:13 *743:15 15 
6 *743:15 *743:17 686.471 
7 *743:17 *743:19 15 
8 *743:19 *743:21 773.865 
9 *743:21 *743:33 37.1021 
10 *743:33 *984:IPCAP2[0] 15.9839 
*END

*D_NET *744 0.323835
*CONN
*I *984:IPCAP2[1] I *D CF_ADC_DSM20
*I *988:analog_ctrl[166] O *D soc_sys
*CAP
1 *984:IPCAP2[1] 0.000179087
2 *988:analog_ctrl[166] 5.6041e-05
3 *744:21 0.00491807
4 *744:19 0.00473899
5 *744:17 0.00963382
6 *744:15 0.00963382
7 *744:13 0.0271634
8 *744:11 0.0271634
9 *744:9 0.0139795
10 *744:7 0.0140355
11 *984:IPCAP2[1] *984:IPCAP3[2] 3.07109e-05
12 *984:IPCAP2[1] *984:IPCAP2[2] 0.000109293
13 *744:13 *749:13 0.000877932
14 *744:13 *817:13 0.0115755
15 *744:17 *789:25 0
16 *744:21 *746:21 0.0230591
17 *744:21 *747:25 0.000669918
18 *744:21 *758:35 0.000190086
19 *744:21 *787:21 0.00490163
20 *984:IPCAP2[0] *984:IPCAP2[1] 7.89906e-05
21 *984:FCAP3[3] *984:IPCAP2[1] 0.000120097
22 *984:FCAP3[2] *984:IPCAP2[1] 7.29386e-05
23 *984:FCAP3[1] *984:IPCAP2[1] 4.61307e-05
24 *984:FCAP2[3] *744:21 1.11479e-05
25 *984:IPCAP1[6] *744:21 2.17681e-05
26 *20:55 *744:21 8.64719e-05
27 *69:37 *744:13 0.0327088
28 *70:33 *744:13 0.00735004
29 *661:17 *744:21 0.015129
30 *661:23 *744:13 0.00757746
31 *662:19 *744:17 0.000148341
32 *664:27 *744:17 0.0497672
33 *665:23 *744:21 0.00272431
34 *668:21 *744:17 8.32633e-05
35 *734:17 *744:17 0.0498184
36 *739:17 *744:17 2.31765e-05
37 *739:41 *744:21 0.000987904
38 *741:33 *744:21 0.00416346
*RES
1 *988:analog_ctrl[166] *744:7 1.25321 
2 *744:7 *744:9 309.503 
3 *744:9 *744:11 15 
4 *744:11 *744:13 777.676 
5 *744:13 *744:15 15 
6 *744:15 *744:17 647.208 
7 *744:17 *744:19 8 
8 *744:19 *744:21 45.0501 
9 *744:21 *984:IPCAP2[1] 27.9818 
*END

*D_NET *745 0.34383
*CONN
*I *984:IPCAP2[2] I *D CF_ADC_DSM20
*I *988:analog_ctrl[167] O *D soc_sys
*CAP
1 *984:IPCAP2[2] 0.000551802
2 *988:analog_ctrl[167] 5.6041e-05
3 *745:21 0.0137879
4 *745:19 0.0132361
5 *745:17 0.00863275
6 *745:15 0.00863275
7 *745:13 0.00365065
8 *745:11 0.00365065
9 *745:9 0.0128852
10 *745:7 0.0129413
11 *984:IPCAP2[2] *984:SUMCAP1[2] 8.71806e-06
12 *984:IPCAP2[2] *984:IPCAP3[2] 0.000727451
13 *984:IPCAP2[2] *984:IPCAP3[0] 6.26844e-05
14 *984:IPCAP2[2] *766:39 3.84098e-05
15 *745:13 *781:13 0.00280204
16 *745:21 *786:21 0.000867045
17 *984:IPCAP2[1] *984:IPCAP2[2] 0.000109293
18 *984:FCAP3[3] *984:IPCAP2[2] 3.55007e-05
19 *14:35 *745:21 0
20 *694:9 *745:17 0.000578332
21 *708:17 *745:17 6.23248e-06
22 *710:17 *745:17 2.61151e-05
23 *712:17 *745:17 0.0520147
24 *719:21 *745:21 0.0719339
25 *724:21 *745:21 0.0157552
26 *729:17 *745:17 0.052123
27 *731:21 *745:21 0.0250743
28 *742:13 *745:13 0.0211743
29 *743:13 *745:13 0.0216508
30 *743:33 *984:IPCAP2[2] 0.000817097
*RES
1 *988:analog_ctrl[167] *745:7 1.25321 
2 *745:7 *745:9 288.022 
3 *745:9 *745:11 15 
4 *745:11 *745:13 247.411 
5 *745:13 *745:15 15 
6 *745:15 *745:17 678.724 
7 *745:17 *745:19 15 
8 *745:19 *745:21 768.624 
9 *745:21 *984:IPCAP2[2] 44.2825 
*END

*D_NET *746 0.378487
*CONN
*I *984:IPCAP2EN I *D CF_ADC_DSM20
*I *988:analog_ctrl[168] O *D soc_sys
*CAP
1 *984:IPCAP2EN 0.000250333
2 *988:analog_ctrl[168] 5.6041e-05
3 *746:21 0.00481321
4 *746:19 0.00456288
5 *746:17 0.0090003
6 *746:15 0.0090003
7 *746:13 0.00972949
8 *746:11 0.00972949
9 *746:9 0.0133134
10 *746:7 0.0133695
11 *984:IPCAP2EN *984:RESCAPEN 2.31765e-05
12 *984:IPCAP2EN *984:RESCAP[0] 4.30894e-05
13 *984:IPCAP2EN *984:RESCAP[1] 6.09486e-05
14 *984:IPCAP2EN *984:IPCAP3EN 0.000237012
15 *746:13 *747:13 0.0695598
16 *746:13 *816:13 0.0049937
17 *746:17 *763:17 0.0519558
18 *746:17 *784:25 0.00788694
19 *746:17 *810:17 0.00609453
20 *746:17 *818:17 0.029331
21 *746:21 *747:25 0.0229081
22 *746:21 *761:21 0.000746909
23 *746:21 *767:21 0.00381718
24 *746:21 *787:21 0.000160236
25 *746:21 *788:21 0.00451712
26 *984:FCAP3EN *984:IPCAP2EN 2.84559e-05
27 *34:17 *746:13 0.000474847
28 *35:13 *746:13 0.0074151
29 *38:17 *746:13 0.000795796
30 *661:17 *746:21 0.00037454
31 *727:25 *984:IPCAP2EN 2.2177e-05
32 *734:13 *746:13 2.1819e-05
33 *739:13 *746:13 0.070122
34 *741:33 *984:IPCAP2EN 1.27321e-05
35 *744:21 *746:21 0.0230591
*RES
1 *988:analog_ctrl[168] *746:7 1.25321 
2 *746:7 *746:9 296.121 
3 *746:9 *746:11 15 
4 *746:11 *746:13 781.964 
5 *746:13 *746:15 15 
6 *746:15 *746:17 661.293 
7 *746:17 *746:19 8 
8 *746:19 *746:21 45.0501 
9 *746:21 *984:IPCAP2EN 27.1325 
*END

*D_NET *747 0.365457
*CONN
*I *984:IPCAP3[0] I *D CF_ADC_DSM20
*I *988:analog_ctrl[169] O *D soc_sys
*CAP
1 *984:IPCAP3[0] 0.000195983
2 *988:analog_ctrl[169] 5.6041e-05
3 *747:25 0.00502717
4 *747:19 0.00483119
5 *747:17 0.0100585
6 *747:15 0.0100585
7 *747:13 0.0126915
8 *747:11 0.0126915
9 *747:9 0.013339
10 *747:7 0.013395
11 *984:IPCAP3[0] *984:SUMCAP1_EN 0.000132155
12 *984:IPCAP3[0] *984:SUMCAP1[0] 2.11157e-05
13 *984:IPCAP3[0] *984:SUMCAP1[2] 6.26844e-05
14 *984:IPCAP3[0] *766:39 2.2177e-05
15 *747:13 *777:13 0.00876347
16 *747:13 *816:13 0.00564504
17 *747:17 *750:13 8.31186e-05
18 *747:25 *756:63 0.000430338
19 *747:25 *758:35 0
20 *747:25 *761:21 0.0222234
21 *747:25 *769:21 0.00367839
22 *747:25 *773:21 0.00435689
23 *984:IPCAP2[2] *984:IPCAP3[0] 6.26844e-05
24 *20:55 *747:25 0.000137886
25 *35:13 *747:13 0.006336
26 *38:17 *747:13 0.0344212
27 *666:19 *747:17 0.0509942
28 *668:21 *747:17 0.0510756
29 *739:17 *747:17 5.79315e-05
30 *742:37 *747:25 0.00145688
31 *743:33 *984:IPCAP3[0] 1.33572e-05
32 *744:21 *747:25 0.000669918
33 *746:13 *747:13 0.0695598
34 *746:21 *747:25 0.0229081
*RES
1 *988:analog_ctrl[169] *747:7 1.25321 
2 *747:7 *747:9 296.473 
3 *747:9 *747:11 15 
4 *747:11 *747:13 760.049 
5 *747:13 *747:15 15 
6 *747:15 *747:17 661.645 
7 *747:17 *747:19 8 
8 *747:19 *747:25 45.8005 
9 *747:25 *984:IPCAP3[0] 26.7596 
*END

*D_NET *748 0.425075
*CONN
*I *984:EN_ADWA I *D CF_ADC_DSM20
*I *988:analog_ctrl[16] O *D soc_sys
*CAP
1 *984:EN_ADWA 0.00137516
2 *988:analog_ctrl[16] 4.30001e-05
3 *748:25 0.0317482
4 *748:23 0.0303731
5 *748:21 0.023202
6 *748:19 0.0234927
7 *748:9 0.0208529
8 *748:7 0.0206053
9 *984:EN_ADWA *984:EN_DWA 0.000564339
10 *984:EN_ADWA *984:SCANCLK 0
11 *984:EN_ADWA *826:17 0
12 *984:EN_ADWA *829:33 0.000403072
13 *748:9 *828:13 0.000121302
14 *748:9 *829:13 0.00890174
15 *748:9 *866:13 0.00199876
16 *748:9 *867:13 0.00155165
17 *748:9 *868:9 0.00188571
18 *748:19 *828:23 0.000249204
19 *748:19 *829:23 0.000424986
20 *748:21 *824:17 0.0401317
21 *748:21 *828:25 0.0737079
22 *748:21 *829:25 2.48388e-05
23 *748:25 *749:29 0.000185548
24 *748:25 *828:29 0
25 *80:13 *748:25 0
26 *671:21 *748:9 0
27 *673:17 *748:21 0.00811761
28 *687:9 *748:19 0.000142426
29 *687:13 *748:21 0.00547856
30 *709:21 *748:25 0.015595
31 *711:33 *748:25 0.0201876
32 *712:21 *748:25 0.000255096
33 *716:45 *748:25 0.0771496
34 *727:21 *748:25 0.016306
35 *732:33 *748:25 0
*RES
1 *988:analog_ctrl[16] *748:7 15.8079 
2 *748:7 *748:9 512.906 
3 *748:9 *748:19 35.9892 
4 *748:19 *748:21 175.478 
5 *748:21 *748:23 8 
6 *748:23 *748:25 176.727 
7 *748:25 *984:EN_ADWA 49.8457 
*END

*D_NET *749 0.365734
*CONN
*I *984:IPCAP3[1] I *D CF_ADC_DSM20
*I *988:analog_ctrl[170] O *D soc_sys
*CAP
1 *984:IPCAP3[1] 0.00102576
2 *988:analog_ctrl[170] 5.6041e-05
3 *749:29 0.0152906
4 *749:27 0.0142648
5 *749:25 0.0141999
6 *749:23 0.0141999
7 *749:21 0.00450584
8 *749:13 0.0134703
9 *749:11 0.00896447
10 *749:9 0.013975
11 *749:7 0.014031
12 *984:IPCAP3[1] *984:SUMCAP2[0] 0.000309245
13 *984:IPCAP3[1] *984:SUMCAP1_EN 0.000287703
14 *984:IPCAP3[1] *984:SUMCAP1[1] 0.00070971
15 *984:IPCAP3[1] *766:39 0
16 *749:13 *817:13 0.0230833
17 *984:FCAP3[1] *984:IPCAP3[1] 0.000279116
18 *984:iinc *749:21 0
19 *984:iin *749:21 3.36755e-06
20 *984:iin *749:25 0.00043867
21 *984:itrim_2_3[2] *749:21 3.12727e-05
22 *80:13 *749:29 0.0359987
23 *655:30 *749:25 0.00539447
24 *656:61 *749:25 0.000190987
25 *656:65 *749:13 0
26 *670:31 *749:25 0.00361645
27 *674:25 *749:21 1.49333e-06
28 *674:25 *749:25 0.000364411
29 *695:17 *749:29 0.0200471
30 *697:13 *749:21 0.0121674
31 *698:17 *749:21 0.00450377
32 *711:33 *749:29 0.072458
33 *713:21 *749:29 0.0156283
34 *732:29 *749:25 0.00281336
35 *732:33 *749:29 2.56334e-05
36 *733:17 *749:25 0.03831
37 *737:13 *749:29 0.000480729
38 *743:21 *749:29 0.0135439
39 *743:33 *984:IPCAP3[1] 0
40 *744:13 *749:13 0.000877932
41 *748:25 *749:29 0.000185548
*RES
1 *988:analog_ctrl[170] *749:7 1.25321 
2 *749:7 *749:9 309.326 
3 *749:9 *749:11 8 
4 *749:11 *749:13 43.9768 
5 *749:13 *749:21 46.4267 
6 *749:21 *749:23 8 
7 *749:23 *749:25 90.9403 
8 *749:25 *749:27 8 
9 *749:27 *749:29 135.94 
10 *749:29 *984:IPCAP3[1] 44.2736 
*END

*D_NET *750 0.320756
*CONN
*I *984:IPCAP3[2] I *D CF_ADC_DSM20
*I *988:analog_ctrl[171] O *D soc_sys
*CAP
1 *984:IPCAP3[2] 0.000599564
2 *988:analog_ctrl[171] 4.47894e-05
3 *750:17 0.00395261
4 *750:15 0.00335304
5 *750:13 0.0336319
6 *750:11 0.0336319
7 *750:9 0.0231316
8 *750:7 0.0231764
9 *984:IPCAP3[2] *984:SUMCAP1[0] 0.000185169
10 *984:IPCAP3[2] *984:SUMCAP1[2] 9.48797e-05
11 *984:IPCAP3[2] *766:39 4.00014e-05
12 *750:9 *754:13 0.00106549
13 *750:9 *758:9 0.0645928
14 *750:9 *790:29 0.000209789
15 *750:13 *771:33 0
16 *750:13 *784:17 0
17 *750:13 *785:33 0.000940561
18 *750:13 *789:25 0
19 *750:13 *813:17 0
20 *750:17 *751:21 0.0217299
21 *750:17 *754:21 9.65392e-05
22 *750:17 *755:37 0.0037825
23 *750:17 *762:25 4.49877e-05
24 *750:17 *764:29 0.000320438
25 *750:17 *786:21 0.0225311
26 *984:IPCAP2[2] *984:IPCAP3[2] 0.000727451
27 *984:IPCAP2[1] *984:IPCAP3[2] 3.07109e-05
28 *984:FCAP3[3] *984:IPCAP3[2] 0.000664364
29 *984:FCAP3[1] *984:IPCAP3[2] 0.000145421
30 *20:39 *750:13 0.000312315
31 *658:15 *750:13 0
32 *666:19 *750:13 0.0509906
33 *668:21 *750:13 3.74743e-05
34 *719:21 *750:17 0.000543063
35 *740:9 *750:9 0.0300657
36 *747:17 *750:13 8.31186e-05
*RES
1 *988:analog_ctrl[171] *750:7 15.8079 
2 *750:7 *750:9 748.739 
3 *750:9 *750:11 15 
4 *750:11 *750:13 966.425 
5 *750:13 *750:15 15 
6 *750:15 *750:17 247.888 
7 *750:17 *984:IPCAP3[2] 45.4736 
*END

*D_NET *751 0.373847
*CONN
*I *984:IPCAP3EN I *D CF_ADC_DSM20
*I *988:analog_ctrl[172] O *D soc_sys
*CAP
1 *984:IPCAP3EN 0.000581367
2 *988:analog_ctrl[172] 6.6305e-05
3 *751:21 0.0038393
4 *751:19 0.00325793
5 *751:17 0.00865882
6 *751:15 0.00865882
7 *751:13 0.0134036
8 *751:11 0.0134036
9 *751:9 0.012797
10 *751:7 0.0128633
11 *984:IPCAP3EN *984:RESCAPEN 0.000302468
12 *984:IPCAP3EN *984:RESCAP[2] 0.000235802
13 *984:IPCAP3EN *984:RESCAP[0] 0.000422225
14 *984:IPCAP3EN *984:RESCAP[1] 2.81699e-05
15 *751:13 *761:13 0.065117
16 *751:13 *786:13 0.0526023
17 *751:13 *809:13 0.00805358
18 *751:17 *761:17 0.0531545
19 *751:17 *762:21 0.000318147
20 *751:17 *763:17 8.13209e-06
21 *751:17 *784:25 0
22 *751:17 *788:17 0.0530909
23 *751:17 *791:23 0.00100257
24 *751:17 *805:37 0.00552788
25 *751:21 *753:21 0.000181429
26 *751:21 *755:37 0.00333958
27 *751:21 *762:25 0.0231055
28 *751:21 *764:29 0.000515235
29 *984:IPCAP2EN *984:IPCAP3EN 0.000237012
30 *31:13 *751:13 0.00734499
31 *750:17 *751:21 0.0217299
*RES
1 *988:analog_ctrl[172] *751:7 1.25321 
2 *751:7 *751:9 280.627 
3 *751:9 *751:11 15 
4 *751:11 *751:13 759.096 
5 *751:13 *751:15 15 
6 *751:15 *751:17 686.119 
7 *751:17 *751:19 15 
8 *751:19 *751:21 248.364 
9 *751:21 *984:IPCAP3EN 43.4332 
*END

*D_NET *752 0.365054
*CONN
*I *984:DACCAP[0] I *D CF_ADC_DSM20
*I *988:analog_ctrl[173] O *D soc_sys
*CAP
1 *984:DACCAP[0] 0.000441342
2 *988:analog_ctrl[173] 6.45759e-05
3 *752:29 0.00456201
4 *752:27 0.00412067
5 *752:25 0.012815
6 *752:23 0.012815
7 *752:21 0.021144
8 *752:19 0.0215716
9 *752:9 0.0144136
10 *752:7 0.0140505
11 *984:DACCAP[0] *984:DACCAP[4] 2.51769e-05
12 *984:DACCAP[0] *984:DACCAP[3] 9.00178e-05
13 *984:DACCAP[0] *984:DACCAP[1] 0.000730714
14 *984:DACCAP[0] *984:DACCAP[2] 0.000657446
15 *752:19 *817:13 0.000364856
16 *752:21 *756:21 0
17 *752:21 *817:13 0.0341729
18 *752:25 *753:17 0.0495118
19 *752:29 *753:21 0.024434
20 *752:29 *772:21 0.00388659
21 *752:29 *774:21 0.00459725
22 *984:IPCAP1[3] *984:DACCAP[0] 0
23 *984:FCAP1[4] *984:DACCAP[0] 4.26663e-05
24 *70:33 *752:21 0.000267886
25 *649:14 *752:21 0.0527271
26 *656:65 *752:19 0
27 *657:14 *752:29 0.0245197
28 *659:18 *752:25 0.00468927
29 *665:27 *752:25 0.00988767
30 *741:17 *752:25 0.0484508
*RES
1 *988:analog_ctrl[173] *752:7 1.25321 
2 *752:7 *752:9 309.326 
3 *752:9 *752:19 25.1368 
4 *752:19 *752:21 134.008 
5 *752:21 *752:23 8 
6 *752:23 *752:25 117.723 
7 *752:25 *752:27 8 
8 *752:27 *752:29 45.0931 
9 *752:29 *984:DACCAP[0] 34.9211 
*END

*D_NET *753 0.392237
*CONN
*I *984:DACCAP[1] I *D CF_ADC_DSM20
*I *988:analog_ctrl[174] O *D soc_sys
*CAP
1 *984:DACCAP[1] 0.000488246
2 *988:analog_ctrl[174] 6.45759e-05
3 *753:21 0.00556916
4 *753:19 0.00508092
5 *753:17 0.0142524
6 *753:15 0.0142524
7 *753:13 0.017834
8 *753:11 0.017834
9 *753:9 0.0126827
10 *753:7 0.0127472
11 *984:DACCAP[1] *984:DACCAP[5] 7.11986e-06
12 *984:DACCAP[1] *984:DACCAP[2] 0.000124121
13 *984:DACCAP[1] *755:55 0.000226362
14 *984:DACCAP[1] *758:35 0.000211788
15 *753:13 *791:21 0.00907462
16 *753:13 *792:39 0.0112978
17 *753:13 *820:13 0.0255112
18 *753:13 *875:13 0.0719937
19 *753:21 *754:21 0.000144543
20 *753:21 *755:37 0.02201
21 *753:21 *760:25 0.000144543
22 *753:21 *762:25 0.00014805
23 *753:21 *764:29 0.00402822
24 *753:21 *789:29 0.00459725
25 *984:DACCAP[0] *984:DACCAP[1] 0.000730714
26 *984:IPCAP1[4] *984:DACCAP[1] 0
27 *647:13 *753:17 0.00732128
28 *648:13 *753:17 0.00851148
29 *657:14 *753:21 2.17681e-05
30 *715:45 *753:17 0.000334832
31 *740:13 *753:17 0.0503642
32 *741:17 *753:17 0.000500873
33 *751:21 *753:21 0.000181429
34 *752:25 *753:17 0.0495118
35 *752:29 *753:21 0.024434
*RES
1 *988:analog_ctrl[174] *753:7 1.25321 
2 *753:7 *753:9 283.972 
3 *753:9 *753:11 8 
4 *753:11 *753:13 133.536 
5 *753:13 *753:15 8 
6 *753:15 *753:17 122.801 
7 *753:17 *753:19 8 
8 *753:19 *753:21 45.0072 
9 *753:21 *984:DACCAP[1] 34.9107 
*END

*D_NET *754 0.334056
*CONN
*I *984:DACCAP[2] I *D CF_ADC_DSM20
*I *988:analog_ctrl[175] O *D soc_sys
*CAP
1 *984:DACCAP[2] 0.000635863
2 *988:analog_ctrl[175] 0.000106247
3 *754:21 0.00393862
4 *754:19 0.00330275
5 *754:17 0.0235517
6 *754:15 0.0235517
7 *754:13 0.0093294
8 *754:11 0.00943565
9 *984:DACCAP[2] *755:55 0
10 *754:13 *758:9 0.0657743
11 *754:13 *760:13 0.0652806
12 *754:13 *790:29 0.000921308
13 *754:17 *756:25 0.0255731
14 *754:17 *760:19 0
15 *754:17 *760:21 0.0259804
16 *754:17 *791:23 0.00457986
17 *754:17 *805:35 3.55049e-05
18 *754:21 *755:37 0.00260836
19 *754:21 *757:45 0.000392551
20 *754:21 *760:25 0.0228489
21 *754:21 *762:25 0.0230235
22 *984:DACCAP[0] *984:DACCAP[2] 0.000657446
23 *984:DACCAP[1] *984:DACCAP[2] 0.000124121
24 *984:IPCAP1[6] *984:DACCAP[2] 6.36938e-05
25 *984:IPCAP1[5] *984:DACCAP[2] 3.07193e-05
26 *984:IPCAP1[3] *984:DACCAP[2] 0.00034363
27 *984:FCAP1[4] *984:DACCAP[2] 1.30878e-05
28 *646:14 *754:17 0
29 *647:13 *754:17 0
30 *649:10 *754:17 0.00949856
31 *650:13 *754:17 4.7492e-05
32 *661:19 *754:17 0
33 *663:27 *754:17 0
34 *665:27 *754:17 0
35 *671:29 *754:13 0.000125621
36 *715:45 *754:17 0.00216074
37 *719:21 *754:21 0.000354149
38 *736:17 *754:21 9.79925e-05
39 *739:41 *984:DACCAP[2] 7.43244e-05
40 *740:9 *754:13 0.00828796
41 *750:9 *754:13 0.00106549
42 *750:17 *754:21 9.65392e-05
43 *753:21 *754:21 0.000144543
*RES
1 *988:analog_ctrl[175] *754:11 16.9264 
2 *754:11 *754:13 740.515 
3 *754:13 *754:15 15 
4 *754:15 *754:17 966.777 
5 *754:17 *754:19 15 
6 *754:19 *754:21 253.605 
7 *754:21 *984:DACCAP[2] 44.5 
*END

*D_NET *755 0.410678
*CONN
*I *984:DACCAP[3] I *D CF_ADC_DSM20
*I *988:analog_ctrl[176] O *D soc_sys
*CAP
1 *984:DACCAP[3] 2.22339e-05
2 *988:analog_ctrl[176] 0.000123102
3 *755:55 0.000673628
4 *755:37 0.00999366
5 *755:35 0.00934226
6 *755:33 0.0168641
7 *755:31 0.018177
8 *755:25 0.0100751
9 *755:23 0.0101311
10 *755:17 0.020002
11 *755:15 0.0186332
12 *755:13 0.0146558
13 *755:11 0.0147789
14 *984:DACCAP[3] *984:DACCAP[4] 9.1325e-05
15 *755:13 *760:13 0.0130832
16 *755:13 *762:13 0.00742909
17 *755:13 *764:15 0.00538426
18 *755:13 *771:17 0.000420761
19 *755:17 *771:25 0
20 *755:23 *770:43 0.00432817
21 *755:25 *757:25 0.0252928
22 *755:25 *877:17 0.00518095
23 *755:33 *984:RESET1 0
24 *755:33 *984:dig_test_sel[1] 0
25 *755:33 *756:47 0.0019627
26 *755:33 *756:51 0.000305731
27 *755:33 *756:59 0.000431639
28 *755:33 *757:41 0.00431345
29 *755:33 *780:17 0.00121183
30 *755:33 *785:49 0.00354815
31 *755:33 *786:17 0.000903003
32 *755:33 *793:17 0
33 *755:33 *798:17 0.00192602
34 *755:37 *757:45 0.00198275
35 *755:37 *760:25 0.00203086
36 *755:37 *762:25 0.00295425
37 *755:37 *786:21 0.00447708
38 *755:55 *984:DACCAP[5] 0.000200049
39 *755:55 *984:DACCAP[4] 5.64492e-05
40 *755:55 *758:35 0.000337115
41 *984:DACCAP[0] *984:DACCAP[3] 9.00178e-05
42 *984:DACCAP[1] *755:55 0.000226362
43 *984:DACCAP[2] *755:55 0
44 *984:IPCAP1[6] *755:55 3.36552e-05
45 *984:vgnde_vnb *755:33 0.000415466
46 *15:33 *755:33 0.000961898
47 *15:37 *755:33 0.000490203
48 *15:45 *755:33 0
49 *18:75 *755:33 0.000476498
50 *19:53 *755:33 0.00116564
51 *20:47 *755:33 0.000999756
52 *20:55 *755:55 5.30156e-05
53 *647:17 *755:13 0.050452
54 *652:13 *755:33 0.00038055
55 *653:15 *755:33 0.00318593
56 *653:21 *755:31 0.000267419
57 *654:13 *755:33 0.00038055
58 *655:57 *755:23 0.00432525
59 *657:14 *755:37 3.12959e-05
60 *667:19 *755:25 0
61 *671:29 *755:13 0.00495454
62 *704:17 *755:33 0.0124878
63 *720:37 *755:37 0
64 *740:9 *755:13 0.0662364
65 *750:17 *755:37 0.0037825
66 *751:21 *755:37 0.00333958
67 *753:21 *755:37 0.02201
68 *754:21 *755:37 0.00260836
*RES
1 *988:analog_ctrl[176] *755:11 10.1025 
2 *755:11 *755:13 122.888 
3 *755:13 *755:15 8 
4 *755:15 *755:17 57.4299 
5 *755:17 *755:23 24.3421 
6 *755:23 *755:25 321.299 
7 *755:25 *755:31 18.5032 
8 *755:31 *755:33 58.6992 
9 *755:33 *755:35 8 
10 *755:35 *755:37 42.2595 
11 *755:37 *755:55 35.7219 
12 *755:55 *984:DACCAP[3] 16.1289 
*END

*D_NET *756 0.331443
*CONN
*I *984:DACCAP[4] I *D CF_ADC_DSM20
*I *988:analog_ctrl[177] O *D soc_sys
*CAP
1 *984:DACCAP[4] 0.000122893
2 *988:analog_ctrl[177] 0.00045591
3 *756:79 0.000623329
4 *756:63 0.008304
5 *756:59 0.0086762
6 *756:57 0.000930349
7 *756:51 0.00099164
8 *756:49 0.000961148
9 *756:47 0.00243733
10 *756:45 0.00271316
11 *756:39 0.00121857
12 *756:31 0.00154625
13 *756:25 0.00435201
14 *756:23 0.00372127
15 *756:21 0.0218406
16 *756:19 0.0218406
17 *756:17 0.0174679
18 *756:15 0.0179238
19 *984:DACCAP[4] *984:DACCAP[5] 9.03121e-05
20 *756:17 *757:17 0
21 *756:21 *757:21 0.0709005
22 *756:21 *764:21 0.000305088
23 *756:31 *757:31 0.000589795
24 *756:31 *785:29 0.00117715
25 *756:39 *984:ODET_TH[4] 6.09861e-05
26 *756:39 *984:ODET_TH[2] 2.46906e-05
27 *756:39 *757:37 0.000300826
28 *756:39 *785:33 0.000214339
29 *756:39 *785:41 0
30 *756:39 *792:47 0
31 *756:39 *817:17 0.000259209
32 *756:45 *984:ODET_TH[2] 4.15283e-06
33 *756:45 *757:41 0.000661445
34 *756:47 *757:41 1.60583e-05
35 *756:47 *785:49 0.0139256
36 *756:51 *785:49 0.00245689
37 *756:63 *761:21 0.0211887
38 *756:63 *771:37 0.00229751
39 *756:63 *775:21 0.00195116
40 *756:63 *784:29 0.00158433
41 *756:79 *787:21 0.000315391
42 *756:79 *788:27 0.000139882
43 *984:FCAP2[0] *984:DACCAP[4] 3.47743e-05
44 *984:DACCAP[3] *984:DACCAP[4] 9.1325e-05
45 *984:DACCAP[0] *984:DACCAP[4] 2.51769e-05
46 *984:FCAP1[4] *984:DACCAP[4] 1.70724e-05
47 *984:FCAP1[4] *756:79 0.00049418
48 *984:FCAP1[6] *756:79 1.6318e-05
49 *984:FCAP1[2] *756:79 4.46233e-05
50 *984:vgnde_vnb *756:47 0.000935007
51 *984:enable_hv *756:47 2.44773e-05
52 *15:23 *756:45 0.000573347
53 *15:31 *756:45 2.34364e-05
54 *15:31 *756:47 0.00136409
55 *15:33 *756:47 0.00393507
56 *15:37 *756:47 0.00264507
57 *18:71 *756:63 0.00443702
58 *18:75 *756:59 0.00376517
59 *19:53 *756:47 0.000386267
60 *19:53 *756:51 0.0047592
61 *19:53 *756:59 0.00348436
62 *20:39 *756:39 0.00117842
63 *108:13 *756:15 1.21633e-05
64 *649:10 *756:25 0.0255731
65 *649:14 *756:21 0
66 *650:17 *756:21 0.00708458
67 *655:57 *756:21 8.36201e-05
68 *657:14 *756:63 0
69 *658:15 *756:39 0.0010317
70 *668:17 *756:63 0.00202848
71 *671:29 *756:15 2.64827e-05
72 *714:21 *756:63 3.62045e-05
73 *715:45 *756:25 0.00353896
74 *733:35 *756:79 0.000241565
75 *742:37 *756:63 0.000200604
76 *747:25 *756:63 0.000430338
77 *752:21 *756:21 0
78 *754:17 *756:25 0.0255731
79 *755:33 *756:47 0.0019627
80 *755:33 *756:51 0.000305731
81 *755:33 *756:59 0.000431639
82 *755:55 *984:DACCAP[4] 5.64492e-05
*RES
1 *988:analog_ctrl[177] *756:15 22.513 
2 *756:15 *756:17 56.1605 
3 *756:17 *756:19 8 
4 *756:19 *756:21 131.389 
5 *756:21 *756:23 8 
6 *756:23 *756:25 324.997 
7 *756:25 *756:31 44.4379 
8 *756:31 *756:39 43.71 
9 *756:39 *756:45 24.7461 
10 *756:45 *756:47 177.687 
11 *756:47 *756:49 0.621429 
12 *756:49 *756:51 60.8275 
13 *756:51 *756:57 31.2014 
14 *756:57 *756:59 48.9168 
15 *756:59 *756:63 48.7568 
16 *756:63 *756:79 49.5689 
17 *756:79 *984:DACCAP[4] 18.5214 
*END

*D_NET *757 0.35706
*CONN
*I *984:DACCAP[5] I *D CF_ADC_DSM20
*I *988:analog_ctrl[178] O *D soc_sys
*CAP
1 *984:DACCAP[5] 0.000749772
2 *988:analog_ctrl[178] 0.000436453
3 *757:45 0.00742908
4 *757:43 0.00667931
5 *757:41 0.00565633
6 *757:39 0.00565633
7 *757:37 0.000569889
8 *757:31 0.00120034
9 *757:25 0.00443597
10 *757:23 0.00380552
11 *757:21 0.00908368
12 *757:19 0.00908368
13 *757:17 0.017532
14 *757:15 0.0179685
15 *984:DACCAP[5] *984:DACCAPEN 5.88765e-05
16 *984:DACCAP[5] *758:35 4.48908e-05
17 *757:21 *764:21 0.0622957
18 *757:25 *877:17 0.00518095
19 *757:37 *984:ODET_TH[4] 0.000101436
20 *757:37 *984:ODET_TH[2] 9.41704e-05
21 *757:37 *804:17 0.000171752
22 *757:41 *780:17 0
23 *757:41 *785:49 0.0231186
24 *757:45 *759:13 0
25 *757:45 *760:25 0.0208477
26 *757:45 *785:53 0
27 *984:FCAP3[0] *984:DACCAP[5] 0
28 *984:FCAP2[2] *984:DACCAP[5] 8.98567e-06
29 *984:FCAP2[1] *984:DACCAP[5] 5.00681e-05
30 *984:FCAP2[0] *984:DACCAP[5] 0.000711258
31 *984:DACCAP[4] *984:DACCAP[5] 9.03121e-05
32 *984:DACCAP[1] *984:DACCAP[5] 7.11986e-06
33 *984:IPCAP1[6] *984:DACCAP[5] 0
34 *108:13 *757:15 4.59554e-06
35 *651:10 *757:41 0.000272211
36 *652:13 *757:37 0.00157373
37 *653:15 *757:41 0.0161679
38 *654:13 *757:37 0.00157595
39 *655:57 *757:21 0.00251007
40 *660:14 *757:25 0.0255334
41 *667:19 *757:25 0
42 *671:29 *757:15 1.2632e-05
43 *721:21 *757:45 0.00127932
44 *736:17 *757:45 0.00041079
45 *743:33 *984:DACCAP[5] 0
46 *754:21 *757:45 0.000392551
47 *755:25 *757:25 0.0252928
48 *755:33 *757:41 0.00431345
49 *755:37 *757:45 0.00198275
50 *755:55 *984:DACCAP[5] 0.000200049
51 *756:17 *757:17 0
52 *756:21 *757:21 0.0709005
53 *756:31 *757:31 0.000589795
54 *756:39 *757:37 0.000300826
55 *756:45 *757:41 0.000661445
56 *756:47 *757:41 1.60583e-05
*RES
1 *988:analog_ctrl[178] *757:15 22.4271 
2 *757:15 *757:17 56.2875 
3 *757:17 *757:19 8 
4 *757:19 *757:21 129.157 
5 *757:21 *757:23 8 
6 *757:23 *757:25 324.645 
7 *757:25 *757:31 40.15 
8 *757:31 *757:37 39.4014 
9 *757:37 *757:39 15 
10 *757:39 *757:41 305.805 
11 *757:41 *757:43 15 
12 *757:43 *757:45 235.501 
13 *757:45 *984:DACCAP[5] 45.66 
*END

*D_NET *758 0.333771
*CONN
*I *984:DACCAPEN I *D CF_ADC_DSM20
*I *988:analog_ctrl[179] O *D soc_sys
*CAP
1 *984:DACCAPEN 1.31929e-05
2 *988:analog_ctrl[179] 7.70677e-05
3 *758:35 0.000431959
4 *758:17 0.00478559
5 *758:15 0.00436682
6 *758:13 0.0311291
7 *758:11 0.0311291
8 *758:9 0.00990857
9 *758:7 0.00998564
10 *758:9 *760:13 9.90162e-05
11 *758:9 *762:13 1.76557e-05
12 *758:9 *790:29 0.000347583
13 *758:13 *764:25 0
14 *758:13 *770:47 0.00305092
15 *758:13 *775:17 0
16 *758:13 *809:17 0
17 *758:13 *872:25 0.000580134
18 *758:17 *761:21 0.00451712
19 *758:17 *763:21 0.0227873
20 *758:17 *767:21 0.000242093
21 *758:17 *769:21 0.024085
22 *758:17 *775:21 0
23 *758:17 *784:29 0
24 *984:FCAP3[0] *758:35 0
25 *984:FCAP2[0] *984:DACCAPEN 6.57155e-05
26 *984:DACCAP[5] *984:DACCAPEN 5.88765e-05
27 *984:DACCAP[5] *758:35 4.48908e-05
28 *984:DACCAP[1] *758:35 0.000211788
29 *18:71 *758:17 0.000201174
30 *20:15 *758:13 0.0292305
31 *20:55 *758:35 9.79696e-05
32 *669:15 *758:13 0.0105102
33 *718:31 *758:17 0.000382849
34 *740:9 *758:9 0.0145187
35 *744:21 *758:35 0.000190086
36 *747:25 *758:35 0
37 *750:9 *758:9 0.0645928
38 *754:13 *758:9 0.0657743
39 *755:55 *758:35 0.000337115
*RES
1 *988:analog_ctrl[179] *758:7 16.16 
2 *758:7 *758:9 741.116 
3 *758:9 *758:11 15 
4 *758:11 *758:13 958.678 
5 *758:13 *758:15 15 
6 *758:15 *758:17 276.474 
7 *758:17 *758:35 35.6078 
8 *758:35 *984:DACCAPEN 15.7768 
*END

*D_NET *759 0.292207
*CONN
*I *984:EN_DWA I *D CF_ADC_DSM20
*I *988:analog_ctrl[17] O *D soc_sys
*CAP
1 *984:EN_DWA 0.00106063
2 *988:analog_ctrl[17] 5.88171e-05
3 *759:13 0.0484259
4 *759:11 0.0473653
5 *759:9 0.0420761
6 *759:7 0.0421349
7 *984:EN_DWA *984:SCANEN 8.55672e-05
8 *759:13 *785:53 0.0186138
9 *759:13 *796:13 0.0648129
10 *984:EN_ADWA *984:EN_DWA 0.000564339
11 *72:24 *759:9 0.0266097
12 *662:11 *984:EN_DWA 5.8162e-05
13 *720:37 *759:13 0.000340503
14 *721:21 *759:13 0
15 *737:13 *759:13 0
16 *757:45 *759:13 0
*RES
1 *988:analog_ctrl[17] *759:7 1.25321 
2 *759:7 *759:9 970.475 
3 *759:9 *759:11 15 
4 *759:11 *759:13 1488.98 
5 *759:13 *984:EN_DWA 48.9329 
*END

*D_NET *760 0.360684
*CONN
*I *984:RESCAP[0] I *D CF_ADC_DSM20
*I *988:analog_ctrl[180] O *D soc_sys
*CAP
1 *984:RESCAP[0] 0.000693601
2 *988:analog_ctrl[180] 0.000150213
3 *760:25 0.00415164
4 *760:23 0.00345803
5 *760:21 0.0163675
6 *760:19 0.0165187
7 *760:13 0.00899225
8 *760:11 0.00899131
9 *984:RESCAP[0] *984:RESCAP[1] 0.000135058
10 *984:RESCAP[0] *787:21 5.91622e-05
11 *760:13 *762:13 0.0645026
12 *760:13 *790:29 0.000535675
13 *760:19 *762:19 0.000237766
14 *760:19 *805:35 0.000103868
15 *760:21 *762:19 0.00176426
16 *760:21 *762:21 0.0719881
17 *760:21 *791:23 0.00685778
18 *760:21 *805:37 0.00252964
19 *760:25 *762:25 7.032e-05
20 *984:IPCAP1OFFSET *984:RESCAP[0] 0.000141956
21 *984:IPCAP3EN *984:RESCAP[0] 0.000422225
22 *984:IPCAP2EN *984:RESCAP[0] 4.30894e-05
23 *647:17 *760:13 0.000889233
24 *727:25 *984:RESCAP[0] 0.000764619
25 *753:21 *760:25 0.000144543
26 *754:13 *760:13 0.0652806
27 *754:17 *760:19 0
28 *754:17 *760:21 0.0259804
29 *754:21 *760:25 0.0228489
30 *755:13 *760:13 0.0130832
31 *755:37 *760:25 0.00203086
32 *757:45 *760:25 0.0208477
33 *758:9 *760:13 9.90162e-05
*RES
1 *988:analog_ctrl[180] *760:11 17.2786 
2 *760:11 *760:13 716.217 
3 *760:13 *760:19 19.1118 
4 *760:19 *760:21 963.432 
5 *760:21 *760:23 15 
6 *760:23 *760:25 245.982 
7 *760:25 *984:RESCAP[0] 46.1675 
*END

*D_NET *761 0.378953
*CONN
*I *984:RESCAP[1] I *D CF_ADC_DSM20
*I *988:analog_ctrl[181] O *D soc_sys
*CAP
1 *984:RESCAP[1] 0.000524319
2 *988:analog_ctrl[181] 6.56056e-05
3 *761:21 0.00534033
4 *761:19 0.00481601
5 *761:17 0.00828755
6 *761:15 0.00828755
7 *761:13 0.00889672
8 *761:11 0.00889672
9 *761:9 0.0125491
10 *761:7 0.0126147
11 *984:RESCAP[1] *787:21 0.000325796
12 *761:13 *763:13 0.000539878
13 *761:13 *765:13 0.0632396
14 *761:13 *809:13 0.0069506
15 *761:17 *763:17 9.30983e-05
16 *761:17 *787:17 0.0528882
17 *761:17 *791:23 0.00091062
18 *761:17 *805:37 0.00482037
19 *761:21 *763:21 0.00382435
20 *761:21 *769:21 0.000160236
21 *761:21 *771:37 0.00108972
22 *761:21 *773:21 0.000138791
23 *984:RESCAP[0] *984:RESCAP[1] 0.000135058
24 *984:IPCAP3EN *984:RESCAP[1] 2.81699e-05
25 *984:IPCAP2EN *984:RESCAP[1] 6.09486e-05
26 *984:IPCAP1EN *984:RESCAP[1] 0.000122947
27 *984:FCAP2EN *984:RESCAP[1] 9.47732e-05
28 *984:FCAP1EN *984:RESCAP[1] 0
29 *984:FCAP1OFFSET *984:RESCAP[1] 7.15126e-05
30 *31:13 *761:13 0.00623189
31 *657:14 *761:21 0
32 *746:21 *761:21 0.000746909
33 *747:25 *761:21 0.0222234
34 *751:13 *761:13 0.065117
35 *751:17 *761:17 0.0531545
36 *756:63 *761:21 0.0211887
37 *758:17 *761:21 0.00451712
*RES
1 *988:analog_ctrl[181] *761:7 1.25321 
2 *761:7 *761:9 280.979 
3 *761:9 *761:11 15 
4 *761:11 *761:13 712.406 
5 *761:13 *761:15 15 
6 *761:15 *761:17 677.844 
7 *761:17 *761:19 8 
8 *761:19 *761:21 43.5045 
9 *761:21 *984:RESCAP[1] 35.2421 
*END

*D_NET *762 0.381924
*CONN
*I *984:RESCAP[2] I *D CF_ADC_DSM20
*I *988:analog_ctrl[182] O *D soc_sys
*CAP
1 *984:RESCAP[2] 0.00063769
2 *988:analog_ctrl[182] 0.000177213
3 *762:25 0.00379589
4 *762:23 0.0031582
5 *762:21 0.0148948
6 *762:19 0.0164371
7 *762:15 0.00154231
8 *762:13 0.00868696
9 *762:11 0.00886417
10 *984:RESCAP[2] *984:RESCAPEN 0.000380132
11 *762:13 *790:29 0.0645453
12 *762:19 *805:37 0.00043944
13 *762:21 *788:17 0.0539844
14 *762:21 *791:23 0.00685778
15 *984:FCAP1[2] *984:RESCAP[2] 5.32959e-06
16 *984:FCAP1[0] *984:RESCAP[2] 4.36494e-05
17 *984:IPCAP1OFFSET *984:RESCAP[2] 0.000129602
18 *984:IPCAP3EN *984:RESCAP[2] 0.000235802
19 *647:17 *762:13 0.00102663
20 *713:29 *984:RESCAP[2] 0.000263509
21 *742:37 *984:RESCAP[2] 0.000214207
22 *750:17 *762:25 4.49877e-05
23 *751:17 *762:21 0.000318147
24 *751:21 *762:25 0.0231055
25 *753:21 *762:25 0.00014805
26 *754:21 *762:25 0.0230235
27 *755:13 *762:13 0.00742909
28 *755:37 *762:25 0.00295425
29 *758:9 *762:13 1.76557e-05
30 *760:13 *762:13 0.0645026
31 *760:19 *762:19 0.000237766
32 *760:21 *762:19 0.00176426
33 *760:21 *762:21 0.0719881
34 *760:25 *762:25 7.032e-05
*RES
1 *988:analog_ctrl[182] *762:11 17.6307 
2 *762:11 *762:13 706.212 
3 *762:13 *762:15 15 
4 *762:15 *762:19 47.8604 
5 *762:19 *762:21 918.627 
6 *762:21 *762:23 15 
7 *762:23 *762:25 248.364 
8 *762:25 *984:RESCAP[2] 44.5621 
*END

*D_NET *763 0.365474
*CONN
*I *984:RESCAPEN I *D CF_ADC_DSM20
*I *988:analog_ctrl[183] O *D soc_sys
*CAP
1 *984:RESCAPEN 0.000377906
2 *988:analog_ctrl[183] 6.73347e-05
3 *763:21 0.00383073
4 *763:19 0.00345283
5 *763:17 0.00840848
6 *763:15 0.00840848
7 *763:13 0.00895287
8 *763:11 0.00895287
9 *763:9 0.012927
10 *763:7 0.0129943
11 *763:13 *765:13 0.0633257
12 *763:13 *767:13 0.0623615
13 *763:13 *809:13 0.0111392
14 *763:17 *772:17 0
15 *763:17 *784:25 0
16 *763:17 *787:17 0.0528882
17 *763:17 *810:17 0.00609453
18 *763:17 *818:17 0.000334447
19 *763:21 *771:37 0.000274671
20 *763:21 *784:29 0.000146741
21 *984:FCAP1[0] *984:RESCAPEN 6.09486e-05
22 *984:RESCAP[2] *984:RESCAPEN 0.000380132
23 *984:IPCAP3EN *984:RESCAPEN 0.000302468
24 *984:IPCAP2EN *984:RESCAPEN 2.31765e-05
25 *18:71 *763:21 0.0203812
26 *668:17 *763:21 0.000179826
27 *746:17 *763:17 0.0519558
28 *751:17 *763:17 8.13209e-06
29 *758:17 *763:21 0.0227873
30 *761:13 *763:13 0.000539878
31 *761:17 *763:17 9.30983e-05
32 *761:21 *763:21 0.00382435
*RES
1 *988:analog_ctrl[183] *763:7 1.25321 
2 *763:7 *763:9 281.683 
3 *763:9 *763:11 15 
4 *763:11 *763:13 702.877 
5 *763:13 *763:15 15 
6 *763:15 *763:17 677.668 
7 *763:17 *763:19 15 
8 *763:19 *763:21 250.27 
9 *763:21 *984:RESCAPEN 37.3432 
*END

*D_NET *764 0.374116
*CONN
*I *984:SUMCAP1[0] I *D CF_ADC_DSM20
*I *988:analog_ctrl[184] O *D soc_sys
*CAP
1 *984:SUMCAP1[0] 0.000264469
2 *988:analog_ctrl[184] 0.00181167
3 *764:37 0.000991405
4 *764:29 0.00486338
5 *764:27 0.00413645
6 *764:25 0.0121484
7 *764:23 0.0121484
8 *764:21 0.00997115
9 *764:19 0.00997115
10 *764:17 0.0205026
11 *764:15 0.0223143
12 *984:SUMCAP1[0] *984:SUMCAP1_EN 1.60583e-05
13 *984:SUMCAP1[0] *984:SUMCAP1[1] 0.000179768
14 *984:SUMCAP1[0] *766:39 0.000355436
15 *764:15 *790:29 0.00100139
16 *764:17 *776:9 0.0036248
17 *764:21 *770:43 0.0530059
18 *764:25 *765:17 0.000235334
19 *764:25 *767:17 0.0503979
20 *764:25 *768:17 0
21 *764:25 *770:47 0.00476997
22 *764:25 *809:17 0.0276757
23 *764:29 *765:21 5.63102e-05
24 *764:29 *772:21 0.000849579
25 *764:29 *774:21 1.21972e-05
26 *764:29 *776:21 3.78103e-05
27 *764:29 *786:21 0.0214491
28 *764:29 *789:29 0.0224675
29 *764:37 *771:37 0.000476082
30 *764:37 *784:29 0.0012168
31 *764:37 *788:27 0.000107508
32 *984:IPCAP3[2] *984:SUMCAP1[0] 0.000185169
33 *984:IPCAP3[0] *984:SUMCAP1[0] 2.11157e-05
34 *984:FCAP3[1] *984:SUMCAP1[0] 0.000339627
35 *984:FCAP1[4] *984:SUMCAP1[0] 4.03402e-06
36 *14:35 *764:29 0
37 *40:17 *764:25 0.00265007
38 *655:57 *764:21 0.00431618
39 *671:29 *764:15 0.00537833
40 *693:39 *764:15 0.000603306
41 *713:29 *764:37 6.11817e-05
42 *730:21 *764:37 0.000298503
43 *733:35 *764:37 0.000351393
44 *750:17 *764:29 0.000320438
45 *751:21 *764:29 0.000515235
46 *753:21 *764:29 0.00402822
47 *755:13 *764:15 0.00538426
48 *756:21 *764:21 0.000305088
49 *757:21 *764:21 0.0622957
50 *758:13 *764:25 0
*RES
1 *988:analog_ctrl[184] *764:15 28.8663 
2 *764:15 *764:17 57.0491 
3 *764:17 *764:19 8 
4 *764:19 *764:21 118.337 
5 *764:21 *764:23 8 
6 *764:23 *764:25 647.912 
7 *764:25 *764:27 15 
8 *764:27 *764:29 267.421 
9 *764:29 *764:37 49.0364 
10 *764:37 *984:SUMCAP1[0] 38.12 
*END

*D_NET *765 0.380872
*CONN
*I *984:SUMCAP1[1] I *D CF_ADC_DSM20
*I *988:analog_ctrl[185] O *D soc_sys
*CAP
1 *984:SUMCAP1[1] 0.000377749
2 *988:analog_ctrl[185] 6.56056e-05
3 *765:21 0.00435467
4 *765:19 0.00397692
5 *765:17 0.0080147
6 *765:15 0.0080147
7 *765:13 0.00898876
8 *765:11 0.00898876
9 *765:9 0.0126002
10 *765:7 0.0126658
11 *984:SUMCAP1[1] *984:SUMCAP2[1] 6.54439e-06
12 *984:SUMCAP1[1] *984:SUMCAP2[0] 0.000593752
13 *765:13 *767:13 0.000658201
14 *765:13 *809:13 0.0138416
15 *765:17 *767:17 0.0531444
16 *765:17 *768:17 9.12686e-05
17 *765:17 *770:47 0.000188249
18 *765:17 *775:17 0.0534626
19 *765:17 *794:49 0.00485789
20 *765:17 *809:17 1.523e-05
21 *765:21 *776:21 0.0250498
22 *984:SUMCAP1[0] *984:SUMCAP1[1] 0.000179768
23 *984:IPCAP3[1] *984:SUMCAP1[1] 0.00070971
24 *984:FCAP1[4] *984:SUMCAP1[1] 1.52591e-05
25 *14:35 *765:21 0.0256448
26 *40:17 *765:17 0.00264039
27 *657:14 *765:21 0.00486764
28 *761:13 *765:13 0.0632396
29 *763:13 *765:13 0.0633257
30 *764:25 *765:17 0.000235334
31 *764:29 *765:21 5.63102e-05
*RES
1 *988:analog_ctrl[185] *765:7 1.25321 
2 *765:7 *765:9 281.331 
3 *765:9 *765:11 15 
4 *765:11 *765:13 705.736 
5 *765:13 *765:15 15 
6 *765:15 *765:17 682.598 
7 *765:17 *765:19 15 
8 *765:19 *765:21 282.191 
9 *765:21 *984:SUMCAP1[1] 41.3307 
*END

*D_NET *766 0.36107
*CONN
*I *984:SUMCAP1[2] I *D CF_ADC_DSM20
*I *988:analog_ctrl[186] O *D soc_sys
*CAP
1 *984:SUMCAP1[2] 2.28311e-05
2 *988:analog_ctrl[186] 0.000434889
3 *766:39 0.000938553
4 *766:29 0.00485599
5 *766:27 0.00394027
6 *766:25 0.0193972
7 *766:23 0.0193972
8 *766:21 0.0109162
9 *766:19 0.0109162
10 *766:17 0.0151392
11 *766:15 0.0235678
12 *766:11 0.00886351
13 *766:15 *771:17 0.00387773
14 *766:15 *792:31 0.000373014
15 *766:15 *794:39 0.000299911
16 *766:15 *808:25 0.000722791
17 *766:21 *772:13 0.00109988
18 *766:21 *815:13 0
19 *766:21 *877:13 0.0447044
20 *766:25 *768:17 0.0542773
21 *766:25 *775:17 0.000560119
22 *766:25 *779:17 0
23 *766:25 *783:29 0
24 *766:25 *790:41 0.00574757
25 *766:25 *794:57 0.00218065
26 *766:25 *808:29 0
27 *766:25 *820:17 0
28 *766:29 *768:21 0.0254535
29 *766:29 *780:21 0.0221763
30 *984:SUMCAP1[0] *766:39 0.000355436
31 *984:IPCAP3[1] *766:39 0
32 *984:IPCAP3[2] *984:SUMCAP1[2] 9.48797e-05
33 *984:IPCAP3[2] *766:39 4.00014e-05
34 *984:IPCAP3[0] *984:SUMCAP1[2] 6.26844e-05
35 *984:IPCAP3[0] *766:39 2.2177e-05
36 *984:IPCAP2[2] *984:SUMCAP1[2] 8.71806e-06
37 *984:IPCAP2[2] *766:39 3.84098e-05
38 *984:FCAP3[1] *766:39 0.000184699
39 *988:adc_dout[6] *766:15 0.00272422
40 *40:17 *766:25 0.00372416
41 *40:21 *766:21 0.0375807
42 *108:13 *766:15 0.00366938
43 *111:37 *766:21 0.0132706
44 *112:21 *766:21 0.00115129
45 *646:18 *766:15 0.00415381
46 *648:17 *766:15 2.12729e-05
47 *653:27 *766:15 0.000146544
48 *668:29 *766:17 0.00548569
49 *671:29 *766:15 0.00054008
50 *671:37 *766:15 0.00216313
51 *693:39 *766:15 0.00449464
52 *743:33 *766:39 0.00127464
*RES
1 *988:analog_ctrl[186] *766:11 14.3282 
2 *766:11 *766:15 46.9107 
3 *766:15 *766:17 47.0213 
4 *766:17 *766:19 8 
5 *766:19 *766:21 87.1677 
6 *766:21 *766:23 8 
7 *766:23 *766:25 707.776 
8 *766:25 *766:27 15 
9 *766:27 *766:29 278.379 
10 *766:29 *766:39 49.3886 
11 *766:39 *984:SUMCAP1[2] 1.12893 
*END

*D_NET *767 0.374987
*CONN
*I *984:SUMCAP1_EN I *D CF_ADC_DSM20
*I *988:analog_ctrl[187] O *D soc_sys
*CAP
1 *984:SUMCAP1_EN 0.000248916
2 *988:analog_ctrl[187] 6.73347e-05
3 *767:21 0.00481318
4 *767:19 0.00456426
5 *767:17 0.00796392
6 *767:15 0.00796392
7 *767:13 0.00876257
8 *767:11 0.00876257
9 *767:9 0.0129872
10 *767:7 0.0130545
11 *984:SUMCAP1_EN *984:SUMCAP2[0] 6.46487e-05
12 *767:13 *768:13 0.0630082
13 *767:13 *792:39 0
14 *767:13 *803:13 0.0132808
15 *767:13 *872:21 0.000130115
16 *767:17 *770:47 0.00547007
17 *767:17 *809:17 0.00138748
18 *767:21 *769:21 2.02872e-05
19 *767:21 *773:21 0.0247814
20 *767:21 *787:21 0.000439317
21 *767:21 *787:29 0.000588138
22 *767:21 *788:21 0.0228167
23 *984:SUMCAP1[0] *984:SUMCAP1_EN 1.60583e-05
24 *984:IPCAP3[1] *984:SUMCAP1_EN 0.000287703
25 *984:IPCAP3[0] *984:SUMCAP1_EN 0.000132155
26 *984:FCAP3[1] *984:SUMCAP1_EN 0.000114074
27 *40:17 *767:17 0.00264039
28 *746:21 *767:21 0.00381718
29 *758:17 *767:21 0.000242093
30 *763:13 *767:13 0.0623615
31 *764:25 *767:17 0.0503979
32 *765:13 *767:13 0.000658201
33 *765:17 *767:17 0.0531444
*RES
1 *988:analog_ctrl[187] *767:7 1.25321 
2 *767:7 *767:9 282.035 
3 *767:9 *767:11 15 
4 *767:11 *767:13 695.731 
5 *767:13 *767:15 15 
6 *767:15 *767:17 675.907 
7 *767:17 *767:19 15 
8 *767:19 *767:21 281.714 
9 *767:21 *984:SUMCAP1_EN 35.6757 
*END

*D_NET *768 0.370882
*CONN
*I *984:SUMCAP2[0] I *D CF_ADC_DSM20
*I *988:analog_ctrl[188] O *D soc_sys
*CAP
1 *984:SUMCAP2[0] 0.000948834
2 *988:analog_ctrl[188] 6.56056e-05
3 *768:21 0.00444995
4 *768:19 0.00350111
5 *768:17 0.00824678
6 *768:15 0.00824678
7 *768:13 0.00920428
8 *768:11 0.00920428
9 *768:9 0.0127043
10 *768:7 0.0127699
11 *984:SUMCAP2[0] *984:SUMCAP2_EN 9.15437e-05
12 *984:SUMCAP2[0] *984:SUMCAP2[2] 7.21379e-05
13 *984:SUMCAP2[0] *984:SUMCAP2[1] 0.00033853
14 *768:13 *776:13 0.0591261
15 *768:13 *792:39 5.22017e-05
16 *768:13 *803:13 0.00997674
17 *768:13 *872:21 0.00091142
18 *768:17 *775:17 0.0533845
19 *768:17 *790:41 0.00501195
20 *768:21 *778:21 0.0251855
21 *768:21 *779:21 6.9805e-05
22 *768:21 *780:21 0.000139547
23 *768:21 *783:33 1.90678e-05
24 *984:SUMCAP1_EN *984:SUMCAP2[0] 6.46487e-05
25 *984:SUMCAP1[1] *984:SUMCAP2[0] 0.000593752
26 *984:IPCAP3[1] *984:SUMCAP2[0] 0.000309245
27 *40:17 *768:17 0.00336293
28 *764:25 *768:17 0
29 *765:17 *768:17 9.12686e-05
30 *766:25 *768:17 0.0542773
31 *766:29 *768:21 0.0254535
32 *767:13 *768:13 0.0630082
*RES
1 *988:analog_ctrl[188] *768:7 1.25321 
2 *768:7 *768:9 282.388 
3 *768:9 *768:11 15 
4 *768:11 *768:13 689.061 
5 *768:13 *768:15 15 
6 *768:15 *768:17 690.697 
7 *768:17 *768:19 15 
8 *768:19 *768:21 281.714 
9 *768:21 *984:SUMCAP2[0] 49.8339 
*END

*D_NET *769 0.355769
*CONN
*I *984:SUMCAP2[1] I *D CF_ADC_DSM20
*I *988:analog_ctrl[189] O *D soc_sys
*CAP
1 *984:SUMCAP2[1] 0.000144934
2 *988:analog_ctrl[189] 6.56056e-05
3 *769:21 0.00418852
4 *769:19 0.00404358
5 *769:17 0.0104981
6 *769:15 0.0104981
7 *769:13 0.0138619
8 *769:11 0.0138619
9 *769:9 0.0119107
10 *769:7 0.0119763
11 *984:SUMCAP2[1] *984:SUMCAP3_EN 2.16955e-06
12 *984:SUMCAP2[1] *984:SUMCAP2_EN 2.73729e-05
13 *984:SUMCAP2[1] *984:SUMCAP2[2] 0.000283722
14 *769:13 *772:13 0.0608266
15 *769:13 *877:13 0.0186017
16 *769:17 *772:17 8.49387e-06
17 *769:17 *773:17 0.0535717
18 *769:17 *774:17 1.03972e-05
19 *769:17 *776:17 8.30566e-06
20 *769:17 *778:17 0.0524367
21 *769:17 *808:29 0
22 *769:21 *773:21 0.0249475
23 *984:SUMCAP2[0] *984:SUMCAP2[1] 0.00033853
24 *984:SUMCAP1[1] *984:SUMCAP2[1] 6.54439e-06
25 *984:FCAP1[4] *984:SUMCAP2[1] 1.78812e-06
26 *111:37 *769:13 0.0350503
27 *112:21 *769:13 0.000118441
28 *113:37 *769:13 7.12002e-05
29 *718:31 *769:21 0.000464152
30 *747:25 *769:21 0.00367839
31 *758:17 *769:21 0.024085
32 *761:21 *769:21 0.000160236
33 *767:21 *769:21 2.02872e-05
*RES
1 *988:analog_ctrl[189] *769:7 1.25321 
2 *769:7 *769:9 266.541 
3 *769:9 *769:11 15 
4 *769:11 *769:13 677.15 
5 *769:13 *769:15 15 
6 *769:15 *769:17 692.106 
7 *769:17 *769:19 15 
8 *769:19 *769:21 275.521 
9 *769:21 *984:SUMCAP2[1] 35.51 
*END

*D_NET *770 0.432842
*CONN
*I *984:MODINPUT I *D CF_ADC_DSM20
*I *988:analog_ctrl[18] O *D soc_sys
*CAP
1 *984:MODINPUT 0.00226553
2 *988:analog_ctrl[18] 0.000209317
3 *770:47 0.0144478
4 *770:45 0.0121823
5 *770:43 0.00913641
6 *770:41 0.00913641
7 *770:39 0.0190011
8 *770:37 0.0191677
9 *770:27 0.0079616
10 *770:25 0.00817138
11 *770:15 0.019837
12 *770:13 0.0196699
13 *984:MODINPUT *984:MODBIT 0.00305749
14 *984:MODINPUT *984:SIGN 0.00348622
15 *984:MODINPUT *984:itrim_comp[3] 7.69701e-05
16 *984:MODINPUT *984:BUF_CHOP_EN 0
17 *984:MODINPUT *984:BUF_FCHOP[1] 4.89546e-05
18 *770:15 *790:15 0.00020375
19 *770:15 *790:27 4.415e-05
20 *770:15 *791:11 0.000141005
21 *770:15 *792:13 1.13061e-05
22 *770:15 *792:15 0.0467547
23 *770:25 *790:27 0.000679692
24 *770:27 *771:17 0.000312219
25 *770:27 *792:31 0.000168578
26 *770:27 *794:29 0.0414703
27 *770:27 *805:23 0.000156142
28 *770:27 *805:25 0.0450317
29 *770:27 *808:25 0
30 *770:47 *790:41 0.000656046
31 *770:47 *792:43 0.00372213
32 *770:47 *794:49 0.0245958
33 *770:47 *809:17 0.00409798
34 *770:47 *872:25 0.0029758
35 *770:47 *875:17 0.00305092
36 *988:adc_dout[6] *770:37 0.000608876
37 *20:15 *770:47 0.0029758
38 *49:21 *770:15 0
39 *51:17 *770:15 0.000356479
40 *655:57 *770:43 0.0264114
41 *658:13 *984:MODINPUT 0.000112596
42 *659:22 *770:37 0.000614805
43 *660:22 *770:39 0.00453962
44 *669:13 *984:MODINPUT 9.48831e-05
45 *671:13 *770:13 1.2632e-05
46 *671:13 *770:15 0
47 *671:29 *770:27 0.00251572
48 *688:11 *770:15 4.52243e-05
49 *691:9 *770:25 0.000203536
50 *693:39 *770:37 0.000126443
51 *711:25 *770:27 0.000138791
52 *715:33 *770:27 0.000894185
53 *723:31 *770:25 0.000249516
54 *728:17 *770:27 0.000170252
55 *728:31 *770:25 2.9813e-05
56 *755:23 *770:43 0.00432817
57 *758:13 *770:47 0.00305092
58 *764:21 *770:43 0.0530059
59 *764:25 *770:47 0.00476997
60 *765:17 *770:47 0.000188249
61 *767:17 *770:47 0.00547007
*RES
1 *988:analog_ctrl[18] *770:13 9.66201 
2 *770:13 *770:15 93.4789 
3 *770:15 *770:25 27.2253 
4 *770:25 *770:27 511.353 
5 *770:27 *770:37 33.1547 
6 *770:37 *770:39 56.7952 
7 *770:39 *770:41 8 
8 *770:41 *770:43 97.2571 
9 *770:43 *770:45 8 
10 *770:45 *770:47 60.984 
11 *770:47 *984:MODINPUT 25.5726 
*END

*D_NET *771 0.279276
*CONN
*I *984:SUMCAP2[2] I *D CF_ADC_DSM20
*I *988:analog_ctrl[190] O *D soc_sys
*CAP
1 *984:SUMCAP2[2] 0.000259257
2 *988:analog_ctrl[190] 0.00471187
3 *771:37 0.00425438
4 *771:35 0.00399512
5 *771:33 0.0134909
6 *771:31 0.0143439
7 *771:25 0.0193783
8 *771:23 0.0185253
9 *771:21 0.0272189
10 *771:19 0.0272189
11 *771:17 0.00471187
12 *984:SUMCAP2[2] *984:SUMCAP3[2] 1.01003e-05
13 *984:SUMCAP2[2] *984:SUMCAP2_EN 0.000441196
14 *771:17 *794:29 0.00140195
15 *771:17 *794:39 0.000570943
16 *771:17 *805:25 0.000182169
17 *771:25 *783:27 2.48388e-05
18 *771:25 *785:23 0.00388641
19 *771:31 *783:27 0.00261596
20 *771:31 *785:23 0.00271062
21 *771:33 *786:17 0
22 *771:33 *812:17 0.00508984
23 *771:33 *813:17 0.0267779
24 *771:33 *816:17 0.0267398
25 *771:37 *784:29 0.00317984
26 *984:refsel[0] *984:SUMCAP2[2] 1.05658e-05
27 *984:SUMCAP2[1] *984:SUMCAP2[2] 0.000283722
28 *984:SUMCAP2[0] *984:SUMCAP2[2] 7.21379e-05
29 *18:71 *771:37 0.0215856
30 *20:39 *771:33 0
31 *20:47 *771:33 0.00193616
32 *647:17 *771:17 0.000227778
33 *648:17 *771:17 0.00244509
34 *652:13 *771:33 0.00884514
35 *655:57 *771:31 2.10846e-05
36 *668:17 *771:37 0.0131254
37 *671:29 *771:17 0.00752113
38 *693:39 *771:17 0.00184824
39 *718:31 *771:37 0.000274165
40 *730:21 *771:37 0.000590751
41 *750:13 *771:33 0
42 *755:13 *771:17 0.000420761
43 *755:17 *771:25 0
44 *756:63 *771:37 0.00229751
45 *761:21 *771:37 0.00108972
46 *763:21 *771:37 0.000274671
47 *764:37 *771:37 0.000476082
48 *766:15 *771:17 0.00387773
49 *770:27 *771:17 0.000312219
*RES
1 *988:analog_ctrl[190] *771:17 43.9948 
2 *771:17 *771:19 8 
3 *771:19 *771:21 89.5291 
4 *771:21 *771:23 8 
5 *771:23 *771:25 59.9685 
6 *771:25 *771:31 21.3368 
7 *771:31 *771:33 636.643 
8 *771:33 *771:35 15 
9 *771:35 *771:37 249.317 
10 *771:37 *984:SUMCAP2[2] 36.7425 
*END

*D_NET *772 0.320983
*CONN
*I *984:SUMCAP2_EN I *D CF_ADC_DSM20
*I *988:analog_ctrl[191] O *D soc_sys
*CAP
1 *984:SUMCAP2_EN 0.000397158
2 *988:analog_ctrl[191] 6.56056e-05
3 *772:21 0.00420579
4 *772:19 0.00380863
5 *772:17 0.0210378
6 *772:15 0.0210378
7 *772:13 0.00906757
8 *772:11 0.00906757
9 *772:9 0.011948
10 *772:7 0.0120136
11 *984:SUMCAP2_EN *984:SUMCAP3[1] 4.94766e-06
12 *984:SUMCAP2_EN *984:SUMCAP3[2] 1.05887e-05
13 *984:SUMCAP2_EN *984:SUMCAP3_EN 0.000675498
14 *772:13 *773:13 0.0135607
15 *772:13 *783:13 0.000765706
16 *772:13 *877:13 0.00657607
17 *772:17 *773:17 1.72455e-05
18 *772:17 *774:17 0.0539908
19 *772:17 *784:25 0
20 *772:17 *785:25 0
21 *772:17 *789:17 0
22 *772:17 *818:17 0
23 *772:21 *774:21 0.0250116
24 *772:21 *789:29 0.0240392
25 *984:refsel[0] *984:SUMCAP2_EN 6.04252e-05
26 *984:SUMCAP2[2] *984:SUMCAP2_EN 0.000441196
27 *984:SUMCAP2[1] *984:SUMCAP2_EN 2.73729e-05
28 *984:SUMCAP2[0] *984:SUMCAP2_EN 9.15437e-05
29 *112:21 *772:13 0.000130187
30 *113:37 *772:13 0.0362597
31 *752:29 *772:21 0.00388659
32 *763:17 *772:17 0
33 *764:29 *772:21 0.000849579
34 *766:21 *772:13 0.00109988
35 *769:13 *772:13 0.0608266
36 *769:17 *772:17 8.49387e-06
*RES
1 *988:analog_ctrl[191] *772:7 1.25321 
2 *772:7 *772:9 266.893 
3 *772:9 *772:11 15 
4 *772:11 *772:13 665.239 
5 *772:13 *772:15 15 
6 *772:15 *772:17 698.092 
7 *772:17 *772:19 15 
8 *772:19 *772:21 275.044 
9 *772:21 *984:SUMCAP2_EN 41.4861 
*END

*D_NET *773 0.351877
*CONN
*I *984:SUMCAP3[0] I *D CF_ADC_DSM20
*I *988:analog_ctrl[192] O *D soc_sys
*CAP
1 *984:SUMCAP3[0] 0.000184689
2 *988:analog_ctrl[192] 6.56056e-05
3 *773:21 0.00433087
4 *773:19 0.00414619
5 *773:17 0.0101827
6 *773:15 0.0101827
7 *773:13 0.0090261
8 *773:11 0.0090261
9 *773:9 0.0119889
10 *773:7 0.0120545
11 *984:SUMCAP3[0] *984:SUMCAP3[1] 0.00035073
12 *773:13 *774:13 0.000267584
13 *773:13 *775:13 0.0594841
14 *773:13 *877:13 0.00178876
15 *773:17 *774:17 0.0535229
16 *773:21 *787:29 0.000202872
17 *984:refsel[2] *984:SUMCAP3[0] 8.72499e-05
18 *984:refsel[1] *984:SUMCAP3[0] 9.30856e-05
19 *984:FCAP1[4] *984:SUMCAP3[0] 0
20 *112:21 *773:13 0.00682611
21 *113:37 *773:13 0.0363473
22 *114:21 *773:13 0.000270413
23 *718:31 *773:21 7.31833e-05
24 *747:25 *773:21 0.00435689
25 *761:21 *773:21 0.000138791
26 *767:21 *773:21 0.0247814
27 *769:17 *773:17 0.0535717
28 *769:21 *773:21 0.0249475
29 *772:13 *773:13 0.0135607
30 *772:17 *773:17 1.72455e-05
*RES
1 *988:analog_ctrl[192] *773:7 1.25321 
2 *773:7 *773:9 267.598 
3 *773:9 *773:11 15 
4 *773:11 *773:13 660.951 
5 *773:13 *773:15 15 
6 *773:15 *773:17 690.697 
7 *773:17 *773:19 15 
8 *773:19 *773:21 277.903 
9 *773:21 *984:SUMCAP3[0] 35.8518 
*END

*D_NET *774 0.360943
*CONN
*I *984:SUMCAP3[1] I *D CF_ADC_DSM20
*I *988:analog_ctrl[193] O *D soc_sys
*CAP
1 *984:SUMCAP3[1] 0.0004517
2 *988:analog_ctrl[193] 6.56056e-05
3 *774:21 0.00421754
4 *774:19 0.00376584
5 *774:17 0.0103539
6 *774:15 0.0103539
7 *774:13 0.00881437
8 *774:11 0.00881437
9 *774:9 0.0120299
10 *774:7 0.0120955
11 *984:SUMCAP3[1] *984:SUMCAP3[2] 0.000566799
12 *984:SUMCAP3[1] *984:SUMCAP3_EN 0.000127198
13 *984:SUMCAP3[1] *780:29 0
14 *774:13 *775:13 0.059442
15 *774:13 *780:13 0.0544584
16 *774:13 *783:13 0.00404606
17 *774:13 *788:13 0.0010842
18 *774:13 *877:13 0.00010251
19 *774:17 *778:17 0.0001201
20 *774:21 *776:21 0.0250933
21 *774:21 *789:29 6.9805e-05
22 *984:refsel[2] *984:SUMCAP3[1] 0
23 *984:SUMCAP3[0] *984:SUMCAP3[1] 0.00035073
24 *984:SUMCAP2_EN *984:SUMCAP3[1] 4.94766e-06
25 *984:FCAP1[4] *984:SUMCAP3[1] 0
26 *14:35 *774:21 2.98648e-05
27 *114:21 *774:13 0.00707203
28 *752:29 *774:21 0.00459725
29 *764:29 *774:21 1.21972e-05
30 *769:17 *774:17 1.03972e-05
31 *772:17 *774:17 0.0539908
32 *772:21 *774:21 0.0250116
33 *773:13 *774:13 0.000267584
34 *773:17 *774:17 0.0535229
*RES
1 *988:analog_ctrl[193] *774:7 1.25321 
2 *774:7 *774:9 268.302 
3 *774:9 *774:11 15 
4 *774:11 *774:13 655.234 
5 *774:13 *774:15 15 
6 *774:15 *774:17 696.331 
7 *774:17 *774:19 15 
8 *774:19 *774:21 276.95 
9 *774:21 *984:SUMCAP3[1] 41.7864 
*END

*D_NET *775 0.351265
*CONN
*I *984:SUMCAP3[2] I *D CF_ADC_DSM20
*I *988:analog_ctrl[194] O *D soc_sys
*CAP
1 *984:SUMCAP3[2] 0.000308892
2 *988:analog_ctrl[194] 6.73347e-05
3 *775:27 0.00149631
4 *775:21 0.00911427
5 *775:19 0.00792686
6 *775:17 0.00842001
7 *775:15 0.00842001
8 *775:13 0.00828323
9 *775:11 0.00828323
10 *775:9 0.0123225
11 *775:7 0.0123899
12 *984:SUMCAP3[2] *984:SUMCAP3_EN 0.000534044
13 *775:13 *783:13 0.00229025
14 *775:17 *794:49 0.00556255
15 *775:21 *784:29 0.021976
16 *775:21 *828:37 9.58714e-05
17 *775:27 *784:29 0.00117433
18 *775:27 *788:31 0.00168131
19 *984:refsel[1] *984:SUMCAP3[2] 0
20 *984:refsel[0] *984:SUMCAP3[2] 2.5343e-05
21 *984:SUMCAP3[1] *984:SUMCAP3[2] 0.000566799
22 *984:SUMCAP2_EN *984:SUMCAP3[2] 1.05887e-05
23 *984:SUMCAP2[2] *984:SUMCAP3[2] 1.01003e-05
24 *14:35 *775:21 0
25 *14:35 *775:27 0.000124762
26 *18:63 *775:27 0.000677706
27 *20:15 *775:17 0
28 *40:17 *775:17 0.00267264
29 *113:37 *775:13 0.000382418
30 *114:21 *775:13 0.00816298
31 *756:63 *775:21 0.00195116
32 *758:13 *775:17 0
33 *758:17 *775:21 0
34 *765:17 *775:17 0.0534626
35 *766:25 *775:17 0.000560119
36 *768:17 *775:17 0.0533845
37 *773:13 *775:13 0.0594841
38 *774:13 *775:13 0.059442
*RES
1 *988:analog_ctrl[194] *775:7 1.25321 
2 *775:7 *775:9 267.95 
3 *775:9 *775:11 15 
4 *775:11 *775:13 658.093 
5 *775:13 *775:15 15 
6 *775:15 *775:17 693.514 
7 *775:17 *775:19 15 
8 *775:19 *775:21 251.938 
9 *775:21 *775:27 48.2775 
10 *775:27 *984:SUMCAP3[2] 23.8554 
*END

*D_NET *776 0.367607
*CONN
*I *984:SUMCAP3_EN I *D CF_ADC_DSM20
*I *988:analog_ctrl[195] O *D soc_sys
*CAP
1 *984:SUMCAP3_EN 0.000365419
2 *988:analog_ctrl[195] 6.56056e-05
3 *776:21 0.00418231
4 *776:19 0.00381689
5 *776:17 0.00914344
6 *776:15 0.00914344
7 *776:13 0.00814703
8 *776:11 0.00814703
9 *776:9 0.0127848
10 *776:7 0.0128504
11 *776:13 *778:13 0.058131
12 *776:13 *792:39 9.03364e-06
13 *776:13 *872:21 0.0126698
14 *776:17 *777:17 0.0524123
15 *776:17 *778:17 0.0528591
16 *776:17 *781:17 0.00405466
17 *776:17 *808:29 0.000341978
18 *984:refsel[0] *984:SUMCAP3_EN 6.45941e-05
19 *984:SUMCAP3[1] *984:SUMCAP3_EN 0.000127198
20 *984:SUMCAP3[2] *984:SUMCAP3_EN 0.000534044
21 *984:SUMCAP2_EN *984:SUMCAP3_EN 0.000675498
22 *984:SUMCAP2[1] *984:SUMCAP3_EN 2.16955e-06
23 *984:FCAP1[4] *984:SUMCAP3_EN 3.5022e-06
24 *14:35 *776:21 0.000110316
25 *657:14 *776:21 0.00402538
26 *764:17 *776:9 0.0036248
27 *764:29 *776:21 3.78103e-05
28 *765:21 *776:21 0.0250498
29 *768:13 *776:13 0.0591261
30 *769:17 *776:17 8.30566e-06
31 *774:21 *776:21 0.0250933
*RES
1 *988:analog_ctrl[195] *776:7 1.25321 
2 *776:7 *776:9 282.74 
3 *776:9 *776:11 15 
4 *776:11 *776:13 646.659 
5 *776:13 *776:15 15 
6 *776:15 *776:17 681.541 
7 *776:17 *776:19 15 
8 *776:19 *776:21 277.903 
9 *776:21 *984:SUMCAP3_EN 41.3514 
*END

*D_NET *777 0.34288
*CONN
*I *984:SUMCAPFB[0] I *D CF_ADC_DSM20
*I *988:analog_ctrl[196] O *D soc_sys
*CAP
1 *984:SUMCAPFB[0] 9.32051e-05
2 *988:analog_ctrl[196] 6.56056e-05
3 *777:33 0.00103423
4 *777:21 0.00452787
5 *777:19 0.00358684
6 *777:17 0.00794363
7 *777:15 0.00794363
8 *777:13 0.012069
9 *777:11 0.012069
10 *777:9 0.0136057
11 *777:7 0.0136713
12 *984:SUMCAPFB[0] *984:SUMCAPFB_EN 2.80283e-06
13 *984:SUMCAPFB[0] *984:SUMCAPFB[3] 6.28383e-05
14 *777:13 *816:13 0.00961531
15 *777:17 *778:17 0.000288977
16 *777:17 *779:17 0.0526604
17 *777:17 *781:17 0.00483046
18 *777:17 *808:29 0.000182008
19 *777:21 *779:21 0.0263062
20 *777:21 *783:33 0.0268814
21 *777:33 *984:SUMCAPFB[2] 0.000892187
22 *777:33 *984:SUMCAPFB[3] 4.5745e-05
23 *984:refsel[15] *984:SUMCAPFB[0] 6.28383e-05
24 *984:refsel[15] *777:33 0.000720072
25 *984:refsel[14] *984:SUMCAPFB[0] 1.31715e-05
26 *20:55 *984:SUMCAPFB[0] 4.51815e-05
27 *37:21 *777:13 0.0351956
28 *38:17 *777:13 0.000737657
29 *665:31 *777:13 0.0439104
30 *697:17 *777:33 9.10986e-05
31 *698:21 *984:SUMCAPFB[0] 5.34153e-05
32 *700:21 *777:33 9.10986e-05
33 *703:43 *777:33 5.45472e-05
34 *735:25 *777:21 0.000294933
35 *741:13 *777:13 0.00205603
36 *747:13 *777:13 0.00876347
37 *776:17 *777:17 0.0524123
*RES
1 *988:analog_ctrl[196] *777:7 1.25321 
2 *777:7 *777:9 297.53 
3 *777:9 *777:11 15 
4 *777:11 *777:13 641.894 
5 *777:13 *777:15 15 
6 *777:15 *777:17 674.499 
7 *777:17 *777:19 15 
8 *777:19 *777:21 287.908 
9 *777:21 *777:33 44.7754 
10 *777:33 *984:SUMCAPFB[0] 32.5075 
*END

*D_NET *778 0.35497
*CONN
*I *984:SUMCAPFB[1] I *D CF_ADC_DSM20
*I *988:analog_ctrl[197] O *D soc_sys
*CAP
1 *984:SUMCAPFB[1] 6.17454e-05
2 *988:analog_ctrl[197] 6.56056e-05
3 *778:29 0.00107558
4 *778:21 0.00450804
5 *778:19 0.0034942
6 *778:17 0.0103511
7 *778:15 0.0103511
8 *778:13 0.00827609
9 *778:11 0.00827609
10 *778:9 0.0128155
11 *778:7 0.0128811
12 *984:SUMCAPFB[1] *984:SUMCAPIN[0] 0.00010835
13 *984:SUMCAPFB[1] *984:SUMCAPFB_EN 6.57155e-05
14 *984:SUMCAPFB[1] *984:SUMCAPFB[2] 8.73315e-05
15 *984:SUMCAPFB[1] *984:SUMCAPFB[3] 7.06688e-05
16 *778:13 *784:13 0.000812426
17 *778:13 *787:13 0.0541807
18 *778:13 *792:39 0.000204103
19 *778:13 *872:21 0.0101069
20 *778:17 *779:17 5.44889e-06
21 *778:21 *779:21 0.0260558
22 *778:21 *780:21 0.000261315
23 *778:29 *984:SUMCAPFB[3] 7.6351e-05
24 *778:29 *780:29 0
25 *984:refsel[15] *778:29 5.51099e-05
26 *984:refsel[14] *778:29 8.81675e-05
27 *984:refsel[13] *778:29 0.000215468
28 *984:refsel[9] *778:29 0.000239817
29 *984:refsel[2] *778:29 0
30 *709:29 *778:29 0.000945939
31 *732:33 *778:21 0.000164818
32 *737:13 *778:21 4.79612e-05
33 *768:21 *778:21 0.0251855
34 *769:17 *778:17 0.0524367
35 *774:17 *778:17 0.0001201
36 *776:13 *778:13 0.058131
37 *776:17 *778:17 0.0528591
38 *777:17 *778:17 0.000288977
*RES
1 *988:analog_ctrl[197] *778:7 1.25321 
2 *778:7 *778:9 283.092 
3 *778:9 *778:11 15 
4 *778:11 *778:13 635.701 
5 *778:13 *778:15 15 
6 *778:15 *778:17 689.641 
7 *778:17 *778:19 15 
8 *778:19 *778:21 285.049 
9 *778:21 *778:29 49.4611 
10 *778:29 *984:SUMCAPFB[1] 2.5375 
*END

*D_NET *779 0.31625
*CONN
*I *984:SUMCAPFB[2] I *D CF_ADC_DSM20
*I *988:analog_ctrl[198] O *D soc_sys
*CAP
1 *984:SUMCAPFB[2] 0.000780119
2 *988:analog_ctrl[198] 6.56056e-05
3 *779:21 0.00437998
4 *779:19 0.00359986
5 *779:17 0.00858397
6 *779:15 0.00858397
7 *779:13 0.0200478
8 *779:11 0.0200478
9 *779:9 0.0138423
10 *779:7 0.0139079
11 *984:SUMCAPFB[2] *984:SUMCAPFB_EN 0.0011722
12 *984:SUMCAPFB[2] *984:SUMCAPFB[3] 0.000189535
13 *779:13 *789:13 0.0533248
14 *779:13 *801:13 0.00756698
15 *779:17 *781:17 0.00553944
16 *779:17 *783:29 0.0124444
17 *779:17 *808:29 0.0287847
18 *779:21 *783:33 4.05745e-05
19 *984:SUMCAPFB[1] *984:SUMCAPFB[2] 8.73315e-05
20 *984:refsel[15] *984:SUMCAPFB[2] 1.59334e-05
21 *984:refsel[14] *984:SUMCAPFB[2] 8.58908e-06
22 *104:29 *779:13 0.00688688
23 *668:25 *779:13 0
24 *732:33 *779:21 0.000340503
25 *737:13 *779:21 1.90919e-05
26 *766:25 *779:17 0
27 *768:21 *779:21 6.9805e-05
28 *777:17 *779:17 0.0526604
29 *777:21 *779:21 0.0263062
30 *777:33 *984:SUMCAPFB[2] 0.000892187
31 *778:17 *779:17 5.44889e-06
32 *778:21 *779:21 0.0260558
*RES
1 *988:analog_ctrl[198] *779:7 1.25321 
2 *779:7 *779:9 302.108 
3 *779:9 *779:11 15 
4 *779:11 *779:13 631.889 
5 *779:13 *779:15 15 
6 *779:15 *779:17 670.273 
7 *779:17 *779:19 15 
8 *779:19 *779:21 288.861 
9 *779:21 *984:SUMCAPFB[2] 49.4093 
*END

*D_NET *780 0.336849
*CONN
*I *984:SUMCAPFB[3] I *D CF_ADC_DSM20
*I *988:analog_ctrl[199] O *D soc_sys
*CAP
1 *984:SUMCAPFB[3] 0.000358708
2 *988:analog_ctrl[199] 6.56056e-05
3 *780:29 0.001395
4 *780:21 0.00665618
5 *780:19 0.00561989
6 *780:17 0.0113172
7 *780:15 0.0113172
8 *780:13 0.00767699
9 *780:11 0.00767699
10 *780:9 0.0120552
11 *780:7 0.0121208
12 *780:13 *783:13 0.0110206
13 *780:13 *788:13 0.0516024
14 *780:17 *786:17 0.0534586
15 *984:SUMCAPFB[1] *984:SUMCAPFB[3] 7.06688e-05
16 *984:SUMCAPFB[2] *984:SUMCAPFB[3] 0.000189535
17 *984:SUMCAPFB[0] *984:SUMCAPFB[3] 6.28383e-05
18 *984:refsel[15] *984:SUMCAPFB[3] 0.000316035
19 *984:SUMCAP3[1] *780:29 0
20 *651:10 *780:17 0.047645
21 *654:13 *780:17 0.000447391
22 *699:25 *780:29 0.000308033
23 *704:17 *780:17 0.00650164
24 *709:29 *780:29 0
25 *730:21 *780:29 0.000306332
26 *737:13 *780:21 0.0102906
27 *755:33 *780:17 0.00121183
28 *757:41 *780:17 0
29 *766:29 *780:21 0.0221763
30 *768:21 *780:21 0.000139547
31 *774:13 *780:13 0.0544584
32 *777:33 *984:SUMCAPFB[3] 4.5745e-05
33 *778:21 *780:21 0.000261315
34 *778:29 *984:SUMCAPFB[3] 7.6351e-05
35 *778:29 *780:29 0
*RES
1 *988:analog_ctrl[199] *780:7 1.25321 
2 *780:7 *780:9 268.654 
3 *780:9 *780:11 15 
4 *780:11 *780:13 595.204 
5 *780:13 *780:15 15 
6 *780:15 *780:17 705.135 
7 *780:17 *780:19 15 
8 *780:19 *780:21 253.129 
9 *780:21 *780:29 47.3586 
10 *780:29 *984:SUMCAPFB[3] 38.1407 
*END

*D_NET *781 0.506899
*CONN
*I *984:MODBIT I *D CF_ADC_DSM20
*I *988:analog_ctrl[19] O *D soc_sys
*CAP
1 *984:MODBIT 0.00221236
2 *988:analog_ctrl[19] 5.88171e-05
3 *781:17 0.0183715
4 *781:15 0.0161591
5 *781:13 0.0341379
6 *781:11 0.0341379
7 *781:9 0.0126096
8 *781:7 0.0126684
9 *984:MODBIT *984:SIGN 2.58697e-05
10 *984:MODBIT *984:itrim_comp[3] 5.51346e-05
11 *781:13 *791:21 0.0319284
12 *781:13 *797:13 0.148001
13 *781:13 *803:13 0
14 *781:13 *818:13 0.137784
15 *781:13 *820:13 0.000291279
16 *781:17 *984:RESET1 0.00220081
17 *781:17 *783:29 0.00471063
18 *781:17 *797:17 0.0140095
19 *781:17 *808:29 0.00541225
20 *984:MODINPUT *984:MODBIT 0.00305749
21 *40:17 *781:17 1.58513e-05
22 *659:16 *984:MODBIT 0.00178002
23 *669:13 *984:MODBIT 0.000379269
24 *742:13 *781:13 0.00966439
25 *745:13 *781:13 0.00280204
26 *776:17 *781:17 0.00405466
27 *777:17 *781:17 0.00483046
28 *779:17 *781:17 0.00553944
*RES
1 *988:analog_ctrl[19] *781:7 1.25321 
2 *781:7 *781:9 287.494 
3 *781:9 *781:11 8 
4 *781:11 *781:13 283.03 
5 *781:13 *781:15 8 
6 *781:15 *781:17 66.4421 
7 *781:17 *984:MODBIT 22.93 
*END

*D_NET *782 0.280945
*CONN
*I *986:enable_hv I *D CF_BUF_HIZ
*I *988:analog_ctrl[1] O *D soc_sys
*CAP
1 *986:enable_hv 0.011105
2 *988:analog_ctrl[1] 0.00167098
3 *782:19 0.011105
4 *782:17 0.11992
5 *782:15 0.11992
6 *782:13 0.00261208
7 *782:11 0.00428307
8 *986:enable_hv *986:disable_n 0
9 *986:enable_hv *800:25 0
10 *782:13 *844:15 0.000104378
11 *782:13 *855:9 0
12 *73:37 *782:13 0.00129517
13 *671:13 *782:11 0.000663911
14 *673:15 *782:17 0.00661007
15 *681:15 *782:17 0.00165568
*RES
1 *988:analog_ctrl[1] *782:11 22.0426 
2 *782:11 *782:13 58.6007 
3 *782:13 *782:15 8 
4 *782:15 *782:17 389.375 
5 *782:17 *782:19 8 
6 *782:19 *986:enable_hv 252.207 
*END

*D_NET *783 0.349743
*CONN
*I *984:SUMCAPFB_EN I *D CF_ADC_DSM20
*I *988:analog_ctrl[200] O *D soc_sys
*CAP
1 *984:SUMCAPFB_EN 0.000912357
2 *988:analog_ctrl[200] 6.56056e-05
3 *783:33 0.00571024
4 *783:31 0.00479789
5 *783:29 0.013057
6 *783:27 0.0191431
7 *783:13 0.0189601
8 *783:11 0.012874
9 *783:9 0.0120486
10 *783:7 0.0121142
11 *984:SUMCAPFB_EN *984:SUMCAPIN[2] 0.00012388
12 *984:SUMCAPFB_EN *984:SUMCAPIN[1] 0
13 *984:SUMCAPFB_EN *984:SUMCAPIN[0] 0.000216141
14 *783:13 *785:13 0.0539139
15 *783:13 *788:13 0.00876504
16 *783:13 *877:13 0.00718907
17 *783:27 *785:23 0.00571474
18 *783:29 *794:57 0
19 *783:29 *808:29 0.0271433
20 *783:29 *814:17 0.0268924
21 *783:29 *820:17 7.91187e-05
22 *783:33 *785:53 0.00772111
23 *783:33 *796:13 0.0099924
24 *984:SUMCAPFB[1] *984:SUMCAPFB_EN 6.57155e-05
25 *984:SUMCAPFB[2] *984:SUMCAPFB_EN 0.0011722
26 *984:SUMCAPFB[0] *984:SUMCAPFB_EN 2.80283e-06
27 *20:11 *783:13 0
28 *114:21 *783:13 0.0348338
29 *655:57 *783:27 0.000989282
30 *669:19 *783:13 4.47499e-05
31 *735:25 *783:33 0.000340503
32 *766:25 *783:29 0
33 *768:21 *783:33 1.90678e-05
34 *771:25 *783:27 2.48388e-05
35 *771:31 *783:27 0.00261596
36 *772:13 *783:13 0.000765706
37 *774:13 *783:13 0.00404606
38 *775:13 *783:13 0.00229025
39 *777:21 *783:33 0.0268814
40 *779:17 *783:29 0.0124444
41 *779:21 *783:33 4.05745e-05
42 *780:13 *783:13 0.0110206
43 *781:17 *783:29 0.00471063
*RES
1 *988:analog_ctrl[200] *783:7 1.25321 
2 *783:7 *783:9 268.478 
3 *783:9 *783:11 8 
4 *783:11 *783:13 101.937 
5 *783:13 *783:27 44.3859 
6 *783:27 *783:29 648.264 
7 *783:29 *783:31 15 
8 *783:31 *783:33 290.29 
9 *783:33 *984:SUMCAPFB_EN 48.6532 
*END

*D_NET *784 0.29199
*CONN
*I *984:SUMCAPIN[0] I *D CF_ADC_DSM20
*I *988:analog_ctrl[201] O *D soc_sys
*CAP
1 *984:SUMCAPIN[0] 0.000375819
2 *988:analog_ctrl[201] 6.56056e-05
3 *784:29 0.00571323
4 *784:27 0.00533741
5 *784:25 0.0107668
6 *784:23 0.0107668
7 *784:21 0.00152438
8 *784:17 0.0113755
9 *784:15 0.00985114
10 *784:13 0.00774286
11 *784:11 0.00774286
12 *784:9 0.0128874
13 *784:7 0.012953
14 *984:SUMCAPIN[0] *984:SUMCAPIN[2] 0.000371877
15 *984:SUMCAPIN[0] *984:SUMCAPIN[1] 0.000122737
16 *784:13 *787:13 0.0525021
17 *784:13 *792:39 0.0505397
18 *784:13 *875:13 0.00970783
19 *784:17 *801:17 0.00326457
20 *784:17 *813:17 0
21 *784:17 *816:17 0.000139711
22 *784:25 *785:25 0.00189802
23 *784:25 *789:17 0.00252697
24 *784:25 *818:17 0.000814777
25 *984:SUMCAPFB_EN *984:SUMCAPIN[0] 0.000216141
26 *984:SUMCAPFB[1] *984:SUMCAPIN[0] 0.00010835
27 *984:refsel[9] *984:SUMCAPIN[0] 4.32869e-05
28 *18:63 *784:29 0.00165417
29 *658:15 *784:17 0.0245678
30 *668:17 *784:29 0.00768582
31 *730:21 *784:29 0.000745409
32 *746:17 *784:25 0.00788694
33 *750:13 *784:17 0
34 *751:17 *784:25 0
35 *756:63 *784:29 0.00158433
36 *758:17 *784:29 0
37 *763:17 *784:25 0
38 *763:21 *784:29 0.000146741
39 *764:37 *784:29 0.0012168
40 *771:37 *784:29 0.00317984
41 *772:17 *784:25 0
42 *775:21 *784:29 0.021976
43 *775:27 *784:29 0.00117433
44 *778:13 *784:13 0.000812426
*RES
1 *988:analog_ctrl[201] *784:7 1.25321 
2 *784:7 *784:9 283.796 
3 *784:9 *784:11 15 
4 *784:11 *784:13 589.487 
5 *784:13 *784:15 15 
6 *784:15 *784:17 332.92 
7 *784:17 *784:21 36.1079 
8 *784:21 *784:23 15 
9 *784:23 *784:25 344.541 
10 *784:25 *784:27 15 
11 *784:27 *784:29 284.573 
12 *784:29 *984:SUMCAPIN[0] 39.2593 
*END

*D_NET *785 0.316725
*CONN
*I *984:SUMCAPIN[1] I *D CF_ADC_DSM20
*I *988:analog_ctrl[202] O *D soc_sys
*CAP
1 *984:SUMCAPIN[1] 0.000781592
2 *988:analog_ctrl[202] 6.56056e-05
3 *785:53 0.00550472
4 *785:51 0.00472313
5 *785:49 0.00437277
6 *785:47 0.00449665
7 *785:41 0.000738716
8 *785:33 0.00117634
9 *785:29 0.00179515
10 *785:25 0.010775
11 *785:23 0.0144998
12 *785:13 0.0161959
13 *785:11 0.0112375
14 *785:9 0.0120983
15 *785:7 0.0121639
16 *984:SUMCAPIN[1] *984:SUMCAPIN[4] 0.000467924
17 *984:SUMCAPIN[1] *984:SUMCAPIN[3] 4.46338e-05
18 *984:SUMCAPIN[1] *984:SUMCAPIN[2] 0.000805244
19 *984:SUMCAPIN[1] *984:SUMCAPIN_EN 0.000105575
20 *984:SUMCAPIN[1] *824:25 0.000103769
21 *785:25 *789:17 0.0120337
22 *785:41 *984:ODET_TH[3] 2.89314e-05
23 *785:41 *808:33 0
24 *785:41 *814:29 6.17437e-06
25 *785:41 *820:29 0
26 *785:53 *796:13 0.0101673
27 *984:SUMCAPIN[0] *984:SUMCAPIN[1] 0.000122737
28 *984:SUMCAPFB_EN *984:SUMCAPIN[1] 0
29 *984:refsel[9] *984:SUMCAPIN[1] 2.63049e-05
30 *18:75 *785:49 0.00381546
31 *19:53 *785:49 7.82891e-06
32 *20:11 *785:13 0
33 *20:39 *785:33 0.00144903
34 *651:10 *785:41 0.000479248
35 *653:15 *785:41 0.00047745
36 *658:15 *785:33 1.02387e-05
37 *669:19 *785:13 0.0457674
38 *720:37 *785:53 0.000340503
39 *750:13 *785:33 0.000940561
40 *755:33 *785:49 0.00354815
41 *756:31 *785:29 0.00117715
42 *756:39 *785:33 0.000214339
43 *756:39 *785:41 0
44 *756:47 *785:49 0.0139256
45 *756:51 *785:49 0.00245689
46 *757:41 *785:49 0.0231186
47 *757:45 *785:53 0
48 *759:13 *785:53 0.0186138
49 *771:25 *785:23 0.00388641
50 *771:31 *785:23 0.00271062
51 *772:17 *785:25 0
52 *783:13 *785:13 0.0539139
53 *783:27 *785:23 0.00571474
54 *783:33 *785:53 0.00772111
55 *784:25 *785:25 0.00189802
*RES
1 *988:analog_ctrl[202] *785:7 1.25321 
2 *785:7 *785:9 269.182 
3 *785:9 *785:11 8 
4 *785:11 *785:13 99.876 
5 *785:13 *785:23 43.3293 
6 *785:23 *785:25 316.897 
7 *785:25 *785:29 35.6314 
8 *785:29 *785:33 39.795 
9 *785:33 *785:41 43.2986 
10 *785:41 *785:47 31.5743 
11 *785:47 *785:49 299.114 
12 *785:49 *785:51 15 
13 *785:51 *785:53 257.416 
14 *785:53 *984:SUMCAPIN[1] 48.4461 
*END

*D_NET *786 0.322854
*CONN
*I *984:SUMCAPIN[2] I *D CF_ADC_DSM20
*I *988:analog_ctrl[203] O *D soc_sys
*CAP
1 *984:SUMCAPIN[2] 0.00052134
2 *988:analog_ctrl[203] 6.56056e-05
3 *786:21 0.00425117
4 *786:19 0.00372983
5 *786:17 0.00957744
6 *786:15 0.00957744
7 *786:13 0.0171303
8 *786:11 0.0171303
9 *786:9 0.0126185
10 *786:7 0.0126841
11 *984:SUMCAPIN[2] *984:SUMCAPIN[4] 3.6862e-05
12 *984:SUMCAPIN[2] *984:SUMCAPIN[3] 6.36938e-05
13 *786:13 *794:45 0.0184787
14 *786:13 *809:13 0.000301394
15 *786:17 *799:17 0.00535441
16 *786:21 *789:29 0.000536195
17 *984:SUMCAPIN[1] *984:SUMCAPIN[2] 0.000805244
18 *984:SUMCAPIN[0] *984:SUMCAPIN[2] 0.000371877
19 *984:SUMCAPFB_EN *984:SUMCAPIN[2] 0.00012388
20 *20:47 *786:17 0.00251115
21 *654:13 *786:17 0.0477554
22 *704:17 *786:17 0.0012365
23 *719:21 *786:21 8.48502e-06
24 *731:21 *786:21 0.00169537
25 *745:21 *786:21 0.000867045
26 *750:17 *786:21 0.0225311
27 *751:13 *786:13 0.0526023
28 *755:33 *786:17 0.000903003
29 *755:37 *786:21 0.00447708
30 *764:29 *786:21 0.0214491
31 *771:33 *786:17 0
32 *780:17 *786:17 0.0534586
*RES
1 *988:analog_ctrl[203] *786:7 1.25321 
2 *786:7 *786:9 280.275 
3 *786:9 *786:11 15 
4 *786:11 *786:13 574.718 
5 *786:13 *786:15 15 
6 *786:15 *786:17 685.767 
7 *786:17 *786:19 15 
8 *786:19 *786:21 259.799 
9 *786:21 *984:SUMCAPIN[2] 42.7807 
*END

*D_NET *787 0.347728
*CONN
*I *984:SUMCAPIN[3] I *D CF_ADC_DSM20
*I *988:analog_ctrl[204] O *D soc_sys
*CAP
1 *984:SUMCAPIN[3] 0.00017641
2 *988:analog_ctrl[204] 6.56056e-05
3 *787:29 0.00122632
4 *787:21 0.00635162
5 *787:19 0.00530171
6 *787:17 0.00806281
7 *787:15 0.00806281
8 *787:13 0.00729762
9 *787:11 0.00729762
10 *787:9 0.0128879
11 *787:7 0.0129535
12 *984:SUMCAPIN[3] *984:bw[1] 7.50954e-06
13 *984:SUMCAPIN[3] *984:SUMCAPIN[4] 6.63824e-05
14 *984:SUMCAPIN[3] *984:SUMCAPIN_EN 3.46127e-05
15 *984:SUMCAPIN[3] *823:21 1.89019e-05
16 *787:13 *792:39 0.000907981
17 *787:13 *875:13 0.0117284
18 *787:17 *810:17 0.0053145
19 *787:21 *984:TESTMODE 0
20 *787:21 *788:21 0.0228184
21 *787:29 *824:25 0.000124902
22 *984:SUMCAPIN[2] *984:SUMCAPIN[3] 6.36938e-05
23 *984:SUMCAPIN[1] *984:SUMCAPIN[3] 4.46338e-05
24 *984:refsel[12] *787:29 0.000671528
25 *984:refsel[9] *984:SUMCAPIN[3] 7.44777e-05
26 *984:FCAP1[4] *787:21 3.97681e-05
27 *984:FCAP1[4] *787:29 0.00129926
28 *984:FCAP1[1] *787:21 7.65602e-06
29 *984:RESCAP[0] *787:21 5.91622e-05
30 *984:RESCAP[1] *787:21 0.000325796
31 *984:IPCAP1OFFSET *787:21 1.05235e-05
32 *662:9 *787:21 3.6485e-06
33 *663:17 *787:21 4.03402e-06
34 *663:19 *787:21 2.4585e-05
35 *663:25 *787:21 1.6158e-05
36 *665:23 *787:21 0.0144537
37 *671:35 *787:9 0
38 *701:25 *787:29 2.79662e-05
39 *702:27 *787:29 6.53382e-05
40 *706:25 *787:29 0.000715008
41 *718:31 *787:29 1.89672e-05
42 *742:37 *787:29 2.95594e-05
43 *744:21 *787:21 0.00490163
44 *746:21 *787:21 0.000160236
45 *756:79 *787:21 0.000315391
46 *761:17 *787:17 0.0528882
47 *763:17 *787:17 0.0528882
48 *767:21 *787:21 0.000439317
49 *767:21 *787:29 0.000588138
50 *773:21 *787:29 0.000202872
51 *778:13 *787:13 0.0541807
52 *784:13 *787:13 0.0525021
*RES
1 *988:analog_ctrl[204] *787:7 1.25321 
2 *787:7 *787:9 283.444 
3 *787:9 *787:11 15 
4 *787:11 *787:13 592.346 
5 *787:13 *787:15 15 
6 *787:15 *787:17 673.794 
7 *787:17 *787:19 15 
8 *787:19 *787:21 260.751 
9 *787:21 *787:29 41.8457 
10 *787:29 *984:SUMCAPIN[3] 19.4639 
*END

*D_NET *788 0.317853
*CONN
*I *984:SUMCAPIN[4] I *D CF_ADC_DSM20
*I *988:analog_ctrl[205] O *D soc_sys
*CAP
1 *984:SUMCAPIN[4] 0.000400574
2 *988:analog_ctrl[205] 6.56056e-05
3 *788:31 0.00133085
4 *788:27 0.00112213
5 *788:21 0.00344371
6 *788:19 0.00325185
7 *788:17 0.00860496
8 *788:15 0.00860496
9 *788:13 0.0177123
10 *788:11 0.0177123
11 *788:9 0.0120787
12 *788:7 0.0121443
13 *984:SUMCAPIN[4] *984:SUMCAPIN_EN 0.000555371
14 *788:9 *794:39 1.98125e-05
15 *788:17 *791:23 0.00598735
16 *984:SUMCAPIN[3] *984:SUMCAPIN[4] 6.63824e-05
17 *984:SUMCAPIN[2] *984:SUMCAPIN[4] 3.6862e-05
18 *984:SUMCAPIN[1] *984:SUMCAPIN[4] 0.000467924
19 *984:FCAP1[2] *788:27 0.000290625
20 *14:35 *788:31 6.69394e-05
21 *18:63 *788:31 0.000594509
22 *114:21 *788:13 0.000101624
23 *671:35 *788:9 3.8848e-05
24 *713:29 *788:27 1.45549e-05
25 *733:35 *788:27 3.82564e-05
26 *738:35 *788:31 0.00249431
27 *746:21 *788:21 0.00451712
28 *751:17 *788:17 0.0530909
29 *756:79 *788:27 0.000139882
30 *762:21 *788:17 0.0539844
31 *764:37 *788:27 0.000107508
32 *767:21 *788:21 0.0228167
33 *774:13 *788:13 0.0010842
34 *775:27 *788:31 0.00168131
35 *780:13 *788:13 0.0516024
36 *783:13 *788:13 0.00876504
37 *787:21 *788:21 0.0228184
*RES
1 *988:analog_ctrl[205] *788:7 1.25321 
2 *788:7 *788:9 269.006 
3 *788:9 *788:11 15 
4 *788:11 *788:13 585.676 
5 *788:13 *788:15 15 
6 *788:15 *788:17 688.584 
7 *788:17 *788:19 15 
8 *788:19 *788:21 250.746 
9 *788:21 *788:27 34.7229 
10 *788:27 *788:31 46.5893 
11 *788:31 *984:SUMCAPIN[4] 23.6689 
*END

*D_NET *789 0.292681
*CONN
*I *984:SUMCAPIN_EN I *D CF_ADC_DSM20
*I *988:analog_ctrl[206] O *D soc_sys
*CAP
1 *984:SUMCAPIN_EN 0.000416364
2 *988:analog_ctrl[206] 6.56056e-05
3 *789:29 0.0044889
4 *789:27 0.00407253
5 *789:25 0.0101379
6 *789:23 0.0111249
7 *789:17 0.00606041
8 *789:15 0.00507341
9 *789:13 0.0176518
10 *789:11 0.0176518
11 *789:9 0.0139445
12 *789:7 0.0140101
13 *984:SUMCAPIN_EN *984:bw[2] 0.000114326
14 *984:SUMCAPIN_EN *824:25 0.000727149
15 *789:9 *794:41 0.00586887
16 *789:13 *801:13 0.0115483
17 *789:17 *818:17 0.0272289
18 *984:SUMCAPIN[4] *984:SUMCAPIN_EN 0.000555371
19 *984:SUMCAPIN[3] *984:SUMCAPIN_EN 3.46127e-05
20 *984:SUMCAPIN[1] *984:SUMCAPIN_EN 0.000105575
21 *14:35 *789:29 0.000111675
22 *20:23 *789:23 0
23 *660:14 *789:25 0.000300659
24 *662:19 *789:25 0.0122987
25 *665:27 *789:25 0
26 *667:19 *789:25 0
27 *668:21 *789:25 0
28 *693:41 *789:17 0.00545102
29 *715:55 *789:25 0
30 *725:21 *789:29 0.00015022
31 *731:21 *789:29 0.00182179
32 *740:13 *789:25 0.00207046
33 *744:17 *789:25 0
34 *750:13 *789:25 0
35 *753:21 *789:29 0.00459725
36 *764:29 *789:29 0.0224675
37 *772:17 *789:17 0
38 *772:21 *789:29 0.0240392
39 *774:21 *789:29 6.9805e-05
40 *779:13 *789:13 0.0533248
41 *784:25 *789:17 0.00252697
42 *785:25 *789:17 0.0120337
43 *786:21 *789:29 0.000536195
*RES
1 *988:analog_ctrl[206] *789:7 1.25321 
2 *789:7 *789:9 302.46 
3 *789:9 *789:11 15 
4 *789:11 *789:13 583.77 
5 *789:13 *789:15 15 
6 *789:15 *789:17 346.301 
7 *789:17 *789:23 43.9614 
8 *789:23 *789:25 316.721 
9 *789:25 *789:27 15 
10 *789:27 *789:29 272.186 
11 *789:29 *984:SUMCAPIN_EN 41.8382 
*END

*D_NET *790 0.470158
*CONN
*I *984:SIGN I *D CF_ADC_DSM20
*I *988:analog_ctrl[20] O *D soc_sys
*CAP
1 *984:SIGN 0.00207039
2 *988:analog_ctrl[20] 0.000529019
3 *790:41 0.0239954
4 *790:39 0.0220276
5 *790:29 0.0183475
6 *790:27 0.0188039
7 *790:17 0.0121068
8 *790:15 0.0120768
9 *984:SIGN *984:itrim_comp[3] 0.00344212
10 *984:SIGN *984:BUF_FCHOP[1] 2.56923e-05
11 *790:15 *791:11 0.000284459
12 *790:15 *792:13 7.12591e-05
13 *790:15 *792:15 3.04773e-05
14 *790:15 *866:13 0.000192659
15 *790:17 *792:15 0.0455119
16 *790:17 *794:13 0.0459284
17 *790:17 *805:13 2.1933e-05
18 *790:17 *867:13 0.000182169
19 *790:17 *868:9 0.000300417
20 *790:27 *792:15 3.58845e-05
21 *790:27 *805:13 0.00156907
22 *790:27 *805:23 8.23496e-05
23 *790:29 *805:25 0.000362375
24 *790:29 *808:25 0
25 *790:41 *794:49 0.027477
26 *984:MODBIT *984:SIGN 2.58697e-05
27 *984:phi2_buffer *984:SIGN 3.42584e-05
28 *984:MODINPUT *984:SIGN 0.00348622
29 *40:17 *790:41 0.0298157
30 *647:17 *790:29 0.0115746
31 *671:13 *790:15 0.000409247
32 *671:13 *790:17 0.000234801
33 *671:29 *790:29 0.00174365
34 *671:37 *790:29 0
35 *688:11 *790:27 0.000812432
36 *711:25 *790:29 0.0012619
37 *715:29 *790:15 0.000126949
38 *715:29 *790:17 0.00821038
39 *715:33 *790:29 0.0943362
40 *723:31 *790:27 1.31877e-05
41 *728:31 *790:27 2.27197e-05
42 *728:31 *790:29 0.000660975
43 *736:9 *790:29 0.00200902
44 *750:9 *790:29 0.000209789
45 *754:13 *790:29 0.000921308
46 *758:9 *790:29 0.000347583
47 *760:13 *790:29 0.000535675
48 *762:13 *790:29 0.0645453
49 *764:15 *790:29 0.00100139
50 *766:25 *790:41 0.00574757
51 *768:17 *790:41 0.00501195
52 *770:15 *790:15 0.00020375
53 *770:15 *790:27 4.415e-05
54 *770:25 *790:27 0.000679692
55 *770:47 *790:41 0.000656046
*RES
1 *988:analog_ctrl[20] *790:15 12.4452 
2 *790:15 *790:17 87.4683 
3 *790:17 *790:27 27.4843 
4 *790:27 *790:29 1054.01 
5 *790:29 *790:39 31.7721 
6 *790:39 *790:41 118.104 
7 *790:41 *984:SIGN 25.0613 
*END

*D_NET *791 0.632241
*CONN
*I *984:CHOP_EN I *D CF_ADC_DSM20
*I *988:analog_ctrl[21] O *D soc_sys
*CAP
1 *984:CHOP_EN 0.00210994
2 *988:analog_ctrl[21] 0.000209929
3 *791:23 0.019576
4 *791:21 0.142974
5 *791:13 0.137012
6 *791:11 0.011714
7 *791:21 *794:45 0.00262137
8 *791:21 *797:13 0.0247223
9 *791:21 *798:13 0.0201854
10 *791:21 *803:13 0.00940367
11 *791:21 *807:13 0.0115243
12 *791:21 *809:13 0.0109934
13 *791:21 *810:13 0.0162071
14 *791:21 *814:13 0.0134091
15 *791:21 *818:13 0.0288444
16 *791:21 *820:13 0.0286181
17 *791:21 *872:21 0.00915762
18 *791:21 *875:13 0.0107026
19 *791:23 *805:37 0.0284554
20 *791:23 *810:17 0.00117456
21 *31:13 *791:21 0.00262137
22 *33:13 *791:21 0.00262137
23 *35:13 *791:21 0.00262137
24 *36:9 *791:21 0.00262137
25 *39:9 *791:21 0.00272539
26 *66:17 *791:21 0.00262137
27 *110:18 *791:13 0.0118115
28 *121:14 *791:13 0
29 *652:17 *791:21 0.00400397
30 *693:41 *791:23 0.000393514
31 *715:45 *791:23 0.00295898
32 *741:17 *791:23 0
33 *751:17 *791:23 0.00100257
34 *753:13 *791:21 0.00907462
35 *754:17 *791:23 0.00457986
36 *760:21 *791:23 0.00685778
37 *761:17 *791:23 0.00091062
38 *762:21 *791:23 0.00685778
39 *770:15 *791:11 0.000141005
40 *781:13 *791:21 0.0319284
41 *788:17 *791:23 0.00598735
42 *790:15 *791:11 0.000284459
*RES
1 *988:analog_ctrl[21] *791:11 17.5346 
2 *791:11 *791:13 51.7179 
3 *791:13 *791:21 35.5856 
4 *791:21 *791:23 83.9589 
5 *791:23 *984:CHOP_EN 20.9112 
*END

*D_NET *792 0.413274
*CONN
*I *984:BUF_CHOP_EN I *D CF_ADC_DSM20
*I *988:analog_ctrl[22] O *D soc_sys
*CAP
1 *984:BUF_CHOP_EN 5.55613e-05
2 *988:analog_ctrl[22] 0.000166134
3 *792:47 0.00291912
4 *792:45 0.00286355
5 *792:43 0.00440828
6 *792:41 0.00440828
7 *792:39 0.0181709
8 *792:37 0.0181709
9 *792:35 0.0126631
10 *792:33 0.0126631
11 *792:31 0.00966219
12 *792:29 0.0106393
13 *792:15 0.0193731
14 *792:13 0.0185621
15 *984:BUF_CHOP_EN *984:BUF_FCHOP[2] 8.53907e-05
16 *984:BUF_CHOP_EN *984:BUF_FCHOP[1] 3.43346e-05
17 *792:29 *794:27 0.000308101
18 *792:29 *808:13 1.12837e-05
19 *792:29 *808:23 8.96925e-05
20 *792:31 *794:29 0.0108274
21 *792:31 *808:25 0.0414456
22 *792:43 *809:17 0.0295115
23 *792:43 *872:25 5.19885e-05
24 *792:43 *875:17 0.0293942
25 *792:47 *984:BUF_FCHOP[2] 9.41704e-05
26 *984:phi2_buffer *984:BUF_CHOP_EN 1.62226e-05
27 *984:phi2_buffer *792:47 0.000323084
28 *984:MODINPUT *984:BUF_CHOP_EN 0
29 *108:13 *792:29 0
30 *649:26 *792:35 0
31 *671:21 *792:31 0.000640935
32 *671:29 *792:31 0.000956387
33 *688:11 *792:15 0.000715128
34 *688:13 *792:29 0.0002881
35 *693:21 *792:31 0.000991792
36 *715:29 *792:29 4.62763e-05
37 *716:35 *792:31 0.000420654
38 *716:39 *792:29 0.000589591
39 *716:39 *792:31 0.000114462
40 *720:17 *792:31 0.00161886
41 *720:29 *792:29 4.93791e-05
42 *720:29 *792:31 0.000100543
43 *723:33 *792:29 2.6376e-06
44 *728:31 *792:29 0.000130718
45 *753:13 *792:39 0.0112978
46 *756:39 *792:47 0
47 *766:15 *792:31 0.000373014
48 *767:13 *792:39 0
49 *768:13 *792:39 5.22017e-05
50 *770:15 *792:13 1.13061e-05
51 *770:15 *792:15 0.0467547
52 *770:27 *792:31 0.000168578
53 *770:47 *792:43 0.00372213
54 *776:13 *792:39 9.03364e-06
55 *778:13 *792:39 0.000204103
56 *784:13 *792:39 0.0505397
57 *787:13 *792:39 0.000907981
58 *790:15 *792:13 7.12591e-05
59 *790:15 *792:15 3.04773e-05
60 *790:17 *792:15 0.0455119
61 *790:27 *792:15 3.58845e-05
*RES
1 *988:analog_ctrl[22] *792:13 9.53508 
2 *792:13 *792:15 89.1856 
3 *792:15 *792:29 42.2536 
4 *792:29 *792:31 469.904 
5 *792:31 *792:33 15 
6 *792:33 *792:35 279.746 
7 *792:35 *792:37 15 
8 *792:37 *792:39 586.629 
9 *792:39 *792:41 15 
10 *792:41 *792:43 375.529 
11 *792:43 *792:45 15 
12 *792:45 *792:47 42.5471 
13 *792:47 *984:BUF_CHOP_EN 16.7089 
*END

*D_NET *793 0.281884
*CONN
*I *984:bypass_p I *D CF_ADC_DSM20
*I *988:analog_ctrl[23] O *D soc_sys
*CAP
1 *984:bypass_p 0.000191291
2 *988:analog_ctrl[23] 7.48937e-05
3 *793:17 0.0108625
4 *793:15 0.0106712
5 *793:13 0.0857516
6 *793:11 0.0857516
7 *793:9 0.00826805
8 *793:7 0.00834295
9 *984:bypass_p *984:disable_mod 3.88869e-05
10 *984:bypass_p *984:dig_test_sel[0] 0.000142382
11 *793:17 *984:RESET1 7.5177e-05
12 *793:17 *984:dig_test_sel[1] 0.000127003
13 *793:17 *795:17 0.0320759
14 *793:17 *798:17 3.0444e-05
15 *793:17 *802:17 0.0358198
16 *793:17 *806:17 0.000770377
17 *121:14 *793:9 0.00288956
18 *704:17 *793:17 0
19 *755:33 *793:17 0
*RES
1 *988:analog_ctrl[23] *793:7 1.25321 
2 *793:7 *793:9 187.485 
3 *793:9 *793:11 8 
4 *793:11 *793:13 272.382 
5 *793:13 *793:15 8 
6 *793:15 *793:17 86.3707 
7 *793:17 *984:bypass_p 16.8157 
*END

*D_NET *794 0.489796
*CONN
*I *984:bypass_n I *D CF_ADC_DSM20
*I *988:analog_ctrl[24] O *D soc_sys
*CAP
1 *984:bypass_n 5.28965e-05
2 *988:analog_ctrl[24] 0.000122389
3 *794:61 0.0023455
4 *794:59 0.0022926
5 *794:57 0.00110863
6 *794:49 0.0092274
7 *794:47 0.00811877
8 *794:45 0.0139722
9 *794:43 0.0139722
10 *794:41 0.0159639
11 *794:39 0.0160989
12 *794:29 0.00905709
13 *794:27 0.00984464
14 *794:13 0.0133051
15 *794:11 0.012505
16 *984:bypass_n *984:qlev[0] 0.000131026
17 *794:13 *805:13 0.040883
18 *794:13 *828:13 0.00045977
19 *794:13 *829:13 0.00552773
20 *794:27 *808:13 0.00147094
21 *794:27 *829:23 6.56182e-06
22 *794:29 *808:23 0.000180268
23 *794:45 *809:13 0.0113537
24 *794:45 *873:13 0
25 *794:57 *820:17 0
26 *794:61 *808:33 0.000700412
27 *15:23 *984:bypass_n 1.94021e-05
28 *20:11 *794:45 0
29 *31:13 *794:45 0.0363993
30 *40:17 *794:57 0.000292422
31 *108:13 *794:27 0
32 *652:17 *794:45 0.0514574
33 *671:13 *794:13 0.00175089
34 *671:21 *794:27 0.000257213
35 *671:21 *794:29 0.00387801
36 *671:29 *794:29 0.00153947
37 *671:35 *794:39 4.9256e-05
38 *687:9 *794:27 0
39 *693:21 *794:27 0.000113547
40 *693:39 *794:39 0.00011575
41 *715:29 *794:13 0.0097234
42 *715:29 *794:27 8.21456e-06
43 *715:33 *794:29 5.59202e-05
44 *720:29 *794:29 0.000245109
45 *728:17 *794:29 0.00272087
46 *765:17 *794:49 0.00485789
47 *766:15 *794:39 0.000299911
48 *766:25 *794:57 0.00218065
49 *770:27 *794:29 0.0414703
50 *770:47 *794:49 0.0245958
51 *771:17 *794:29 0.00140195
52 *771:17 *794:39 0.000570943
53 *775:17 *794:49 0.00556255
54 *783:29 *794:57 0
55 *786:13 *794:45 0.0184787
56 *788:9 *794:39 1.98125e-05
57 *789:9 *794:41 0.00586887
58 *790:17 *794:13 0.0459284
59 *790:41 *794:49 0.027477
60 *791:21 *794:45 0.00262137
61 *792:29 *794:27 0.000308101
62 *792:31 *794:29 0.0108274
*RES
1 *988:analog_ctrl[24] *794:11 10.1025 
2 *794:11 *794:13 85.6651 
3 *794:13 *794:27 44.3827 
4 *794:27 *794:29 457.516 
5 *794:29 *794:39 32.7167 
6 *794:39 *794:41 49.8139 
7 *794:41 *794:43 8 
8 *794:43 *794:45 107.389 
9 *794:45 *794:47 8 
10 *794:47 *794:49 65.2997 
11 *794:49 *794:57 44.411 
12 *794:57 *794:59 15 
13 *794:59 *794:61 38.7357 
14 *794:61 *984:bypass_n 16.7089 
*END

*D_NET *795 0.337985
*CONN
*I *984:ODET I *D CF_ADC_DSM20
*I *988:analog_ctrl[25] O *D soc_sys
*CAP
1 *984:ODET 3.96439e-05
2 *988:analog_ctrl[25] 7.48937e-05
3 *795:17 0.0126354
4 *795:15 0.0125957
5 *795:13 0.0653631
6 *795:11 0.0653631
7 *795:9 0.0104582
8 *795:7 0.0105331
9 *984:ODET *984:ODET_TH[0] 1.56703e-05
10 *984:ODET *984:itrim_comp[1] 5.16392e-06
11 *795:13 *804:13 0
12 *795:13 *874:13 0.10516
13 *795:17 *798:17 0.0100063
14 *795:17 *806:17 0.00716886
15 *15:23 *795:17 0.00127379
16 *129:29 *795:9 0.00507681
17 *654:17 *795:13 0
18 *660:12 *795:17 0.000138783
19 *704:17 *795:17 0
20 *793:17 *795:17 0.0320759
*RES
1 *988:analog_ctrl[25] *795:7 1.25321 
2 *795:7 *795:9 237.489 
3 *795:9 *795:11 8 
4 *795:11 *795:13 270.665 
5 *795:13 *795:15 8 
6 *795:15 *795:17 76.7517 
7 *795:17 *984:ODET 16.0989 
*END

*D_NET *796 0.283182
*CONN
*I *984:TESTMODE I *D CF_ADC_DSM20
*I *988:analog_ctrl[26] O *D soc_sys
*CAP
1 *984:TESTMODE 0.000250967
2 *988:analog_ctrl[26] 7.48937e-05
3 *796:21 0.00142419
4 *796:13 0.0419341
5 *796:11 0.0407609
6 *796:9 0.042164
7 *796:7 0.0422389
8 *20:55 *984:TESTMODE 0.000223402
9 *77:16 *796:9 0.016994
10 *720:37 *796:13 0.000294933
11 *732:33 *796:13 0.0118496
12 *737:13 *796:13 0
13 *759:13 *796:13 0.0648129
14 *783:33 *796:13 0.0099924
15 *785:53 *796:13 0.0101673
16 *787:21 *984:TESTMODE 0
*RES
1 *988:analog_ctrl[26] *796:7 1.25321 
2 *796:7 *796:9 971.179 
3 *796:9 *796:11 15 
4 *796:11 *796:13 1351.3 
5 *796:13 *796:21 47.8971 
6 *796:21 *984:TESTMODE 5.31321 
*END

*D_NET *797 0.504978
*CONN
*I *984:RESET1 I *D CF_ADC_DSM20
*I *988:analog_ctrl[27] O *D soc_sys
*CAP
1 *984:RESET1 0.00737762
2 *988:analog_ctrl[27] 7.50142e-05
3 *797:17 0.0151986
4 *797:15 0.00782096
5 *797:13 0.0300545
6 *797:11 0.0300545
7 *797:9 0.0126905
8 *797:7 0.0127656
9 *984:RESET1 *984:FCHOP[0] 4.84654e-06
10 *984:RESET1 *984:disable_mod 0.000101554
11 *984:RESET1 *984:dig_test_sel[1] 0.000137954
12 *984:RESET1 *814:17 0.000422434
13 *984:RESET1 *820:17 0.000469197
14 *984:RESET1 *820:29 0.000203107
15 *797:13 *798:13 0.144379
16 *797:13 *810:13 0.00120927
17 *797:13 *814:13 0.000223638
18 *797:13 *820:13 5.57578e-05
19 *797:13 *875:13 0
20 *797:17 *814:17 0.00445318
21 *797:17 *820:17 0.00516461
22 *39:9 *797:13 0
23 *40:17 *984:RESET1 0.0016491
24 *40:17 *797:17 0.0257706
25 *76:25 *797:9 0.00855745
26 *738:13 *797:13 0.00238263
27 *743:13 *797:13 0.00474708
28 *755:33 *984:RESET1 0
29 *781:13 *797:13 0.148001
30 *781:17 *984:RESET1 0.00220081
31 *781:17 *797:17 0.0140095
32 *791:21 *797:13 0.0247223
33 *793:17 *984:RESET1 7.5177e-05
*RES
1 *988:analog_ctrl[27] *797:7 1.25321 
2 *797:7 *797:9 288.198 
3 *797:9 *797:11 8 
4 *797:11 *797:13 275.817 
5 *797:13 *797:15 8 
6 *797:15 *797:17 61.1781 
7 *797:17 *984:RESET1 27.0523 
*END

*D_NET *798 0.463651
*CONN
*I *984:RESET2 I *D CF_ADC_DSM20
*I *988:analog_ctrl[28] O *D soc_sys
*CAP
1 *984:RESET2 9.88319e-05
2 *988:analog_ctrl[28] 7.50142e-05
3 *798:17 0.0116427
4 *798:15 0.0115439
5 *798:13 0.0283192
6 *798:11 0.0283192
7 *798:9 0.0127328
8 *798:7 0.0128078
9 *984:RESET2 *984:ODET_TH[0] 8.86933e-05
10 *984:RESET2 *984:RESET3 0.000104888
11 *984:RESET2 *984:disable_mod 6.48969e-05
12 *798:13 *807:13 0.000523594
13 *798:13 *810:13 0.138802
14 *798:17 *984:FCHOP[1] 0.000351609
15 *798:17 *807:17 0.00392837
16 *798:17 *807:21 0.000872605
17 *798:17 *815:17 0.00527347
18 *798:17 *819:17 0.00459853
19 *15:23 *798:17 0.000634897
20 *107:29 *798:9 0.00855745
21 *704:17 *798:17 0.0143682
22 *731:13 *798:13 0.00341509
23 *755:33 *798:17 0.00192602
24 *791:21 *798:13 0.0201854
25 *793:17 *798:17 3.0444e-05
26 *795:17 *798:17 0.0100063
27 *797:13 *798:13 0.144379
*RES
1 *988:analog_ctrl[28] *798:7 1.25321 
2 *798:7 *798:9 288.902 
3 *798:9 *798:11 8 
4 *798:11 *798:13 268.346 
5 *798:13 *798:15 8 
6 *798:15 *798:17 68.0475 
7 *798:17 *984:RESET2 16.4424 
*END

*D_NET *799 0.383222
*CONN
*I *984:RESET3 I *D CF_ADC_DSM20
*I *988:analog_ctrl[29] O *D soc_sys
*CAP
1 *984:RESET3 0.000352107
2 *988:analog_ctrl[29] 7.48937e-05
3 *799:17 0.0160998
4 *799:15 0.0157477
5 *799:13 0.05745
6 *799:11 0.05745
7 *799:9 0.00334424
8 *799:7 0.00341914
9 *984:RESET3 *984:ODET_TH[1] 9.77894e-06
10 *984:RESET3 *984:ODET_TH[0] 1.68927e-05
11 *984:RESET3 *984:disable_mod 0.000378067
12 *984:RESET3 *984:dig_test_sel[2] 4.09873e-05
13 *984:RESET3 *814:29 2.83426e-05
14 *799:13 *813:13 0
15 *799:13 *844:21 0.13978
16 *799:17 *804:17 0.0324256
17 *799:17 *812:17 0.00020134
18 *799:17 *813:17 0.00122731
19 *984:RESET2 *984:RESET3 0.000104888
20 *15:23 *984:RESET3 2.14724e-05
21 *653:23 *799:17 0.00164609
22 *654:13 *799:17 0.00494998
23 *704:17 *799:17 0.0430989
24 *786:17 *799:17 0.00535441
*RES
1 *988:analog_ctrl[29] *799:7 1.25321 
2 *799:7 *799:9 74.095 
3 *799:9 *799:11 8 
4 *799:11 *799:13 267.917 
5 *799:13 *799:15 8 
6 *799:15 *799:17 106.934 
7 *799:17 *984:RESET3 18.4637 
*END

*D_NET *800 0.284096
*CONN
*I *986:disable_p I *D CF_BUF_HIZ
*I *988:analog_ctrl[2] O *D soc_sys
*CAP
1 *986:disable_p 1.28542e-05
2 *988:analog_ctrl[2] 0.00129192
3 *800:25 0.00471569
4 *800:23 0.00470284
5 *800:21 0.119737
6 *800:19 0.123067
7 *800:15 0.00462196
8 *800:15 *811:15 0.000767952
9 *800:15 *844:15 0.000313338
10 *800:25 *986:disable_n 0.00618786
11 *986:enable_hv *800:25 0
12 *51:11 *800:19 0.0117056
13 *88:12 *800:19 0.00639734
14 *108:13 *800:15 0.000384837
15 *671:13 *800:15 0.000190023
*RES
1 *988:analog_ctrl[2] *800:15 26.7205 
2 *800:15 *800:19 35.7275 
3 *800:19 *800:21 389.504 
4 *800:21 *800:23 8 
5 *800:23 *800:25 152.271 
6 *800:25 *986:disable_p 0.310714 
*END

*D_NET *801 0.410378
*CONN
*I *984:RESET_DEC_INPUT I *D CF_ADC_DSM20
*I *988:analog_ctrl[30] O *D soc_sys
*CAP
1 *984:RESET_DEC_INPUT 0.000485046
2 *988:analog_ctrl[30] 7.48937e-05
3 *801:17 0.0140821
4 *801:15 0.0135971
5 *801:13 0.0454212
6 *801:11 0.0454212
7 *801:9 0.0133433
8 *801:7 0.0134182
9 *984:RESET_DEC_INPUT *984:FCHOP[1] 4.73332e-05
10 *984:RESET_DEC_INPUT *984:itrim_comp[1] 0.000476537
11 *984:RESET_DEC_INPUT *984:BUF_FCHOP[1] 0.000155404
12 *984:RESET_DEC_INPUT *984:BUF_FCHOP[0] 6.68101e-05
13 *984:RESET_DEC_INPUT *984:FCHOP[2] 0.000384737
14 *801:13 *812:13 0.139092
15 *801:13 *816:13 0
16 *801:17 *804:17 2.48388e-05
17 *801:17 *812:17 0.027045
18 *801:17 *816:17 0.00536597
19 *801:17 *817:17 0.00467919
20 *104:29 *801:13 0.0378562
21 *658:15 *801:17 0.00401439
22 *658:19 *801:13 4.06794e-05
23 *725:13 *801:13 0.00221219
24 *730:13 *801:13 0.0034788
25 *733:15 *801:13 0.0172145
26 *741:13 *801:13 0
27 *779:13 *801:13 0.00756698
28 *784:17 *801:17 0.00326457
29 *789:13 *801:13 0.0115483
*RES
1 *988:analog_ctrl[30] *801:7 1.25321 
2 *801:7 *801:9 302.284 
3 *801:9 *801:11 8 
4 *801:11 *801:13 267.488 
5 *801:13 *801:15 8 
6 *801:15 *801:17 64.6651 
7 *801:17 *984:RESET_DEC_INPUT 20.2749 
*END

*D_NET *802 0.262611
*CONN
*I *984:FCHOP[0] I *D CF_ADC_DSM20
*I *988:analog_ctrl[31] O *D soc_sys
*CAP
1 *984:FCHOP[0] 4.45133e-05
2 *988:analog_ctrl[31] 7.48937e-05
3 *802:17 0.0220067
4 *802:15 0.0219621
5 *802:13 0.0819436
6 *802:11 0.0819436
7 *802:9 0.00489445
8 *802:7 0.00496935
9 *802:17 *984:dig_test_sel[1] 0.0013358
10 *802:17 *806:17 0.00102271
11 *802:17 *874:17 0
12 *984:RESET1 *984:FCHOP[0] 4.84654e-06
13 *677:15 *802:13 0.00658829
14 *704:17 *802:17 0
15 *793:17 *802:17 0.0358198
*RES
1 *988:analog_ctrl[31] *802:7 1.25321 
2 *802:7 *802:9 108.605 
3 *802:9 *802:11 8 
4 *802:11 *802:13 264.654 
5 *802:13 *802:15 8 
6 *802:15 *802:17 99.9003 
7 *802:17 *984:FCHOP[0] 16.0989 
*END

*D_NET *803 0.447489
*CONN
*I *984:FCHOP[1] I *D CF_ADC_DSM20
*I *988:analog_ctrl[32] O *D soc_sys
*CAP
1 *984:FCHOP[1] 0.000800968
2 *988:analog_ctrl[32] 7.50142e-05
3 *803:23 0.00131116
4 *803:17 0.00566944
5 *803:15 0.00515926
6 *803:13 0.0346671
7 *803:11 0.0346671
8 *803:9 0.0124311
9 *803:7 0.0125061
10 *984:FCHOP[1] *984:ODET_TH[4] 3.46806e-05
11 *984:FCHOP[1] *984:ODET_TH[2] 0
12 *984:FCHOP[1] *984:BUF_FCHOP[1] 1.4884e-05
13 *984:FCHOP[1] *984:FCHOP[2] 8.17502e-05
14 *984:FCHOP[1] *807:21 0.00251327
15 *803:13 *809:13 0.13938
16 *803:13 *818:13 0
17 *803:13 *820:13 0
18 *803:13 *872:21 0.110419
19 *803:17 *807:17 0.0240719
20 *803:17 *815:17 0.000167212
21 *803:23 *807:21 0.000792576
22 *984:RESET_DEC_INPUT *984:FCHOP[1] 4.73332e-05
23 *109:14 *803:9 0.00832612
24 *651:10 *984:FCHOP[1] 0.000360141
25 *651:10 *803:17 0.0127408
26 *651:10 *803:23 0.00226468
27 *653:15 *984:FCHOP[1] 0.00157695
28 *704:17 *803:17 0.00392629
29 *704:17 *803:23 0.00047177
30 *767:13 *803:13 0.0132808
31 *768:13 *803:13 0.00997674
32 *781:13 *803:13 0
33 *791:21 *803:13 0.00940367
34 *798:17 *984:FCHOP[1] 0.000351609
*RES
1 *988:analog_ctrl[32] *803:7 1.25321 
2 *803:7 *803:9 281.859 
3 *803:9 *803:11 8 
4 *803:11 *803:13 264.783 
5 *803:13 *803:15 8 
6 *803:15 *803:17 317.032 
7 *803:17 *803:23 30.45 
8 *803:23 *984:FCHOP[1] 38.2075 
*END

*D_NET *804 0.281675
*CONN
*I *984:FCHOP[2] I *D CF_ADC_DSM20
*I *988:analog_ctrl[33] O *D soc_sys
*CAP
1 *984:FCHOP[2] 0.000390842
2 *988:analog_ctrl[33] 7.50142e-05
3 *804:17 0.0110996
4 *804:15 0.0107088
5 *804:13 0.0832714
6 *804:11 0.0832714
7 *804:9 0.0104384
8 *804:7 0.0105134
9 *984:FCHOP[2] *984:itrim_comp[1] 6.34683e-05
10 *984:FCHOP[2] *984:BUF_FCHOP[0] 0.000459333
11 *804:17 *812:17 0.0270876
12 *804:17 *813:17 0.000422095
13 *984:FCHOP[1] *984:FCHOP[2] 8.17502e-05
14 *984:RESET_DEC_INPUT *984:FCHOP[2] 0.000384737
15 *651:10 *804:17 0.000369831
16 *652:13 *804:17 0.00467919
17 *653:23 *804:17 0.00573604
18 *757:37 *804:17 0.000171752
19 *795:13 *804:13 0
20 *799:17 *804:17 0.0324256
21 *801:17 *804:17 2.48388e-05
*RES
1 *988:analog_ctrl[33] *804:7 1.25321 
2 *804:7 *804:9 230.446 
3 *804:9 *804:11 8 
4 *804:11 *804:13 264.311 
5 *804:13 *804:15 8 
6 *804:15 *804:17 77.7392 
7 *804:17 *984:FCHOP[2] 18.3558 
*END

*D_NET *805 0.465929
*CONN
*I *984:BUF_FCHOP[0] I *D CF_ADC_DSM20
*I *988:analog_ctrl[34] O *D soc_sys
*CAP
1 *984:BUF_FCHOP[0] 0.00205091
2 *988:analog_ctrl[34] 0.000166506
3 *805:37 0.0233406
4 *805:35 0.0214645
5 *805:25 0.0141044
6 *805:23 0.0146213
7 *805:13 0.00948004
8 *805:11 0.00895484
9 *984:BUF_FCHOP[0] *984:ODET_TH[0] 0.000116248
10 *984:BUF_FCHOP[0] *984:itrim_comp[1] 0.000294401
11 *984:BUF_FCHOP[0] *984:itrim_comp[0] 0.00017246
12 *984:BUF_FCHOP[0] *814:29 0.000366178
13 *805:13 *808:13 0.0408702
14 *805:13 *808:23 3.13273e-05
15 *805:13 *866:13 0.00735031
16 *805:23 *808:23 0.00182343
17 *805:25 *808:25 0
18 *805:37 *810:17 0.0153932
19 *984:RESET_DEC_INPUT *984:BUF_FCHOP[0] 6.68101e-05
20 *984:FCHOP[2] *984:BUF_FCHOP[0] 0.000459333
21 *15:23 *984:BUF_FCHOP[0] 0.000183893
22 *108:13 *805:35 0
23 *648:17 *805:25 0.0113677
24 *667:23 *805:25 0.0428388
25 *671:13 *805:13 0.000803612
26 *671:29 *805:25 0.00801152
27 *693:41 *805:37 0.00797266
28 *711:25 *805:23 7.57281e-06
29 *711:25 *805:25 0.000160236
30 *715:29 *805:13 0.00873532
31 *715:33 *805:25 0.0927741
32 *715:45 *805:37 0
33 *723:31 *805:23 2.19615e-06
34 *728:17 *805:25 0.000147467
35 *728:31 *805:23 0.00159587
36 *751:17 *805:37 0.00552788
37 *754:17 *805:35 3.55049e-05
38 *760:19 *805:35 0.000103868
39 *760:21 *805:37 0.00252964
40 *761:17 *805:37 0.00482037
41 *762:19 *805:37 0.00043944
42 *770:27 *805:23 0.000156142
43 *770:27 *805:25 0.0450317
44 *771:17 *805:25 0.000182169
45 *790:17 *805:13 2.1933e-05
46 *790:27 *805:13 0.00156907
47 *790:27 *805:23 8.23496e-05
48 *790:29 *805:25 0.000362375
49 *791:23 *805:37 0.0284554
50 *794:13 *805:13 0.040883
*RES
1 *988:analog_ctrl[34] *805:11 10.8068 
2 *805:11 *805:13 79.268 
3 *805:13 *805:23 26.9517 
4 *805:23 *805:25 1022.56 
5 *805:25 *805:35 32.6482 
6 *805:35 *805:37 118.739 
7 *805:37 *984:BUF_FCHOP[0] 21.2659 
*END

*D_NET *806 0.255222
*CONN
*I *984:BUF_FCHOP[1] I *D CF_ADC_DSM20
*I *988:analog_ctrl[35] O *D soc_sys
*CAP
1 *984:BUF_FCHOP[1] 0.000609505
2 *988:analog_ctrl[35] 7.48937e-05
3 *806:17 0.0175707
4 *806:15 0.0169612
5 *806:13 0.0822202
6 *806:11 0.0822202
7 *806:9 0.00585721
8 *806:7 0.0059321
9 *984:BUF_FCHOP[1] *984:BUF_FCHOP[2] 8.95435e-05
10 *984:BUF_FCHOP[1] *807:21 0.000979448
11 *806:17 *807:21 3.34818e-06
12 *806:17 *819:17 0.0307267
13 *984:FCHOP[1] *984:BUF_FCHOP[1] 1.4884e-05
14 *984:SIGN *984:BUF_FCHOP[1] 2.56923e-05
15 *984:vpwr_cp *984:BUF_FCHOP[1] 0.000106552
16 *984:phi2_buffer *984:BUF_FCHOP[1] 1.76479e-05
17 *984:MODINPUT *984:BUF_FCHOP[1] 4.89546e-05
18 *984:BUF_CHOP_EN *984:BUF_FCHOP[1] 3.43346e-05
19 *984:RESET_DEC_INPUT *984:BUF_FCHOP[1] 0.000155404
20 *15:23 *806:17 4.92808e-05
21 *116:35 *806:9 0.00246038
22 *651:10 *806:17 0
23 *658:13 *984:BUF_FCHOP[1] 9.03778e-05
24 *669:13 *984:BUF_FCHOP[1] 1.14178e-05
25 *793:17 *806:17 0.000770377
26 *795:17 *806:17 0.00716886
27 *802:17 *806:17 0.00102271
*RES
1 *988:analog_ctrl[35] *806:7 1.25321 
2 *806:7 *806:9 130.438 
3 *806:9 *806:11 8 
4 *806:11 *806:13 261.52 
5 *806:13 *806:15 8 
6 *806:15 *806:17 515.858 
7 *806:17 *984:BUF_FCHOP[1] 47.5761 
*END

*D_NET *807 0.347695
*CONN
*I *984:BUF_FCHOP[2] I *D CF_ADC_DSM20
*I *988:analog_ctrl[36] O *D soc_sys
*CAP
1 *984:BUF_FCHOP[2] 0.000116058
2 *988:analog_ctrl[36] 7.48937e-05
3 *807:21 0.00109767
4 *807:19 0.00100897
5 *807:17 0.00478213
6 *807:15 0.00475477
7 *807:13 0.0501982
8 *807:11 0.0501982
9 *807:9 0.0129073
10 *807:7 0.0129822
11 *984:BUF_FCHOP[2] *984:ODET_TH[4] 0
12 *984:BUF_FCHOP[2] *984:ODET_TH[2] 0
13 *807:13 *810:13 0.000792819
14 *807:13 *814:13 0.137366
15 *807:13 *816:13 0
16 *807:17 *815:17 0.0124393
17 *807:21 *815:17 0.00371549
18 *807:21 *819:17 5.79413e-06
19 *984:FCHOP[1] *807:21 0.00251327
20 *984:vpwr_cp *807:21 1.12487e-05
21 *984:phi2_buffer *984:BUF_FCHOP[2] 3.70553e-06
22 *984:BUF_CHOP_EN *984:BUF_FCHOP[2] 8.53907e-05
23 *984:BUF_FCHOP[1] *984:BUF_FCHOP[2] 8.95435e-05
24 *984:BUF_FCHOP[1] *807:21 0.000979448
25 *39:9 *807:13 0.00975329
26 *66:17 *807:13 8.08618e-06
27 *791:21 *807:13 0.0115243
28 *792:47 *984:BUF_FCHOP[2] 9.41704e-05
29 *798:13 *807:13 0.000523594
30 *798:17 *807:17 0.00392837
31 *798:17 *807:21 0.000872605
32 *803:17 *807:17 0.0240719
33 *803:23 *807:21 0.000792576
34 *806:17 *807:21 3.34818e-06
*RES
1 *988:analog_ctrl[36] *807:7 1.25321 
2 *807:7 *807:9 291.015 
3 *807:9 *807:11 8 
4 *807:11 *807:13 260.919 
5 *807:13 *807:15 8 
6 *807:15 *807:17 307.876 
7 *807:17 *807:19 0.621429 
8 *807:19 *807:21 61.2832 
9 *807:21 *984:BUF_FCHOP[2] 32.7757 
*END

*D_NET *808 0.386342
*CONN
*I *984:qlev[0] I *D CF_ADC_DSM20
*I *988:analog_ctrl[37] O *D soc_sys
*CAP
1 *984:qlev[0] 9.09928e-05
2 *988:analog_ctrl[37] 0.000216342
3 *808:33 0.00214525
4 *808:31 0.00205426
5 *808:29 0.0172922
6 *808:27 0.0172922
7 *808:25 0.0312526
8 *808:23 0.0322337
9 *808:13 0.00957368
10 *808:11 0.00880893
11 *984:qlev[0] *984:ODET_TH[1] 0
12 *984:qlev[0] *984:dig_test_sel[2] 1.7249e-05
13 *808:13 *824:13 0.0319001
14 *808:13 *829:23 0.000198215
15 *808:29 *814:17 0.00127264
16 *808:29 *820:17 0.000101631
17 *808:33 *820:29 0.00021196
18 *984:bypass_n *984:qlev[0] 0.000131026
19 *988:adc_dout[6] *808:25 0.000182169
20 *15:23 *984:qlev[0] 7.60955e-05
21 *646:18 *808:25 0.00838052
22 *667:23 *808:25 0
23 *671:13 *808:13 0.00616543
24 *671:21 *808:13 0.000359095
25 *671:21 *808:23 0.000156142
26 *671:29 *808:25 0.000957941
27 *671:37 *808:25 0.0546216
28 *693:13 *808:13 0.000485186
29 *711:25 *808:23 5.23252e-05
30 *715:29 *808:13 0.00853638
31 *715:29 *808:23 4.62763e-05
32 *715:33 *808:23 0.000137859
33 *720:29 *808:23 0.0015375
34 *728:17 *808:25 0.000512561
35 *728:31 *808:23 0.000132349
36 *766:15 *808:25 0.000722791
37 *766:25 *808:29 0
38 *769:17 *808:29 0
39 *770:27 *808:25 0
40 *776:17 *808:29 0.000341978
41 *777:17 *808:29 0.000182008
42 *779:17 *808:29 0.0287847
43 *781:17 *808:29 0.00541225
44 *783:29 *808:29 0.0271433
45 *785:41 *808:33 0
46 *790:29 *808:25 0
47 *792:29 *808:13 1.12837e-05
48 *792:29 *808:23 8.96925e-05
49 *792:31 *808:25 0.0414456
50 *794:27 *808:13 0.00147094
51 *794:29 *808:23 0.000180268
52 *794:61 *808:33 0.000700412
53 *805:13 *808:13 0.0408702
54 *805:13 *808:23 3.13273e-05
55 *805:23 *808:23 0.00182343
56 *805:25 *808:25 0
*RES
1 *988:analog_ctrl[37] *808:11 11.5111 
2 *808:11 *808:13 76.2627 
3 *808:13 *808:23 28.8842 
4 *808:23 *808:25 1033.52 
5 *808:25 *808:27 15 
6 *808:27 *808:29 663.582 
7 *808:29 *808:31 15 
8 *808:31 *808:33 35.4007 
9 *808:33 *984:qlev[0] 17.5789 
*END

*D_NET *809 0.442978
*CONN
*I *984:qlev[1] I *D CF_ADC_DSM20
*I *988:analog_ctrl[38] O *D soc_sys
*CAP
1 *984:qlev[1] 0.00277554
2 *988:analog_ctrl[38] 7.48937e-05
3 *809:17 0.00768678
4 *809:15 0.00491125
5 *809:13 0.0477145
6 *809:11 0.0477145
7 *809:9 0.0124481
8 *809:7 0.012523
9 *984:qlev[1] *984:disable_mod 0.000788018
10 *984:qlev[1] *984:dig_test_sel[0] 0.0025964
11 *984:qlev[1] *820:29 0.000550873
12 *809:13 *872:21 0.00184441
13 *809:13 *873:13 0
14 *809:17 *872:25 1.33927e-05
15 *809:17 *875:17 3.20481e-05
16 *20:15 *809:17 0
17 *31:13 *809:13 0.0366033
18 *751:13 *809:13 0.00805358
19 *758:13 *809:17 0
20 *761:13 *809:13 0.0069506
21 *763:13 *809:13 0.0111392
22 *764:25 *809:17 0.0276757
23 *765:13 *809:13 0.0138416
24 *765:17 *809:17 1.523e-05
25 *767:17 *809:17 0.00138748
26 *770:47 *809:17 0.00409798
27 *786:13 *809:13 0.000301394
28 *791:21 *809:13 0.0109934
29 *792:43 *809:17 0.0295115
30 *794:45 *809:13 0.0113537
31 *803:13 *809:13 0.13938
*RES
1 *988:analog_ctrl[38] *809:7 1.25321 
2 *809:7 *809:9 281.155 
3 *809:9 *809:11 8 
4 *809:11 *809:13 266.329 
5 *809:13 *809:15 8 
6 *809:15 *809:17 388.206 
7 *809:17 *984:qlev[1] 24.0528 
*END

*D_NET *810 0.473308
*CONN
*I *984:NONOV[0] I *D CF_ADC_DSM20
*I *988:analog_ctrl[39] O *D soc_sys
*CAP
1 *984:NONOV[0] 0.00243304
2 *988:analog_ctrl[39] 7.48937e-05
3 *810:17 0.0126633
4 *810:15 0.0102303
5 *810:13 0.0275169
6 *810:11 0.0275169
7 *810:9 0.01287
8 *810:7 0.0129449
9 *984:NONOV[0] *984:NONOV[1] 0
10 *810:13 *814:13 0.139725
11 *810:17 *818:17 0.00475336
12 *693:41 *810:17 0.0314971
13 *746:17 *810:17 0.00609453
14 *763:17 *810:17 0.00609453
15 *787:17 *810:17 0.0053145
16 *791:21 *810:13 0.0162071
17 *791:23 *810:17 0.00117456
18 *797:13 *810:13 0.00120927
19 *798:13 *810:13 0.138802
20 *805:37 *810:17 0.0153932
21 *807:13 *810:13 0.000792819
*RES
1 *988:analog_ctrl[39] *810:7 1.25321 
2 *810:7 *810:9 289.606 
3 *810:9 *810:11 8 
4 *810:11 *810:13 262.765 
5 *810:13 *810:15 8 
6 *810:15 *810:17 74.9467 
7 *810:17 *984:NONOV[0] 21.4413 
*END

*D_NET *811 0.373026
*CONN
*I *986:disable_n I *D CF_BUF_HIZ
*I *988:analog_ctrl[3] O *D soc_sys
*CAP
1 *986:disable_n 0.00600848
2 *988:analog_ctrl[3] 0.00097877
3 *811:23 0.00600848
4 *811:21 0.0914666
5 *811:19 0.0914666
6 *811:17 0.0040447
7 *811:15 0.00502347
8 *986:disable_n *986:gain[0] 0
9 *986:disable_n *986:gain[1] 0.0044326
10 *811:15 *844:15 0.000832545
11 *811:17 *855:9 0
12 *811:21 *833:13 0
13 *986:enable_hv *986:disable_n 0
14 *81:24 *811:17 0.00096807
15 *671:13 *811:15 0.00232355
16 *704:13 *811:21 0.152516
17 *800:15 *811:15 0.000767952
18 *800:25 *986:disable_n 0.00618786
*RES
1 *988:analog_ctrl[3] *811:15 25.3548 
2 *811:15 *811:17 90.9979 
3 *811:17 *811:19 8 
4 *811:19 *811:21 388.689 
5 *811:21 *811:23 8 
6 *811:23 *986:disable_n 216.288 
*END

*D_NET *812 0.40829
*CONN
*I *984:NONOV[1] I *D CF_ADC_DSM20
*I *988:analog_ctrl[40] O *D soc_sys
*CAP
1 *984:NONOV[1] 0.00106384
2 *988:analog_ctrl[40] 7.48937e-05
3 *812:17 0.0100842
4 *812:15 0.00902035
5 *812:13 0.0347522
6 *812:11 0.0347522
7 *812:9 0.0134902
8 *812:7 0.0135651
9 *812:13 *817:13 0
10 *812:17 *813:17 0.00536597
11 *984:NONOV[0] *984:NONOV[1] 0
12 *13:14 *812:13 0.022312
13 *15:33 *984:NONOV[1] 0.000225929
14 *652:13 *812:17 0.000451005
15 *658:19 *812:13 0.049745
16 *704:17 *812:17 0.000891841
17 *712:15 *812:13 0.00870281
18 *724:13 *812:13 0.00221219
19 *727:13 *812:13 0.00306473
20 *771:33 *812:17 0.00508984
21 *799:17 *812:17 0.00020134
22 *801:13 *812:13 0.139092
23 *801:17 *812:17 0.027045
24 *804:17 *812:17 0.0270876
*RES
1 *988:analog_ctrl[40] *812:7 1.25321 
2 *812:7 *812:9 302.988 
3 *812:9 *812:11 8 
4 *812:11 *812:13 257.871 
5 *812:13 *812:15 8 
6 *812:15 *812:17 71.3925 
7 *812:17 *984:NONOV[1] 24.2579 
*END

*D_NET *813 0.266166
*CONN
*I *984:ODET_TH[0] I *D CF_ADC_DSM20
*I *988:analog_ctrl[41] O *D soc_sys
*CAP
1 *984:ODET_TH[0] 0.000686608
2 *988:analog_ctrl[41] 7.50142e-05
3 *813:17 0.0124873
4 *813:15 0.0118007
5 *813:13 0.0800507
6 *813:11 0.0800507
7 *813:9 0.00374419
8 *813:7 0.0038192
9 *984:ODET_TH[0] *984:dig_test_sel[0] 8.0191e-06
10 *984:ODET_TH[0] *814:29 0.000315037
11 *813:13 *833:13 0
12 *813:17 *816:17 0.000907626
13 *984:ODET *984:ODET_TH[0] 1.56703e-05
14 *984:RESET2 *984:ODET_TH[0] 8.86933e-05
15 *984:RESET3 *984:ODET_TH[0] 1.68927e-05
16 *984:BUF_FCHOP[0] *984:ODET_TH[0] 0.000116248
17 *15:23 *984:ODET_TH[0] 9.19907e-05
18 *652:13 *813:17 0.0300112
19 *653:23 *813:17 0.00808654
20 *750:13 *813:17 0
21 *771:33 *813:17 0.0267779
22 *784:17 *813:17 0
23 *799:13 *813:13 0
24 *799:17 *813:17 0.00122731
25 *804:17 *813:17 0.000422095
26 *812:17 *813:17 0.00536597
*RES
1 *988:analog_ctrl[41] *813:7 1.25321 
2 *813:7 *813:9 80.4336 
3 *813:9 *813:11 8 
4 *813:11 *813:13 256.969 
5 *813:13 *813:15 8 
6 *813:15 *813:17 583.998 
7 *813:17 *984:ODET_TH[0] 17.8032 
*END

*D_NET *814 0.451975
*CONN
*I *984:ODET_TH[1] I *D CF_ADC_DSM20
*I *988:analog_ctrl[42] O *D soc_sys
*CAP
1 *984:ODET_TH[1] 4.07974e-05
2 *988:analog_ctrl[42] 7.48937e-05
3 *814:29 0.00272644
4 *814:17 0.00725694
5 *814:15 0.00457129
6 *814:13 0.0279836
7 *814:11 0.0279836
8 *814:9 0.0129235
9 *814:7 0.0129984
10 *984:ODET_TH[1] *984:ODET_TH[2] 0.000126746
11 *814:17 *820:17 0.0294288
12 *814:29 *984:ODET_TH[3] 6.71297e-05
13 *814:29 *984:disable_mod 1.61382e-05
14 *814:29 *984:itrim_comp[0] 0
15 *814:29 *820:29 0.00081593
16 *984:ODET_TH[0] *814:29 0.000315037
17 *984:RESET1 *814:17 0.000422434
18 *984:RESET3 *984:ODET_TH[1] 9.77894e-06
19 *984:RESET3 *814:29 2.83426e-05
20 *984:qlev[0] *984:ODET_TH[1] 0
21 *984:BUF_FCHOP[0] *814:29 0.000366178
22 *39:9 *814:13 0.000427216
23 *651:10 *814:29 2.11157e-05
24 *653:15 *814:29 2.31209e-05
25 *783:29 *814:17 0.0268924
26 *785:41 *814:29 6.17437e-06
27 *791:21 *814:13 0.0134091
28 *797:13 *814:13 0.000223638
29 *797:17 *814:17 0.00445318
30 *807:13 *814:13 0.137366
31 *808:29 *814:17 0.00127264
32 *810:13 *814:13 0.139725
*RES
1 *988:analog_ctrl[42] *814:7 1.25321 
2 *814:7 *814:9 290.311 
3 *814:9 *814:11 8 
4 *814:11 *814:13 261.52 
5 *814:13 *814:15 8 
6 *814:15 *814:17 374.825 
7 *814:17 *814:29 40.0007 
8 *814:29 *984:ODET_TH[1] 16.5018 
*END

*D_NET *815 0.257436
*CONN
*I *984:ODET_TH[2] I *D CF_ADC_DSM20
*I *988:analog_ctrl[43] O *D soc_sys
*CAP
1 *984:ODET_TH[2] 0.000201688
2 *988:analog_ctrl[43] 7.50142e-05
3 *815:25 0.00073981
4 *815:17 0.00708246
5 *815:15 0.00654434
6 *815:13 0.0786577
7 *815:11 0.0786577
8 *815:9 0.0114924
9 *815:7 0.0115675
10 *984:ODET_TH[2] *984:ODET_TH[4] 0.000247818
11 *984:ODET_TH[2] *984:ODET_TH[3] 0.000110608
12 *815:13 *877:13 0
13 *815:17 *819:17 0.0301077
14 *984:FCHOP[1] *984:ODET_TH[2] 0
15 *984:ODET_TH[1] *984:ODET_TH[2] 0.000126746
16 *984:vpwr_cp *815:25 8.73233e-05
17 *984:BUF_FCHOP[2] *984:ODET_TH[2] 0
18 *15:23 *984:ODET_TH[2] 0.000116538
19 *40:21 *815:13 0
20 *141:14 *815:9 0.00737782
21 *651:10 *815:17 0
22 *651:10 *815:25 0.00126421
23 *653:15 *815:25 0.00125976
24 *756:39 *984:ODET_TH[2] 2.46906e-05
25 *756:45 *984:ODET_TH[2] 4.15283e-06
26 *757:37 *984:ODET_TH[2] 9.41704e-05
27 *766:21 *815:13 0
28 *798:17 *815:17 0.00527347
29 *803:17 *815:17 0.000167212
30 *807:17 *815:17 0.0124393
31 *807:21 *815:17 0.00371549
*RES
1 *988:analog_ctrl[43] *815:7 1.25321 
2 *815:7 *815:9 259.322 
3 *815:9 *815:11 8 
4 *815:11 *815:13 254.135 
5 *815:13 *815:15 8 
6 *815:15 *815:17 386.622 
7 *815:17 *815:25 49.0986 
8 *815:25 *984:ODET_TH[2] 35.8414 
*END

*D_NET *816 0.371034
*CONN
*I *984:ODET_TH[3] I *D CF_ADC_DSM20
*I *988:analog_ctrl[44] O *D soc_sys
*CAP
1 *984:ODET_TH[3] 0.000434711
2 *988:analog_ctrl[44] 7.50142e-05
3 *816:17 0.00531607
4 *816:15 0.00488136
5 *816:13 0.0591625
6 *816:11 0.0591625
7 *816:9 0.0135859
8 *816:7 0.0136609
9 *984:ODET_TH[3] *984:ODET_TH[4] 0.000385036
10 *816:17 *817:17 0.0276951
11 *984:ODET_TH[2] *984:ODET_TH[3] 0.000110608
12 *20:39 *816:17 0
13 *35:13 *816:13 4.11979e-05
14 *36:9 *816:13 0.0345122
15 *38:17 *816:13 0.000251574
16 *66:17 *816:13 0.000428647
17 *658:15 *816:17 0.000204794
18 *665:31 *816:13 0.00824175
19 *733:15 *816:13 0
20 *734:13 *816:13 0.00803222
21 *739:13 *816:13 0.00466431
22 *741:13 *816:13 0.0766842
23 *746:13 *816:13 0.0049937
24 *747:13 *816:13 0.00564504
25 *771:33 *816:17 0.0267398
26 *777:13 *816:13 0.00961531
27 *784:17 *816:17 0.000139711
28 *785:41 *984:ODET_TH[3] 2.89314e-05
29 *801:13 *816:13 0
30 *801:17 *816:17 0.00536597
31 *807:13 *816:13 0
32 *813:17 *816:17 0.000907626
33 *814:29 *984:ODET_TH[3] 6.71297e-05
*RES
1 *988:analog_ctrl[44] *816:7 1.25321 
2 *816:7 *816:9 297.354 
3 *816:9 *816:11 8 
4 *816:11 *816:13 254.307 
5 *816:13 *816:15 8 
6 *816:15 *816:17 366.55 
7 *816:17 *984:ODET_TH[3] 38.6379 
*END

*D_NET *817 0.321929
*CONN
*I *984:ODET_TH[4] I *D CF_ADC_DSM20
*I *988:analog_ctrl[45] O *D soc_sys
*CAP
1 *984:ODET_TH[4] 0.000430343
2 *988:analog_ctrl[45] 7.48937e-05
3 *817:17 0.00474929
4 *817:15 0.00431895
5 *817:13 0.0560343
6 *817:11 0.0560343
7 *817:9 0.0138486
8 *817:7 0.0139235
9 *817:13 *838:15 0
10 *984:FCHOP[1] *984:ODET_TH[4] 3.46806e-05
11 *984:ODET_TH[3] *984:ODET_TH[4] 0.000385036
12 *984:ODET_TH[2] *984:ODET_TH[4] 0.000247818
13 *984:BUF_FCHOP[2] *984:ODET_TH[4] 0
14 *13:14 *817:13 0
15 *20:39 *817:17 2.2924e-05
16 *70:33 *817:13 0.0338882
17 *649:24 *817:13 9.14716e-05
18 *650:27 *817:13 4.62843e-05
19 *656:65 *817:13 0
20 *658:15 *817:17 0.0270713
21 *660:18 *817:13 0.00687086
22 *661:23 *817:13 0.00186337
23 *684:15 *817:13 0
24 *699:19 *817:13 0
25 *706:19 *817:13 0
26 *744:13 *817:13 0.0115755
27 *749:13 *817:13 0.0230833
28 *752:19 *817:13 0.000364856
29 *752:21 *817:13 0.0341729
30 *756:39 *984:ODET_TH[4] 6.09861e-05
31 *756:39 *817:17 0.000259209
32 *757:37 *984:ODET_TH[4] 0.000101436
33 *801:17 *817:17 0.00467919
34 *812:13 *817:13 0
35 *816:17 *817:17 0.0276951
*RES
1 *988:analog_ctrl[45] *817:7 1.25321 
2 *817:7 *817:9 310.031 
3 *817:9 *817:11 8 
4 *817:11 *817:13 253.449 
5 *817:13 *817:15 8 
6 *817:15 *817:17 353.168 
7 *817:17 *984:ODET_TH[4] 39.6943 
*END

*D_NET *818 0.466433
*CONN
*I *984:dig_test_sel[0] I *D CF_ADC_DSM20
*I *988:analog_ctrl[46] O *D soc_sys
*CAP
1 *984:dig_test_sel[0] 0.00201627
2 *988:analog_ctrl[46] 7.48937e-05
3 *818:17 0.00711751
4 *818:15 0.00510124
5 *818:13 0.0266841
6 *818:11 0.0266841
7 *818:9 0.0127386
8 *818:7 0.0128135
9 *818:13 *820:13 0.13677
10 *984:ODET_TH[0] *984:dig_test_sel[0] 8.0191e-06
11 *984:qlev[1] *984:dig_test_sel[0] 0.0025964
12 *984:bypass_p *984:dig_test_sel[0] 0.000142382
13 *103:14 *818:9 0.0045954
14 *746:17 *818:17 0.029331
15 *763:17 *818:17 0.000334447
16 *772:17 *818:17 0
17 *781:13 *818:13 0.137784
18 *784:25 *818:17 0.000814777
19 *789:17 *818:17 0.0272289
20 *791:21 *818:13 0.0288444
21 *803:13 *818:13 0
22 *810:17 *818:17 0.00475336
*RES
1 *988:analog_ctrl[46] *818:7 1.25321 
2 *818:7 *818:9 286.789 
3 *818:9 *818:11 8 
4 *818:11 *818:13 256.282 
5 *818:13 *818:15 8 
6 *818:15 *818:17 383.276 
7 *818:17 *984:dig_test_sel[0] 21.9369 
*END

*D_NET *819 0.260284
*CONN
*I *984:dig_test_sel[1] I *D CF_ADC_DSM20
*I *988:analog_ctrl[47] O *D soc_sys
*CAP
1 *984:dig_test_sel[1] 0.00112786
2 *988:analog_ctrl[47] 7.48937e-05
3 *819:17 0.00663156
4 *819:15 0.0055037
5 *819:13 0.0786724
6 *819:11 0.0786724
7 *819:9 0.0111582
8 *819:7 0.0112331
9 *984:dig_test_sel[1] *874:17 0.000119534
10 *984:RESET1 *984:dig_test_sel[1] 0.000137954
11 *15:23 *984:dig_test_sel[1] 5.10636e-05
12 *651:10 *819:17 0
13 *654:17 *819:13 0
14 *660:12 *984:dig_test_sel[1] 0
15 *755:33 *984:dig_test_sel[1] 0
16 *793:17 *984:dig_test_sel[1] 0.000127003
17 *798:17 *819:17 0.00459853
18 *802:17 *984:dig_test_sel[1] 0.0013358
19 *806:17 *819:17 0.0307267
20 *807:21 *819:17 5.79413e-06
21 *815:17 *819:17 0.0301077
*RES
1 *988:analog_ctrl[47] *819:7 1.25321 
2 *819:7 *819:9 251.575 
3 *819:9 *819:11 8 
4 *819:11 *819:13 250.271 
5 *819:13 *819:15 8 
6 *819:15 *819:17 394.545 
7 *819:17 *984:dig_test_sel[1] 37.1557 
*END

*D_NET *820 0.372254
*CONN
*I *984:dig_test_sel[2] I *D CF_ADC_DSM20
*I *988:analog_ctrl[48] O *D soc_sys
*CAP
1 *984:dig_test_sel[2] 6.24481e-05
2 *988:analog_ctrl[48] 7.50142e-05
3 *820:29 0.00252923
4 *820:17 0.0131422
5 *820:15 0.0106754
6 *820:13 0.0396571
7 *820:11 0.0396571
8 *820:9 0.0130321
9 *820:7 0.0131071
10 *820:13 *872:21 0.00027438
11 *820:13 *875:13 0.0106567
12 *820:29 *984:disable_mod 0.000948615
13 *984:RESET1 *820:17 0.000469197
14 *984:RESET1 *820:29 0.000203107
15 *984:RESET3 *984:dig_test_sel[2] 4.09873e-05
16 *984:qlev[0] *984:dig_test_sel[2] 1.7249e-05
17 *984:qlev[1] *820:29 0.000550873
18 *15:23 *984:dig_test_sel[2] 1.15724e-05
19 *652:13 *820:29 4.67137e-05
20 *654:13 *820:29 4.9241e-05
21 *753:13 *820:13 0.0255112
22 *766:25 *820:17 0
23 *781:13 *820:13 0.000291279
24 *783:29 *820:17 7.91187e-05
25 *785:41 *820:29 0
26 *791:21 *820:13 0.0286181
27 *794:57 *820:17 0
28 *797:13 *820:13 5.57578e-05
29 *797:17 *820:17 0.00516461
30 *803:13 *820:13 0
31 *808:29 *820:17 0.000101631
32 *808:33 *820:29 0.00021196
33 *814:17 *820:17 0.0294288
34 *814:29 *820:29 0.00081593
35 *818:13 *820:13 0.13677
*RES
1 *988:analog_ctrl[48] *820:7 1.25321 
2 *820:7 *820:9 286.085 
3 *820:9 *820:11 8 
4 *820:11 *820:13 255.939 
5 *820:13 *820:15 8 
6 *820:15 *820:17 381.164 
7 *820:17 *820:29 42.868 
8 *820:29 *984:dig_test_sel[2] 16.9886 
*END

*D_NET *821 0.327249
*CONN
*I *984:bw[0] I *D CF_ADC_DSM20
*I *988:analog_ctrl[49] O *D soc_sys
*CAP
1 *984:bw[0] 7.235e-05
2 *988:analog_ctrl[49] 0.000550527
3 *821:29 0.0126324
4 *821:27 0.0127102
5 *821:21 0.0214795
6 *821:19 0.0213294
7 *821:17 0.0514195
8 *821:15 0.05197
9 *984:bw[0] *984:bw[1] 6.09486e-05
10 *984:bw[0] *984:bw[3] 6.28383e-05
11 *821:17 *823:9 0.011503
12 *821:27 *823:17 0.000394293
13 *20:55 *821:29 0.000496491
14 *46:25 *821:17 0.000295347
15 *108:13 *821:15 7.7516e-05
16 *671:19 *821:15 2.2154e-05
17 *693:13 *821:15 0.000244632
18 *698:21 *821:29 0.0716609
19 *703:25 *821:29 2.64347e-05
20 *707:21 *821:29 0.0393707
21 *736:13 *821:27 0
22 *742:21 *821:29 0.0308695
*RES
1 *988:analog_ctrl[49] *821:15 23.1999 
2 *821:15 *821:17 170.274 
3 *821:17 *821:19 8 
4 *821:19 *821:21 66.9032 
5 *821:21 *821:27 21.075 
6 *821:27 *821:29 134.094 
7 *821:29 *984:bw[0] 24.3361 
*END

*D_NET *822 0.395875
*CONN
*I *986:bypass_p I *D CF_BUF_HIZ
*I *988:analog_ctrl[4] O *D soc_sys
*CAP
1 *986:bypass_p 3.8428e-05
2 *988:analog_ctrl[4] 0.00208675
3 *822:17 0.0264403
4 *822:15 0.0264019
5 *822:13 0.133525
6 *822:11 0.133525
7 *822:9 0.00208675
8 *23:32 *822:17 0.0191122
9 *126:27 *822:9 0.000855751
10 *651:14 *822:13 0.0517771
11 *657:8 *986:bypass_p 2.68408e-05
*RES
1 *988:analog_ctrl[4] *822:9 45.7682 
2 *822:9 *822:11 8 
3 *822:11 *822:13 461.546 
4 *822:13 *822:15 8 
5 *822:15 *822:17 93.5013 
6 *822:17 *986:bypass_p 16.0989 
*END

*D_NET *823 0.312202
*CONN
*I *984:bw[1] I *D CF_ADC_DSM20
*I *988:analog_ctrl[50] O *D soc_sys
*CAP
1 *984:bw[1] 4.49989e-05
2 *988:analog_ctrl[50] 7.48937e-05
3 *823:21 0.0103936
4 *823:19 0.0103486
5 *823:17 0.00841223
6 *823:15 0.00841223
7 *823:13 0.0182875
8 *823:11 0.0182875
9 *823:9 0.0225371
10 *823:7 0.022612
11 *984:bw[1] *984:bw[2] 0.000127126
12 *984:bw[1] *984:bw[3] 2.6956e-05
13 *823:21 *984:bw[3] 0.000194173
14 *984:bw[0] *984:bw[1] 6.09486e-05
15 *984:SUMCAPIN[3] *984:bw[1] 7.50954e-06
16 *984:SUMCAPIN[3] *823:21 1.89019e-05
17 *984:refsel[9] *823:21 7.74585e-05
18 *657:26 *823:17 0.000559115
19 *657:28 *823:17 0.0179139
20 *700:17 *823:17 0.00727241
21 *702:23 *823:17 0.0351197
22 *705:29 *823:21 0.0676619
23 *707:21 *823:21 0.0133706
24 *717:21 *823:21 4.05745e-05
25 *736:13 *823:17 0
26 *742:21 *823:21 0.0384422
27 *821:17 *823:9 0.011503
28 *821:27 *823:17 0.000394293
*RES
1 *988:analog_ctrl[50] *823:7 1.25321 
2 *823:7 *823:9 509.168 
3 *823:9 *823:11 15 
4 *823:11 *823:13 370.806 
5 *823:13 *823:15 15 
6 *823:15 *823:17 446.31 
7 *823:17 *823:19 15 
8 *823:19 *823:21 743.912 
9 *823:21 *984:bw[1] 1.83321 
*END

*D_NET *824 0.353716
*CONN
*I *984:bw[2] I *D CF_ADC_DSM20
*I *988:analog_ctrl[51] O *D soc_sys
*CAP
1 *984:bw[2] 2.24934e-05
2 *988:analog_ctrl[51] 0.000258432
3 *824:25 0.00169361
4 *824:21 0.0254877
5 *824:19 0.0238166
6 *824:17 0.0398207
7 *824:15 0.0398207
8 *824:13 0.0134446
9 *824:11 0.0137031
10 *824:13 *828:23 1.36509e-05
11 *824:13 *829:23 8.87346e-05
12 *824:13 *837:15 3.46729e-05
13 *824:13 *839:15 0.000277095
14 *824:13 *843:15 0.000264137
15 *824:13 *848:15 0.000494625
16 *824:13 *851:15 0.000298106
17 *824:13 *856:15 0.000276329
18 *824:13 *860:15 0.000512261
19 *824:13 *863:15 0.000321186
20 *824:13 *866:23 0.000151683
21 *824:13 *872:15 3.46729e-05
22 *824:17 *828:25 0.000196029
23 *824:17 *829:25 7.48147e-06
24 *824:17 *870:17 0.0150357
25 *824:21 *828:29 0.0735391
26 *824:25 *825:17 0
27 *984:bw[1] *984:bw[2] 0.000127126
28 *984:SUMCAPIN[1] *824:25 0.000103769
29 *984:refsel[15] *824:25 0
30 *984:SUMCAPIN_EN *984:bw[2] 0.000114326
31 *984:SUMCAPIN_EN *824:25 0.000727149
32 *78:13 *824:21 0.0155743
33 *108:13 *824:13 0
34 *141:18 *824:21 0
35 *671:21 *824:13 0.000277601
36 *672:15 *824:13 0.000435408
37 *676:15 *824:13 0.000917285
38 *678:15 *824:13 1.70365e-05
39 *680:15 *824:13 0.000967765
40 *687:9 *824:17 0.000766394
41 *693:13 *824:13 0.0061006
42 *693:21 *824:13 0.00056677
43 *715:29 *824:13 0.00525062
44 *738:31 *824:25 0
45 *748:21 *824:17 0.0401317
46 *787:29 *824:25 0.000124902
47 *808:13 *824:13 0.0319001
*RES
1 *988:analog_ctrl[51] *824:11 12.2154 
2 *824:11 *824:13 59.4328 
3 *824:13 *824:15 8 
4 *824:15 *824:17 177.128 
5 *824:17 *824:19 8 
6 *824:19 *824:21 140.663 
7 *824:21 *824:25 38.6054 
8 *824:25 *984:bw[2] 16.4811 
*END

*D_NET *825 0.324662
*CONN
*I *984:bw[3] I *D CF_ADC_DSM20
*I *988:analog_ctrl[52] O *D soc_sys
*CAP
1 *984:bw[3] 0.000105555
2 *988:analog_ctrl[52] 7.50142e-05
3 *825:17 0.00231729
4 *825:15 0.00221174
5 *825:13 0.019301
6 *825:11 0.019301
7 *825:9 0.0445914
8 *825:7 0.0446665
9 *825:13 *827:13 0.0998602
10 *984:bw[0] *984:bw[3] 6.28383e-05
11 *984:bw[1] *984:bw[3] 2.6956e-05
12 *19:27 *825:13 0.068665
13 *141:18 *825:13 0.0229397
14 *738:31 *825:17 0.000173783
15 *742:21 *984:bw[3] 0.000141954
16 *742:37 *825:17 2.78989e-05
17 *823:21 *984:bw[3] 0.000194173
18 *824:25 *825:17 0
*RES
1 *988:analog_ctrl[52] *825:7 1.25321 
2 *825:7 *825:9 992.307 
3 *825:9 *825:11 15 
4 *825:11 *825:13 1101.17 
5 *825:13 *825:15 15 
6 *825:15 *825:17 37.4721 
7 *825:17 *984:bw[3] 18.6561 
*END

*D_NET *826 0.294844
*CONN
*I *984:SCANINPUT I *D CF_ADC_DSM20
*I *988:analog_ctrl[53] O *D soc_sys
*CAP
1 *984:SCANINPUT 5.42926e-05
2 *988:analog_ctrl[53] 7.48937e-05
3 *826:17 0.00103288
4 *826:13 0.0471127
5 *826:11 0.0461341
6 *826:9 0.0431204
7 *826:7 0.0431953
8 *984:SCANINPUT *984:SCANMODE 2.17203e-05
9 *984:SCANINPUT *984:SCANCLK 5.33244e-05
10 *984:SCANINPUT *984:SCANEN 0.00011299
11 *826:13 *828:29 0.0406515
12 *826:17 *984:SCANCLK 0.000461632
13 *826:17 *829:33 0.00215502
14 *826:17 *866:41 0.00110074
15 *984:EN_ADWA *826:17 0
16 *18:45 *826:13 0.0695454
17 *662:11 *984:SCANINPUT 1.70074e-05
*RES
1 *988:analog_ctrl[53] *826:7 1.25321 
2 *826:7 *826:9 984.912 
3 *826:9 *826:11 15 
4 *826:11 *826:13 1297.46 
5 *826:13 *826:17 45.0771 
6 *826:17 *984:SCANINPUT 16.8643 
*END

*D_NET *827 0.32536
*CONN
*I *984:SCANMODE I *D CF_ADC_DSM20
*I *988:analog_ctrl[54] O *D soc_sys
*CAP
1 *984:SCANMODE 0.000154611
2 *988:analog_ctrl[54] 7.48937e-05
3 *827:21 0.00201794
4 *827:15 0.00186333
5 *827:13 0.0386219
6 *827:11 0.0386219
7 *827:9 0.0434416
8 *827:7 0.0435165
9 *984:SCANMODE *984:SCANCLK 4.97527e-05
10 *984:SCANMODE *984:SCANEN 7.33817e-06
11 *984:SCANMODE *984:reset_b 0.000125947
12 *827:21 *828:37 0.00173145
13 *827:21 *866:41 0.000322651
14 *984:SCANINPUT *984:SCANMODE 2.17203e-05
15 *19:27 *827:13 0.010363
16 *141:18 *827:13 0.0443143
17 *662:11 *984:SCANMODE 0.000241422
18 *667:17 *827:21 9.28078e-06
19 *825:13 *827:13 0.0998602
*RES
1 *988:analog_ctrl[54] *827:7 1.25321 
2 *827:7 *827:9 991.955 
3 *827:9 *827:11 15 
4 *827:11 *827:13 1290.31 
5 *827:13 *827:15 15 
6 *827:15 *827:21 38.4871 
7 *827:21 *984:SCANMODE 20.4375 
*END

*D_NET *828 0.463417
*CONN
*I *984:SCANCLK I *D CF_ADC_DSM20
*I *988:analog_ctrl[55] O *D soc_sys
*CAP
1 *984:SCANCLK 0.000433137
2 *988:analog_ctrl[55] 0.000162475
3 *828:37 0.00105279
4 *828:29 0.0398994
5 *828:27 0.0392798
6 *828:25 0.0186617
7 *828:23 0.0190664
8 *828:13 0.00490822
9 *828:11 0.00466601
10 *984:SCANCLK *866:41 0.000452903
11 *828:13 *829:13 0.0275247
12 *828:13 *866:13 0.026577
13 *828:23 *829:23 0.000246227
14 *828:25 *829:25 0.0742352
15 *828:37 *866:41 0.00145535
16 *984:SCANINPUT *984:SCANCLK 5.33244e-05
17 *984:SCANMODE *984:SCANCLK 4.97527e-05
18 *984:EN_ADWA *984:SCANCLK 0
19 *14:35 *828:37 6.74969e-06
20 *18:45 *828:29 0.0133951
21 *108:13 *828:23 5.77847e-05
22 *662:11 *984:SCANCLK 5.85112e-06
23 *671:21 *828:13 0
24 *686:9 *828:23 0
25 *687:9 *828:23 0
26 *696:21 *828:29 0
27 *716:45 *828:29 0
28 *733:21 *828:29 0
29 *748:9 *828:13 0.000121302
30 *748:19 *828:23 0.000249204
31 *748:21 *828:25 0.0737079
32 *748:25 *828:29 0
33 *775:21 *828:37 9.58714e-05
34 *794:13 *828:13 0.00045977
35 *824:13 *828:23 1.36509e-05
36 *824:17 *828:25 0.000196029
37 *824:21 *828:29 0.0735391
38 *826:13 *828:29 0.0406515
39 *826:17 *984:SCANCLK 0.000461632
40 *827:21 *828:37 0.00173145
*RES
1 *988:analog_ctrl[55] *828:11 17.6307 
2 *828:11 *828:13 307.441 
3 *828:13 *828:23 35.6284 
4 *828:23 *828:25 176.62 
5 *828:25 *828:27 8 
6 *828:27 *828:29 175.61 
7 *828:29 *828:37 47.3082 
8 *828:37 *984:SCANCLK 38.6482 
*END

*D_NET *829 0.379884
*CONN
*I *984:SCANEN I *D CF_ADC_DSM20
*I *988:analog_ctrl[56] O *D soc_sys
*CAP
1 *984:SCANEN 6.82651e-05
2 *988:analog_ctrl[56] 0.000143216
3 *829:33 0.00157939
4 *829:29 0.0358862
5 *829:27 0.034375
6 *829:25 0.0380345
7 *829:23 0.0383604
8 *829:13 0.00576747
9 *829:11 0.00558483
10 *829:13 *867:13 0.00464967
11 *829:29 *866:29 0.0951058
12 *829:33 *866:41 0.000308342
13 *984:EN_DWA *984:SCANEN 8.55672e-05
14 *984:SCANINPUT *984:SCANEN 0.00011299
15 *984:SCANMODE *984:SCANEN 7.33817e-06
16 *984:EN_ADWA *829:33 0.000403072
17 *108:13 *829:23 0
18 *141:18 *829:29 3.72204e-05
19 *662:11 *984:SCANEN 3.32734e-05
20 *671:21 *829:13 0
21 *748:9 *829:13 0.00890174
22 *748:19 *829:23 0.000424986
23 *748:21 *829:25 2.48388e-05
24 *794:13 *829:13 0.00552773
25 *794:27 *829:23 6.56182e-06
26 *808:13 *829:23 0.000198215
27 *824:13 *829:23 8.87346e-05
28 *824:17 *829:25 7.48147e-06
29 *826:17 *829:33 0.00215502
30 *828:13 *829:13 0.0275247
31 *828:23 *829:23 0.000246227
32 *828:25 *829:25 0.0742352
*RES
1 *988:analog_ctrl[56] *829:11 17.2786 
2 *829:11 *829:13 302.677 
3 *829:13 *829:23 34.6578 
4 *829:23 *829:25 178.524 
5 *829:25 *829:27 8 
6 *829:27 *829:29 175.782 
7 *829:29 *829:33 46.7046 
8 *829:33 *984:SCANEN 17.2164 
*END

*D_NET *830 0.133929
*CONN
*I *985:trimTC[0] I *D CF_BGR
*I *988:analog_ctrl[57] O *D soc_sys
*CAP
1 *985:trimTC[0] 8.85489e-05
2 *988:analog_ctrl[57] 7.48937e-05
3 *830:17 0.00500465
4 *830:15 0.00491611
5 *830:13 0.0105079
6 *830:9 0.0584995
7 *830:7 0.0480665
8 *985:trimTC[0] *985:trimTC[2] 0
9 *985:trimTC[0] *985:trimTC[1] 4.59904e-05
10 *830:17 *985:trimTC[1] 7.78653e-06
11 *830:17 *831:17 0.00671692
12 *830:17 *832:17 0
13 *830:17 *834:17 0
*RES
1 *988:analog_ctrl[57] *830:7 1.25321 
2 *830:7 *830:9 1095.31 
3 *830:9 *830:13 42.1451 
4 *830:13 *830:15 8 
5 *830:15 *830:17 163.539 
6 *830:17 *985:trimTC[0] 1.83321 
*END

*D_NET *831 0.134293
*CONN
*I *985:trimTC[1] I *D CF_BGR
*I *988:analog_ctrl[58] O *D soc_sys
*CAP
1 *985:trimTC[1] 8.83703e-05
2 *988:analog_ctrl[58] 7.48937e-05
3 *831:17 0.0367919
4 *831:15 0.0472182
5 *831:9 0.0256328
6 *831:7 0.0151931
7 *985:trimTC[1] *985:finetune 0
8 *831:15 *850:15 0
9 *831:17 *985:finetune 0
10 *831:17 *870:9 0.00252332
11 *985:trimTC[0] *985:trimTC[1] 4.59904e-05
12 *830:17 *985:trimTC[1] 7.78653e-06
13 *830:17 *831:17 0.00671692
*RES
1 *988:analog_ctrl[58] *831:7 1.25321 
2 *831:7 *831:9 337.498 
3 *831:9 *831:15 49.3723 
4 *831:15 *831:17 921.351 
5 *831:17 *985:trimTC[1] 1.87982 
*END

*D_NET *832 0.138896
*CONN
*I *985:trimTC[2] I *D CF_BGR
*I *988:analog_ctrl[59] O *D soc_sys
*CAP
1 *985:trimTC[2] 8.06974e-05
2 *988:analog_ctrl[59] 7.48937e-05
3 *832:17 0.00266223
4 *832:15 0.0111699
5 *832:9 0.0597194
6 *832:7 0.0512059
7 *985:trimTC[2] *985:trimTC[3] 5.81544e-05
8 *832:15 *847:15 0.00666837
9 *832:15 *856:23 0
10 *832:17 *834:17 0.00725629
11 *985:trimTC[0] *985:trimTC[2] 0
12 *830:17 *832:17 0
*RES
1 *988:analog_ctrl[59] *832:7 1.25321 
2 *832:7 *832:9 1166.44 
3 *832:9 *832:15 47.5691 
4 *832:15 *832:17 92.4064 
5 *832:17 *985:trimTC[2] 1.71929 
*END

*D_NET *833 0.266069
*CONN
*I *986:bypass_n I *D CF_BUF_HIZ
*I *988:analog_ctrl[5] O *D soc_sys
*CAP
1 *986:bypass_n 0.00143974
2 *988:analog_ctrl[5] 5.77701e-05
3 *833:17 0.021279
4 *833:15 0.0198393
5 *833:13 0.107668
6 *833:11 0.107668
7 *833:9 0.00399027
8 *833:7 0.00404804
9 *13:8 *986:bypass_n 5.77328e-05
10 *22:17 *986:bypass_n 2.18413e-05
11 *811:21 *833:13 0
12 *813:13 *833:13 0
*RES
1 *988:analog_ctrl[5] *833:7 1.25321 
2 *833:7 *833:9 87.4764 
3 *833:9 *833:11 8 
4 *833:11 *833:13 341.29 
5 *833:13 *833:15 8 
6 *833:15 *833:17 454.409 
7 *833:17 *986:bypass_n 21.2845 
*END

*D_NET *834 0.137076
*CONN
*I *985:trimTC[3] I *D CF_BGR
*I *988:analog_ctrl[60] O *D soc_sys
*CAP
1 *985:trimTC[3] 8.40259e-05
2 *988:analog_ctrl[60] 7.48937e-05
3 *834:17 0.0289622
4 *834:15 0.0385096
5 *834:9 0.0260218
6 *834:7 0.0164652
7 *985:trimTC[3] *985:trimTC[4] 0
8 *834:17 *835:19 0
9 *834:17 *869:9 0.0196441
10 *834:17 *870:9 0
11 *985:trimTC[2] *985:trimTC[3] 5.81544e-05
12 *830:17 *834:17 0
13 *832:17 *834:17 0.00725629
*RES
1 *988:analog_ctrl[60] *834:7 1.25321 
2 *834:7 *834:9 366.374 
3 *834:9 *834:15 46.5387 
4 *834:15 *834:17 892.475 
5 *834:17 *985:trimTC[3] 1.78143 
*END

*D_NET *835 0.131976
*CONN
*I *985:trimTC[4] I *D CF_BGR
*I *988:analog_ctrl[61] O *D soc_sys
*CAP
1 *985:trimTC[4] 8.82774e-05
2 *988:analog_ctrl[61] 7.48937e-05
3 *835:19 0.00234733
4 *835:15 0.0104216
5 *835:9 0.0611996
6 *835:7 0.053112
7 *985:trimTC[4] *836:17 0
8 *835:15 *837:23 0
9 *835:15 *840:15 0
10 *835:15 *848:23 0.00473225
11 *835:15 *854:15 0
12 *835:19 *836:17 0
13 *835:19 *837:25 0
14 *985:trimTC[3] *985:trimTC[4] 0
15 *834:17 *835:19 0
*RES
1 *988:analog_ctrl[61] *835:7 1.25321 
2 *835:7 *835:9 1209.4 
3 *835:9 *835:15 44.9072 
4 *835:15 *835:19 49.735 
5 *835:19 *985:trimTC[4] 1.48107 
*END

*D_NET *836 0.136778
*CONN
*I *985:trimTC[5] I *D CF_BGR
*I *988:analog_ctrl[62] O *D soc_sys
*CAP
1 *985:trimTC[5] 0.000115802
2 *988:analog_ctrl[62] 7.48937e-05
3 *836:17 0.00474777
4 *836:9 0.0598667
5 *836:7 0.0553096
6 *836:17 *985:finetune 0.00108161
7 *836:17 *985:CurrAbsTrim[0] 0.00415306
8 *836:17 *985:trimTC[6] 1.68334e-05
9 *836:17 *837:25 8.32752e-05
10 *836:17 *853:15 0.00826905
11 *985:trimTC[4] *836:17 0
12 *109:18 *836:17 0.00305925
13 *656:19 *836:17 0
14 *835:19 *836:17 0
*RES
1 *988:analog_ctrl[62] *836:7 1.25321 
2 *836:7 *836:9 1255.18 
3 *836:9 *836:17 48.6083 
4 *836:17 *985:trimTC[5] 1.93161 
*END

*D_NET *837 0.172887
*CONN
*I *985:trimTC[6] I *D CF_BGR
*I *988:analog_ctrl[63] O *D soc_sys
*CAP
1 *985:trimTC[6] 9.72774e-05
2 *988:analog_ctrl[63] 0.000451736
3 *837:25 0.00265417
4 *837:23 0.0105659
5 *837:17 0.0729525
6 *837:15 0.0653952
7 *837:17 *839:17 0.0191306
8 *837:23 *840:15 0.00147236
9 *108:13 *837:15 1.21633e-05
10 *693:19 *837:15 2.05503e-05
11 *824:13 *837:15 3.46729e-05
12 *835:15 *837:23 0
13 *835:19 *837:25 0
14 *836:17 *985:trimTC[6] 1.68334e-05
15 *836:17 *837:25 8.32752e-05
*RES
1 *988:analog_ctrl[63] *837:15 22.513 
2 *837:15 *837:17 215.843 
3 *837:17 *837:23 42.2024 
4 *837:23 *837:25 56.4879 
5 *837:25 *985:trimTC[6] 1.84875 
*END

*D_NET *838 0.141389
*CONN
*I *985:trimCurr[0] I *D CF_BGR
*I *988:analog_ctrl[64] O *D soc_sys
*CAP
1 *985:trimCurr[0] 0.000747618
2 *988:analog_ctrl[64] 7.48937e-05
3 *838:17 0.0284872
4 *838:15 0.032914
5 *838:9 0.0193707
6 *838:7 0.0142711
7 *985:trimCurr[0] *985:trimCurr[2] 0.000617032
8 *985:trimCurr[0] *985:trimCurr[1] 0
9 *985:trimCurr[0] *985:CurrAbsTrim[1] 0
10 *985:trimCurr[0] *841:17 9.27279e-06
11 *838:9 *839:17 0
12 *838:17 *840:17 0.00311715
13 *838:17 *841:17 0.0128096
14 *838:17 *842:17 0.0279486
15 *838:17 *847:17 0
16 *103:14 *838:17 0.00102229
17 *817:13 *838:15 0
*RES
1 *988:analog_ctrl[64] *838:7 1.25321 
2 *838:7 *838:9 316.369 
3 *838:9 *838:15 33.1435 
4 *838:15 *838:17 926.985 
5 *838:17 *985:trimCurr[0] 19.1245 
*END

*D_NET *839 0.14679
*CONN
*I *985:trimCurr[1] I *D CF_BGR
*I *988:analog_ctrl[65] O *D soc_sys
*CAP
1 *985:trimCurr[1] 0.00273127
2 *988:analog_ctrl[65] 0.000671378
3 *839:17 0.0574168
4 *839:15 0.0553569
5 *985:trimCurr[1] *985:trimCurr[5] 0.00877915
6 *985:trimCurr[1] *985:CurrAbsTrim[1] 0.00069112
7 *985:trimCurr[1] *849:15 0.00149507
8 *985:trimCurr[1] *861:13 0
9 *985:trimCurr[0] *985:trimCurr[1] 0
10 *108:13 *839:15 0.000138316
11 *715:29 *839:15 0.000101838
12 *824:13 *839:15 0.000277095
13 *837:17 *839:17 0.0191306
14 *838:9 *839:17 0
*RES
1 *988:analog_ctrl[65] *839:15 23.7581 
2 *839:15 *839:17 1246.03 
3 *839:17 *985:trimCurr[1] 41.854 
*END

*D_NET *840 0.126287
*CONN
*I *985:trimCurr[2] I *D CF_BGR
*I *988:analog_ctrl[66] O *D soc_sys
*CAP
1 *985:trimCurr[2] 0.000498115
2 *988:analog_ctrl[66] 7.48937e-05
3 *840:17 0.00163704
4 *840:15 0.00659548
5 *840:9 0.0582041
6 *840:7 0.0528224
7 *985:trimCurr[2] *985:trimCurr[3] 9.08414e-05
8 *985:trimCurr[2] *841:17 0.00115718
9 *840:15 *848:23 0
10 *840:17 *847:17 0
11 *985:trimCurr[0] *985:trimCurr[2] 0.000617032
12 *835:15 *840:15 0
13 *837:23 *840:15 0.00147236
14 *838:17 *840:17 0.00311715
*RES
1 *988:analog_ctrl[66] *840:7 1.25321 
2 *840:7 *840:9 1203.06 
3 *840:9 *840:15 34.9467 
4 *840:15 *840:17 39.7611 
5 *840:17 *985:trimCurr[2] 48.8966 
*END

*D_NET *841 0.155604
*CONN
*I *985:trimCurr[3] I *D CF_BGR
*I *988:analog_ctrl[67] O *D soc_sys
*CAP
1 *985:trimCurr[3] 6.34431e-05
2 *988:analog_ctrl[67] 7.48937e-05
3 *841:17 0.00228391
4 *841:15 0.0081545
5 *841:9 0.0532875
6 *841:7 0.0474284
7 *985:trimCurr[3] *985:trimCurr[4] 6.76522e-05
8 *841:9 *843:17 0.0173634
9 *841:17 *985:trimCurr[4] 0.00122025
10 *841:17 *842:17 0.011593
11 *985:trimCurr[2] *985:trimCurr[3] 9.08414e-05
12 *985:trimCurr[2] *841:17 0.00115718
13 *985:trimCurr[0] *841:17 9.27279e-06
14 *838:17 *841:17 0.0128096
*RES
1 *988:analog_ctrl[67] *841:7 1.25321 
2 *841:7 *841:9 1080.52 
3 *841:9 *841:15 36.0629 
4 *841:15 *841:17 178.329 
5 *841:17 *985:trimCurr[3] 1.86946 
*END

*D_NET *842 0.156072
*CONN
*I *985:trimCurr[4] I *D CF_BGR
*I *988:analog_ctrl[68] O *D soc_sys
*CAP
1 *985:trimCurr[4] 0.00116821
2 *988:analog_ctrl[68] 7.48937e-05
3 *842:17 0.0253693
4 *842:15 0.0306739
5 *842:9 0.0243951
6 *842:7 0.0179973
7 *985:trimCurr[4] *985:trimCurr[5] 0
8 *985:trimCurr[4] *985:CurrAbsTrim[0] 0
9 *842:9 *843:17 0.00512114
10 *985:trimCurr[3] *985:trimCurr[4] 6.76522e-05
11 *103:14 *842:17 0.0104428
12 *838:17 *842:17 0.0279486
13 *841:17 *985:trimCurr[4] 0.00122025
14 *841:17 *842:17 0.011593
*RES
1 *988:analog_ctrl[68] *842:7 1.25321 
2 *842:7 *842:9 401.588 
3 *842:9 *842:15 37.0933 
4 *842:15 *842:17 826.189 
5 *842:17 *985:trimCurr[4] 33.6452 
*END

*D_NET *843 0.186894
*CONN
*I *985:trimCurr[5] I *D CF_BGR
*I *988:analog_ctrl[69] O *D soc_sys
*CAP
1 *985:trimCurr[5] 0.00270358
2 *988:analog_ctrl[69] 0.000771078
3 *843:17 0.0709112
4 *843:15 0.0689787
5 *985:trimCurr[5] *985:CurrAbsTrim[0] 0.000293867
6 *985:trimCurr[5] *985:inl_ctrl[0] 0
7 *985:trimCurr[5] *849:15 0
8 *985:trimCurr[4] *985:trimCurr[5] 0
9 *985:trimCurr[1] *985:trimCurr[5] 0.00877915
10 *108:13 *843:15 0.000124691
11 *110:22 *985:trimCurr[5] 0.0115833
12 *824:13 *843:15 0.000264137
13 *841:9 *843:17 0.0173634
14 *842:9 *843:17 0.00512114
*RES
1 *988:analog_ctrl[69] *843:15 23.801 
2 *843:15 *843:17 224.728 
3 *843:17 *985:trimCurr[5] 46.355 
*END

*D_NET *844 0.360441
*CONN
*I *986:gain[0] I *D CF_BUF_HIZ
*I *988:analog_ctrl[6] O *D soc_sys
*CAP
1 *986:gain[0] 0.00836497
2 *988:analog_ctrl[6] 0.00121032
3 *844:23 0.00836497
4 *844:21 0.0929458
5 *844:19 0.0929458
6 *844:17 0.00308676
7 *844:15 0.00429708
8 *986:gain[0] *986:gain[1] 0.0044326
9 *986:disable_n *986:gain[0] 0
10 *986:rc *986:gain[0] 0.00174881
11 *47:21 *844:15 0.000546273
12 *82:24 *844:17 0.00076638
13 *108:13 *844:15 0
14 *671:13 *844:15 0.000700485
15 *682:9 *844:17 0
16 *782:13 *844:15 0.000104378
17 *799:13 *844:21 0.13978
18 *800:15 *844:15 0.000313338
19 *811:15 *844:15 0.000832545
*RES
1 *988:analog_ctrl[6] *844:15 25.8015 
2 *844:15 *844:17 69.165 
3 *844:17 *844:19 8 
4 *844:19 *844:21 386.456 
5 *844:21 *844:23 8 
6 *844:23 *986:gain[0] 237.417 
*END

*D_NET *845 0.155244
*CONN
*I *985:CurrAbsTrim[0] I *D CF_BGR
*I *988:analog_ctrl[70] O *D soc_sys
*CAP
1 *985:CurrAbsTrim[0] 0.00362172
2 *988:analog_ctrl[70] 7.48937e-05
3 *845:9 0.0588396
4 *845:7 0.0552928
5 *985:CurrAbsTrim[0] *853:15 0.00469278
6 *845:9 *848:17 0.0258868
7 *985:trimCurr[5] *985:CurrAbsTrim[0] 0.000293867
8 *985:trimCurr[4] *985:CurrAbsTrim[0] 0
9 *656:19 *985:CurrAbsTrim[0] 0.0023883
10 *836:17 *985:CurrAbsTrim[0] 0.00415306
*RES
1 *988:analog_ctrl[70] *845:7 1.25321 
2 *845:7 *845:9 1255.89 
3 *845:9 *985:CurrAbsTrim[0] 44.3529 
*END

*D_NET *846 0.133853
*CONN
*I *985:CurrAbsTrim[1] I *D CF_BGR
*I *988:analog_ctrl[71] O *D soc_sys
*CAP
1 *985:CurrAbsTrim[1] 0.000544587
2 *988:analog_ctrl[71] 7.48937e-05
3 *846:15 0.00507647
4 *846:9 0.0589386
5 *846:7 0.0544816
6 *985:CurrAbsTrim[1] *985:CurrAbsTrim[2] 0.000113043
7 *985:CurrAbsTrim[1] *847:17 0.00147016
8 *846:15 *851:23 0.0124621
9 *985:trimCurr[0] *985:CurrAbsTrim[1] 0
10 *985:trimCurr[1] *985:CurrAbsTrim[1] 0.00069112
11 *75:18 *846:15 0
*RES
1 *988:analog_ctrl[71] *846:7 1.25321 
2 *846:7 *846:9 1239.69 
3 *846:9 *846:15 39.0683 
4 *846:15 *985:CurrAbsTrim[1] 20.9163 
*END

*D_NET *847 0.132819
*CONN
*I *985:CurrAbsTrim[2] I *D CF_BGR
*I *988:analog_ctrl[72] O *D soc_sys
*CAP
1 *985:CurrAbsTrim[2] 4.58835e-05
2 *988:analog_ctrl[72] 7.48937e-05
3 *847:17 0.00307797
4 *847:15 0.00905751
5 *847:9 0.0571867
6 *847:7 0.0512362
7 *985:CurrAbsTrim[2] *985:CurrAbsTrim[3] 0.000116061
8 *847:17 *985:CurrAbsTrim[3] 0.00377237
9 *847:17 *850:17 0
10 *985:CurrAbsTrim[1] *985:CurrAbsTrim[2] 0.000113043
11 *985:CurrAbsTrim[1] *847:17 0.00147016
12 *832:15 *847:15 0.00666837
13 *838:17 *847:17 0
14 *840:17 *847:17 0
*RES
1 *988:analog_ctrl[72] *847:7 1.25321 
2 *847:7 *847:9 1167.15 
3 *847:9 *847:15 39.9269 
4 *847:15 *847:17 91.7021 
5 *847:17 *985:CurrAbsTrim[2] 1.66232 
*END

*D_NET *848 0.183381
*CONN
*I *985:CurrAbsTrim[3] I *D CF_BGR
*I *988:analog_ctrl[73] O *D soc_sys
*CAP
1 *985:CurrAbsTrim[3] 0.00154975
2 *988:analog_ctrl[73] 0.000997353
3 *848:23 0.00738355
4 *848:17 0.0714534
5 *848:15 0.066617
6 *985:CurrAbsTrim[3] *985:mux2sel 0
7 *985:CurrAbsTrim[3] *850:17 0
8 *848:23 *854:15 0
9 *985:CurrAbsTrim[2] *985:CurrAbsTrim[3] 0.000116061
10 *108:13 *848:15 0.000240405
11 *715:29 *848:15 0.000137382
12 *824:13 *848:15 0.000494625
13 *835:15 *848:23 0.00473225
14 *840:15 *848:23 0
15 *845:9 *848:17 0.0258868
16 *847:17 *985:CurrAbsTrim[3] 0.00377237
*RES
1 *988:analog_ctrl[73] *848:15 25.0031 
2 *848:15 *848:17 217.239 
3 *848:17 *848:23 38.1667 
4 *848:23 *985:CurrAbsTrim[3] 50.1493 
*END

*D_NET *849 0.155093
*CONN
*I *985:CurrAbsTrim[4] I *D CF_BGR
*I *988:analog_ctrl[74] O *D soc_sys
*CAP
1 *985:CurrAbsTrim[4] 0.000256164
2 *988:analog_ctrl[74] 7.48937e-05
3 *849:15 0.00458782
4 *849:9 0.0590754
5 *849:7 0.0548186
6 *985:CurrAbsTrim[4] *985:CurrAbsTrim[5] 9.04502e-05
7 *985:CurrAbsTrim[4] *985:mux2sel 0.000971308
8 *985:CurrAbsTrim[4] *850:17 0.000867644
9 *849:9 *851:17 0.0192854
10 *849:15 *861:13 0.0135706
11 *985:trimCurr[5] *849:15 0
12 *985:trimCurr[1] *849:15 0.00149507
13 *110:22 *849:15 0
*RES
1 *988:analog_ctrl[74] *849:7 1.25321 
2 *849:7 *849:9 1247.44 
3 *849:9 *849:15 41.1291 
4 *849:15 *985:CurrAbsTrim[4] 13.0138 
*END

*D_NET *850 0.13298
*CONN
*I *985:CurrAbsTrim[5] I *D CF_BGR
*I *988:analog_ctrl[75] O *D soc_sys
*CAP
1 *985:CurrAbsTrim[5] 5.80164e-05
2 *988:analog_ctrl[75] 7.48937e-05
3 *850:17 0.0388926
4 *850:15 0.0468986
5 *850:9 0.0228703
6 *850:7 0.0148812
7 *985:CurrAbsTrim[5] *985:mux1sel[0] 4.67124e-05
8 *850:9 *851:17 0.00399889
9 *850:17 *985:mux2sel 2.57016e-05
10 *850:17 *985:mux1sel[0] 0.00210462
11 *850:17 *860:25 0.00216995
12 *850:17 *864:17 0
13 *985:CurrAbsTrim[3] *850:17 0
14 *985:CurrAbsTrim[4] *985:CurrAbsTrim[5] 9.04502e-05
15 *985:CurrAbsTrim[4] *850:17 0.000867644
16 *831:15 *850:15 0
17 *847:17 *850:17 0
*RES
1 *988:analog_ctrl[75] *850:7 1.25321 
2 *850:7 *850:9 330.455 
3 *850:9 *850:15 41.9877 
4 *850:15 *850:17 928.394 
5 *850:17 *985:CurrAbsTrim[5] 1.65196 
*END

*D_NET *851 0.197045
*CONN
*I *985:inl_ctrl[0] I *D CF_BGR
*I *988:analog_ctrl[76] O *D soc_sys
*CAP
1 *985:inl_ctrl[0] 0.00079795
2 *988:analog_ctrl[76] 0.000717731
3 *851:23 0.00406937
4 *851:17 0.0708763
5 *851:15 0.0683226
6 *985:inl_ctrl[0] *985:inl_ctrl[1] 0.000817021
7 *851:23 *857:13 0.0152539
8 *985:trimCurr[5] *985:inl_ctrl[0] 0
9 *75:18 *851:23 0
10 *108:13 *851:15 0.000145412
11 *824:13 *851:15 0.000298106
12 *846:15 *851:23 0.0124621
13 *849:9 *851:17 0.0192854
14 *850:9 *851:17 0.00399889
*RES
1 *988:analog_ctrl[76] *851:15 23.8869 
2 *851:15 *851:17 222.443 
3 *851:17 *851:23 44.2632 
4 *851:23 *985:inl_ctrl[0] 21.7655 
*END

*D_NET *852 0.130938
*CONN
*I *985:inl_ctrl[1] I *D CF_BGR
*I *988:analog_ctrl[77] O *D soc_sys
*CAP
1 *985:inl_ctrl[1] 0.00102756
2 *988:analog_ctrl[77] 7.48937e-05
3 *852:15 0.0105814
4 *852:9 0.0631699
5 *852:7 0.0536909
6 *985:inl_ctrl[1] *985:inl_ctrl[3] 0.0011708
7 *985:inl_ctrl[1] *985:inl_ctrl[2] 0.000405462
8 *852:15 *854:15 0
9 *985:inl_ctrl[0] *985:inl_ctrl[1] 0.000817021
*RES
1 *988:analog_ctrl[77] *852:7 1.25321 
2 *852:7 *852:9 1223.49 
3 *852:9 *852:15 46.8821 
4 *852:15 *985:inl_ctrl[1] 37.0423 
*END

*D_NET *853 0.166418
*CONN
*I *985:inl_ctrl[2] I *D CF_BGR
*I *988:analog_ctrl[78] O *D soc_sys
*CAP
1 *985:inl_ctrl[2] 0.000122867
2 *988:analog_ctrl[78] 7.48937e-05
3 *853:15 0.00312577
4 *853:9 0.0580535
5 *853:7 0.0551255
6 *985:inl_ctrl[2] *985:inl_ctrl[3] 0.000413677
7 *853:9 *856:17 0.0187824
8 *985:CurrAbsTrim[0] *853:15 0.00469278
9 *985:inl_ctrl[1] *985:inl_ctrl[2] 0.000405462
10 *109:18 *853:15 0.017352
11 *656:19 *853:15 0
12 *836:17 *853:15 0.00826905
*RES
1 *988:analog_ctrl[78] *853:7 1.25321 
2 *853:7 *853:9 1254.48 
3 *853:9 *853:15 47.9125 
4 *853:15 *985:inl_ctrl[2] 6.11589 
*END

*D_NET *854 0.13251
*CONN
*I *985:inl_ctrl[3] I *D CF_BGR
*I *988:analog_ctrl[79] O *D soc_sys
*CAP
1 *985:inl_ctrl[3] 0.00107066
2 *988:analog_ctrl[79] 7.48937e-05
3 *854:15 0.0112498
4 *854:9 0.0634753
5 *854:7 0.0533711
6 *985:inl_ctrl[3] *985:inl_ctrl[4] 7.86953e-05
7 *985:inl_ctrl[3] *856:25 0.00160521
8 *985:inl_ctrl[1] *985:inl_ctrl[3] 0.0011708
9 *985:inl_ctrl[2] *985:inl_ctrl[3] 0.000413677
10 *835:15 *854:15 0
11 *848:23 *854:15 0
12 *852:15 *854:15 0
*RES
1 *988:analog_ctrl[79] *854:7 1.25321 
2 *854:7 *854:9 1216.45 
3 *854:9 *854:15 48.9429 
4 *854:15 *985:inl_ctrl[3] 44.2975 
*END

*D_NET *855 0.275329
*CONN
*I *986:gain[1] I *D CF_BUF_HIZ
*I *988:analog_ctrl[7] O *D soc_sys
*CAP
1 *986:gain[1] 0.00195101
2 *988:analog_ctrl[7] 5.1651e-05
3 *855:15 0.00195101
4 *855:13 0.119746
5 *855:11 0.119746
6 *855:9 0.00884648
7 *855:7 0.00889813
8 *986:disable_n *986:gain[1] 0.0044326
9 *986:gain[0] *986:gain[1] 0.0044326
10 *88:12 *855:9 0.00527335
11 *782:13 *855:9 0
12 *811:17 *855:9 0
*RES
1 *988:analog_ctrl[7] *855:7 1.25321 
2 *855:7 *855:9 201.571 
3 *855:9 *855:11 8 
4 *855:11 *855:13 389.461 
5 *855:13 *855:15 8 
6 *855:15 *986:gain[1] 109.237 
*END

*D_NET *856 0.176587
*CONN
*I *985:inl_ctrl[4] I *D CF_BGR
*I *988:analog_ctrl[80] O *D soc_sys
*CAP
1 *985:inl_ctrl[4] 5.62585e-05
2 *988:analog_ctrl[80] 0.000804297
3 *856:25 0.0026864
4 *856:23 0.0127295
5 *856:17 0.0724203
6 *856:15 0.0631252
7 *985:inl_ctrl[4] *985:inl_ctrl[5] 7.14821e-05
8 *856:23 *860:23 0
9 *856:25 *985:inl_ctrl[5] 0.00159659
10 *856:25 *858:17 0.00222477
11 *985:inl_ctrl[3] *985:inl_ctrl[4] 7.86953e-05
12 *985:inl_ctrl[3] *856:25 0.00160521
13 *108:13 *856:15 0.000129962
14 *824:13 *856:15 0.000276329
15 *832:15 *856:23 0
16 *853:9 *856:17 0.0187824
*RES
1 *988:analog_ctrl[80] *856:15 23.8869 
2 *856:15 *856:17 208.1 
3 *856:17 *856:23 48.5565 
4 *856:23 *856:25 99.4493 
5 *856:25 *985:inl_ctrl[4] 1.67268 
*END

*D_NET *857 0.173074
*CONN
*I *985:inl_ctrl[5] I *D CF_BGR
*I *988:analog_ctrl[81] O *D soc_sys
*CAP
1 *985:inl_ctrl[5] 0.000403486
2 *988:analog_ctrl[81] 7.48937e-05
3 *857:13 0.00841861
4 *857:9 0.0622677
5 *857:7 0.0543274
6 *985:inl_ctrl[5] *985:inl_ctrl[6] 7.90847e-05
7 *985:inl_ctrl[5] *858:17 0.000811826
8 *857:9 *860:17 0.0297687
9 *857:13 *859:15 0
10 *985:inl_ctrl[4] *985:inl_ctrl[5] 7.14821e-05
11 *75:18 *857:13 0
12 *851:23 *857:13 0.0152539
13 *856:25 *985:inl_ctrl[5] 0.00159659
*RES
1 *988:analog_ctrl[81] *857:7 1.25321 
2 *857:7 *857:9 1238.28 
3 *857:9 *857:13 43.0896 
4 *857:13 *985:inl_ctrl[5] 30.2989 
*END

*D_NET *858 0.134051
*CONN
*I *985:inl_ctrl[6] I *D CF_BGR
*I *988:analog_ctrl[82] O *D soc_sys
*CAP
1 *985:inl_ctrl[6] 8.21832e-05
2 *988:analog_ctrl[82] 7.48937e-05
3 *858:17 0.0368967
4 *858:15 0.0368145
5 *858:13 0.0115066
6 *858:9 0.0284962
7 *858:7 0.0170645
8 *985:inl_ctrl[5] *985:inl_ctrl[6] 7.90847e-05
9 *985:inl_ctrl[5] *858:17 0.000811826
10 *856:25 *858:17 0.00222477
*RES
1 *988:analog_ctrl[82] *858:7 1.25321 
2 *858:7 *858:9 380.459 
3 *858:9 *858:13 44.2059 
4 *858:13 *858:15 8 
5 *858:15 *858:17 878.389 
6 *858:17 *985:inl_ctrl[6] 1.83839 
*END

*D_NET *859 0.133182
*CONN
*I *985:mux1sel[0] I *D CF_BGR
*I *988:analog_ctrl[83] O *D soc_sys
*CAP
1 *985:mux1sel[0] 0.000677737
2 *988:analog_ctrl[83] 7.48937e-05
3 *859:15 0.0109503
4 *859:9 0.0641922
5 *859:7 0.0539945
6 *985:mux1sel[0] *985:mux1sel[1] 0.000147125
7 *985:mux1sel[0] *860:25 0.000994022
8 *985:CurrAbsTrim[5] *985:mux1sel[0] 4.67124e-05
9 *850:17 *985:mux1sel[0] 0.00210462
10 *857:13 *859:15 0
*RES
1 *988:analog_ctrl[83] *859:7 1.25321 
2 *859:7 *859:9 1231.24 
3 *859:9 *859:15 49.4581 
4 *859:15 *985:mux1sel[0] 29.9321 
*END

*D_NET *860 0.191212
*CONN
*I *985:mux1sel[1] I *D CF_BGR
*I *988:analog_ctrl[84] O *D soc_sys
*CAP
1 *985:mux1sel[1] 5.66657e-05
2 *988:analog_ctrl[84] 0.00100893
3 *860:25 0.00213617
4 *860:23 0.0118303
5 *860:17 0.0718479
6 *860:15 0.063106
7 *985:mux1sel[1] *985:dft_sel 0.000113043
8 *985:mux1sel[1] *862:17 7.78802e-05
9 *860:25 *862:17 0.00596633
10 *860:25 *864:17 0.0010757
11 *985:mux1sel[0] *985:mux1sel[1] 0.000147125
12 *985:mux1sel[0] *860:25 0.000994022
13 *108:13 *860:15 0.000249539
14 *715:29 *860:15 0.000151122
15 *824:13 *860:15 0.000512261
16 *850:17 *860:25 0.00216995
17 *856:23 *860:23 0
18 *857:9 *860:17 0.0297687
*RES
1 *988:analog_ctrl[84] *860:15 25.089 
2 *860:15 *860:17 206.83 
3 *860:17 *860:23 47.5261 
4 *860:23 *860:25 105.788 
5 *860:25 *985:mux1sel[1] 2.45464 
*END

*D_NET *861 0.176263
*CONN
*I *985:mux2sel I *D CF_BGR
*I *988:analog_ctrl[85] O *D soc_sys
*CAP
1 *985:mux2sel 0.000676557
2 *988:analog_ctrl[85] 7.48937e-05
3 *861:13 0.00553516
4 *861:9 0.0594546
5 *861:7 0.0546709
6 *861:9 *863:17 0.0224582
7 *985:trimCurr[1] *861:13 0
8 *985:CurrAbsTrim[3] *985:mux2sel 0
9 *985:CurrAbsTrim[4] *985:mux2sel 0.000971308
10 *110:22 *861:13 0
11 *116:39 *861:13 0.0186323
12 *119:22 *985:mux2sel 0.000193077
13 *849:15 *861:13 0.0135706
14 *850:17 *985:mux2sel 2.57016e-05
*RES
1 *988:analog_ctrl[85] *861:7 1.25321 
2 *861:7 *861:9 1246.73 
3 *861:9 *861:13 43.6048 
4 *861:13 *985:mux2sel 40.0089 
*END

*D_NET *862 0.159104
*CONN
*I *985:dft_sel I *D CF_BGR
*I *988:analog_ctrl[86] O *D soc_sys
*CAP
1 *985:dft_sel 4.4452e-05
2 *988:analog_ctrl[86] 7.48937e-05
3 *862:17 0.00129295
4 *862:15 0.0012485
5 *862:13 0.0111566
6 *862:9 0.062825
7 *862:7 0.0517433
8 *985:dft_sel *985:pd_ibg 0.000123963
9 *862:9 *863:17 0.0184176
10 *862:17 *864:17 0.00601975
11 *985:mux1sel[1] *985:dft_sel 0.000113043
12 *985:mux1sel[1] *862:17 7.78802e-05
13 *860:25 *862:17 0.00596633
*RES
1 *988:analog_ctrl[86] *862:7 1.25321 
2 *862:7 *862:9 1180.53 
3 *862:9 *862:13 44.0341 
4 *862:13 *862:15 8 
5 *862:15 *862:17 78.3207 
6 *862:17 *985:dft_sel 1.65714 
*END

*D_NET *863 0.205716
*CONN
*I *985:pd I *D CF_BGR
*I *988:analog_ctrl[87] O *D soc_sys
*CAP
1 *985:pd 0.00402353
2 *988:analog_ctrl[87] 0.000707668
3 *863:23 0.00402353
4 *863:21 0.0108123
5 *863:17 0.0723956
6 *863:15 0.062291
7 *985:pd *985:pd_ibg 8.59258e-05
8 *985:pd *864:17 0.00991115
9 *108:13 *863:15 0.000158409
10 *715:29 *863:15 0.000109903
11 *824:13 *863:15 0.000321186
12 *861:9 *863:17 0.0224582
13 *862:9 *863:17 0.0184176
*RES
1 *988:analog_ctrl[87] *863:15 23.9727 
2 *863:15 *863:17 202.895 
3 *863:17 *863:21 43.2184 
4 *863:21 *863:23 8 
5 *863:23 *985:pd 129.734 
*END

*D_NET *864 0.144604
*CONN
*I *985:pd_ibg I *D CF_BGR
*I *988:analog_ctrl[88] O *D soc_sys
*CAP
1 *985:pd_ibg 4.86954e-05
2 *988:analog_ctrl[88] 7.48937e-05
3 *864:17 0.00305461
4 *864:15 0.00300591
5 *864:13 0.0116873
6 *864:9 0.060564
7 *864:7 0.0489516
8 *985:dft_sel *985:pd_ibg 0.000123963
9 *985:pd *985:pd_ibg 8.59258e-05
10 *985:pd *864:17 0.00991115
11 *850:17 *864:17 0
12 *860:25 *864:17 0.0010757
13 *862:17 *864:17 0.00601975
*RES
1 *988:analog_ctrl[88] *864:7 1.25321 
2 *864:7 *864:9 1116.44 
3 *864:9 *864:13 45.8373 
4 *864:13 *864:15 8 
5 *864:15 *864:17 142.411 
6 *864:17 *985:pd_ibg 1.67786 
*END

*D_NET *865 0.115894
*CONN
*I *985:finetune I *D CF_BGR
*I *988:analog_ctrl[89] O *D soc_sys
*CAP
1 *985:finetune 0.00113819
2 *988:analog_ctrl[89] 7.48937e-05
3 *865:9 0.0560702
4 *865:7 0.0550069
5 *985:trimTC[1] *985:finetune 0
6 *109:18 *985:finetune 0.00252255
7 *656:19 *985:finetune 0
8 *831:17 *985:finetune 0
9 *836:17 *985:finetune 0.00108161
*RES
1 *988:analog_ctrl[89] *865:7 1.25321 
2 *865:7 *865:9 1254.48 
3 *865:9 *985:finetune 28.0982 
*END

*D_NET *866 0.438562
*CONN
*I *984:reset_b I *D CF_ADC_DSM20
*I *988:analog_ctrl[8] O *D soc_sys
*CAP
1 *984:reset_b 5.2e-05
2 *988:analog_ctrl[8] 0.000130087
3 *866:41 0.00140851
4 *866:29 0.0180619
5 *866:27 0.0167054
6 *866:25 0.0608211
7 *866:23 0.06115
8 *866:13 0.0194298
9 *866:11 0.019231
10 *984:SCANMODE *984:reset_b 0.000125947
11 *984:SCANCLK *866:41 0.000452903
12 *108:13 *866:23 0
13 *141:18 *866:29 0.0968474
14 *671:13 *866:13 0.00056912
15 *671:21 *866:13 0.00320529
16 *680:17 *866:25 0
17 *683:9 *866:23 0
18 *684:9 *866:23 0
19 *684:9 *866:25 0.00580836
20 *748:9 *866:13 0.00199876
21 *790:15 *866:13 0.000192659
22 *805:13 *866:13 0.00735031
23 *824:13 *866:23 0.000151683
24 *826:17 *866:41 0.00110074
25 *827:21 *866:41 0.000322651
26 *828:13 *866:13 0.026577
27 *828:37 *866:41 0.00145535
28 *829:29 *866:29 0.0951058
29 *829:33 *866:41 0.000308342
*RES
1 *988:analog_ctrl[8] *866:11 17.9829 
2 *866:11 *866:13 538.033 
3 *866:13 *866:23 34.3143 
4 *866:23 *866:25 178.27 
5 *866:25 *866:27 8 
6 *866:27 *866:29 178.873 
7 *866:29 *866:41 47.7404 
8 *866:41 *984:reset_b 16.4811 
*END

*D_NET *867 0.205111
*CONN
*I *985:en_startb I *D CF_BGR
*I *988:analog_ctrl[90] O *D soc_sys
*CAP
1 *985:en_startb 5.33243e-05
2 *988:analog_ctrl[90] 0.000124673
3 *867:21 0.00733424
4 *867:19 0.00728092
5 *867:17 0.0691521
6 *867:15 0.0691521
7 *867:13 0.000789976
8 *867:11 0.000914648
9 *867:13 *868:9 0.00188401
10 *867:17 *871:17 0
11 *867:17 *876:9 0
12 *867:17 *876:13 0
13 *1:13 *867:21 0.0220051
14 *42:17 *867:17 0.0199686
15 *672:15 *867:17 6.83145e-05
16 *748:9 *867:13 0.00155165
17 *790:17 *867:13 0.000182169
18 *829:13 *867:13 0.00464967
*RES
1 *988:analog_ctrl[90] *867:11 16.9264 
2 *867:11 *867:13 51.1229 
3 *867:13 *867:15 15 
4 *867:15 *867:17 1582.68 
5 *867:17 *867:19 15 
6 *867:19 *867:21 246.355 
7 *867:21 *985:en_startb 1.12893 
*END

*D_NET *868 0.177703
*CONN
*I *987:pd I *D CF_REFBUF
*I *988:analog_ctrl[91] O *D soc_sys
*CAP
1 *987:pd 0.000193197
2 *988:analog_ctrl[91] 0.000366508
3 *868:29 0.00271422
4 *868:17 0.014176
5 *868:15 0.0116549
6 *868:13 0.0548217
7 *868:11 0.0548217
8 *868:9 0.000366508
9 *868:13 *871:9 0
10 *868:13 *872:15 0.000346822
11 *868:13 *872:17 0.00244308
12 *868:29 *869:17 0
13 *76:29 *868:17 0
14 *109:18 *868:17 0.0317138
15 *656:19 *868:17 0
16 *656:40 *868:17 0
17 *670:29 *868:17 1.40476e-05
18 *748:9 *868:9 0.00188571
19 *790:17 *868:9 0.000300417
20 *867:13 *868:9 0.00188401
*RES
1 *988:analog_ctrl[91] *868:9 36.9157 
2 *868:9 *868:11 15 
3 *868:11 *868:13 1254.3 
4 *868:13 *868:15 8 
5 *868:15 *868:17 58.66 
6 *868:17 *868:29 37.669 
7 *868:29 *987:pd 18.8839 
*END

*D_NET *869 0.175782
*CONN
*I *987:switchon I *D CF_REFBUF
*I *988:analog_ctrl[92] O *D soc_sys
*CAP
1 *987:switchon 0.00180336
2 *988:analog_ctrl[92] 7.59234e-05
3 *869:17 0.0176221
4 *869:15 0.0158187
5 *869:13 0.0179839
6 *869:11 0.0179839
7 *869:9 0.0389486
8 *869:7 0.0390245
9 *987:switchon *870:21 0.00618008
10 *987:ch1 *987:switchon 0.000696595
11 *834:17 *869:9 0.0196441
12 *868:29 *869:17 0
*RES
1 *988:analog_ctrl[92] *869:7 1.25321 
2 *869:7 *869:9 1080.52 
3 *869:9 *869:11 8 
4 *869:11 *869:13 60.7637 
5 *869:13 *869:15 8 
6 *869:15 *869:17 362.852 
7 *869:17 *987:switchon 27.2187 
*END

*D_NET *870 0.19124
*CONN
*I *987:boost I *D CF_REFBUF
*I *988:analog_ctrl[93] O *D soc_sys
*CAP
1 *987:boost 0
2 *988:analog_ctrl[93] 7.59234e-05
3 *870:21 0.0142554
4 *870:19 0.0142554
5 *870:17 0.0434299
6 *870:15 0.0497031
7 *870:9 0.0243228
8 *870:7 0.0181254
9 *984:itrim_1[2] *870:15 6.8687e-05
10 *987:switchon *870:21 0.00618008
11 *673:17 *870:17 0.00326372
12 *678:23 *870:15 0
13 *824:17 *870:17 0.0150357
14 *831:17 *870:9 0.00252332
15 *834:17 *870:9 0
*RES
1 *988:analog_ctrl[93] *870:7 1.25321 
2 *870:7 *870:9 430.464 
3 *870:9 *870:15 35.8912 
4 *870:15 *870:17 1012.2 
5 *870:17 *870:19 8 
6 *870:19 *870:21 52.2629 
7 *870:21 *987:boost 8 
*END

*D_NET *871 0.177268
*CONN
*I *987:ch_cont I *D CF_REFBUF
*I *988:analog_ctrl[94] O *D soc_sys
*CAP
1 *987:ch_cont 0.0145889
2 *988:analog_ctrl[94] 7.59234e-05
3 *871:19 0.0145889
4 *871:17 0.0455459
5 *871:15 0.0455459
6 *871:13 0.00127821
7 *871:9 0.0154739
8 *871:7 0.0142716
9 *871:17 *876:13 0.00673314
10 *42:17 *871:17 0.0191659
11 *867:17 *871:17 0
12 *868:13 *871:9 0
*RES
1 *988:analog_ctrl[94] *871:7 1.25321 
2 *871:7 *871:9 316.193 
3 *871:9 *871:13 41.3486 
4 *871:13 *871:15 15 
5 *871:15 *871:17 1080.17 
6 *871:17 *871:19 15 
7 *871:19 *987:ch_cont 307.845 
*END

*D_NET *872 0.42093
*CONN
*I *984:itrim_comp[0] I *D CF_ADC_DSM20
*I *988:analog_ctrl[95] O *D soc_sys
*CAP
1 *984:itrim_comp[0] 0.00327176
2 *988:analog_ctrl[95] 0.000381879
3 *872:25 0.00773867
4 *872:23 0.00446691
5 *872:21 0.0237141
6 *872:19 0.0237141
7 *872:17 0.015523
8 *872:15 0.0159049
9 *984:itrim_comp[0] *984:itrim_comp[3] 0.00189226
10 *984:itrim_comp[0] *984:itrim_comp[1] 0.00144765
11 *872:21 *875:13 0.112707
12 *872:25 *875:17 0.0294632
13 *984:BUF_FCHOP[0] *984:itrim_comp[0] 0.00017246
14 *20:15 *872:25 0.0285078
15 *31:13 *872:21 5.29092e-05
16 *108:13 *872:15 1.21633e-05
17 *758:13 *872:25 0.000580134
18 *767:13 *872:21 0.000130115
19 *768:13 *872:21 0.00091142
20 *770:47 *872:25 0.0029758
21 *776:13 *872:21 0.0126698
22 *778:13 *872:21 0.0101069
23 *791:21 *872:21 0.00915762
24 *792:43 *872:25 5.19885e-05
25 *803:13 *872:21 0.110419
26 *809:13 *872:21 0.00184441
27 *809:17 *872:25 1.33927e-05
28 *814:29 *984:itrim_comp[0] 0
29 *820:13 *872:21 0.00027438
30 *824:13 *872:15 3.46729e-05
31 *868:13 *872:15 0.000346822
32 *868:13 *872:17 0.00244308
*RES
1 *988:analog_ctrl[95] *872:15 22.513 
2 *872:15 *872:17 50.0677 
3 *872:17 *872:19 8 
4 *872:19 *872:21 212.619 
5 *872:21 *872:23 8 
6 *872:23 *872:25 376.938 
7 *872:25 *984:itrim_comp[0] 24.3029 
*END

*D_NET *873 0.300783
*CONN
*I *984:itrim_comp[1] I *D CF_ADC_DSM20
*I *988:analog_ctrl[96] O *D soc_sys
*CAP
1 *984:itrim_comp[1] 0.00137219
2 *988:analog_ctrl[96] 7.48937e-05
3 *873:17 0.00902633
4 *873:15 0.00765414
5 *873:13 0.0431751
6 *873:11 0.0431751
7 *873:9 0.0122016
8 *873:7 0.0122765
9 *873:17 *877:17 0.0291411
10 *984:ODET *984:itrim_comp[1] 5.16392e-06
11 *984:itrim_comp[0] *984:itrim_comp[1] 0.00144765
12 *984:BUF_FCHOP[0] *984:itrim_comp[1] 0.000294401
13 *984:RESET_DEC_INPUT *984:itrim_comp[1] 0.000476537
14 *984:FCHOP[2] *984:itrim_comp[1] 6.34683e-05
15 *20:11 *873:13 0.111235
16 *652:17 *873:13 0
17 *740:13 *873:17 0.0291644
18 *794:45 *873:13 0
19 *809:13 *873:13 0
*RES
1 *988:analog_ctrl[96] *873:7 1.25321 
2 *873:7 *873:9 274.112 
3 *873:9 *873:11 8 
4 *873:11 *873:13 206.866 
5 *873:13 *873:15 8 
6 *873:15 *873:17 69.6155 
7 *873:17 *984:itrim_comp[1] 19.7408 
*END

*D_NET *874 0.264664
*CONN
*I *984:itrim_comp[2] I *D CF_ADC_DSM20
*I *988:analog_ctrl[97] O *D soc_sys
*CAP
1 *984:itrim_comp[2] 7.22088e-05
2 *988:analog_ctrl[97] 7.48937e-05
3 *874:17 0.0233422
4 *874:15 0.02327
5 *874:13 0.0430127
6 *874:11 0.0430127
7 *874:9 0.0106102
8 *874:7 0.0106851
9 *984:dig_test_sel[1] *874:17 0.000119534
10 *44:13 *874:9 0.00530419
11 *654:17 *874:13 0
12 *795:13 *874:13 0.10516
13 *802:17 *874:17 0
*RES
1 *988:analog_ctrl[97] *874:7 1.25321 
2 *874:7 *874:9 238.194 
3 *874:9 *874:11 8 
4 *874:11 *874:13 201.456 
5 *874:13 *874:15 8 
6 *874:15 *874:17 75.7419 
7 *874:17 *984:itrim_comp[2] 16.1848 
*END

*D_NET *875 0.387179
*CONN
*I *984:itrim_comp[3] I *D CF_ADC_DSM20
*I *988:analog_ctrl[98] O *D soc_sys
*CAP
1 *984:itrim_comp[3] 0.00272642
2 *988:analog_ctrl[98] 7.48937e-05
3 *875:17 0.00710654
4 *875:15 0.00438011
5 *875:13 0.0262957
6 *875:11 0.0262957
7 *875:9 0.0126611
8 *875:7 0.012736
9 *984:MODBIT *984:itrim_comp[3] 5.51346e-05
10 *984:SIGN *984:itrim_comp[3] 0.00344212
11 *984:MODINPUT *984:itrim_comp[3] 7.69701e-05
12 *984:itrim_comp[0] *984:itrim_comp[3] 0.00189226
13 *669:13 *984:itrim_comp[3] 0
14 *753:13 *875:13 0.0719937
15 *770:47 *875:17 0.00305092
16 *784:13 *875:13 0.00970783
17 *787:13 *875:13 0.0117284
18 *791:21 *875:13 0.0107026
19 *792:43 *875:17 0.0293942
20 *797:13 *875:13 0
21 *809:17 *875:17 3.20481e-05
22 *820:13 *875:13 0.0106567
23 *872:21 *875:13 0.112707
24 *872:25 *875:17 0.0294632
*RES
1 *988:analog_ctrl[98] *875:7 1.25321 
2 *875:7 *875:9 283.268 
3 *875:9 *875:11 8 
4 *875:11 *875:13 209.828 
5 *875:13 *875:15 8 
6 *875:15 *875:17 374.825 
7 *875:17 *984:itrim_comp[3] 24.1947 
*END

*D_NET *876 0.0699558
*CONN
*I *984:itrim_2_3[0] I *D CF_ADC_DSM20
*I *988:analog_ctrl[99] O *D soc_sys
*CAP
1 *984:itrim_2_3[0] 0.00138529
2 *988:analog_ctrl[99] 0.00234016
3 *876:21 0.003958
4 *876:19 0.00822678
5 *876:13 0.0199463
6 *876:11 0.0143194
7 *876:9 0.00236738
8 *984:iin *984:itrim_2_3[0] 0
9 *984:itrim_sum[2] *984:itrim_2_3[0] 7.63068e-05
10 *984:itrim_sum[4] *984:itrim_2_3[0] 0.00032905
11 *984:itrim_2_3[1] *984:itrim_2_3[0] 0.000995235
12 *984:itrim_2_3[2] *984:itrim_2_3[0] 0
13 *984:itrim_sum[5] *984:itrim_2_3[0] 0.000220439
14 *42:17 *876:9 0.000490193
15 *42:17 *876:13 0.00371512
16 *677:17 *876:21 0.00202959
17 *685:19 *876:19 0.0026588
18 *685:19 *876:21 0
19 *719:17 *876:21 0
20 *728:33 *876:21 0.0001646
21 *867:17 *876:9 0
22 *867:17 *876:13 0
23 *871:17 *876:13 0.00673314
*RES
1 *988:analog_ctrl[99] *876:9 49.7246 
2 *876:9 *876:11 0.621429 
3 *876:11 *876:13 353.261 
4 *876:13 *876:19 33.7445 
5 *876:19 *876:21 76.2079 
6 *876:21 *984:itrim_2_3[0] 20.5333 
*END

*D_NET *877 0.379622
*CONN
*I *984:disable_mod I *D CF_ADC_DSM20
*I *988:analog_ctrl[9] O *D soc_sys
*CAP
1 *984:disable_mod 0.000950678
2 *988:analog_ctrl[9] 5.22483e-05
3 *877:17 0.0203137
4 *877:15 0.019363
5 *877:13 0.073709
6 *877:11 0.073709
7 *877:9 0.0119551
8 *877:7 0.0120074
9 *984:RESET1 *984:disable_mod 0.000101554
10 *984:RESET2 *984:disable_mod 6.48969e-05
11 *984:RESET3 *984:disable_mod 0.000378067
12 *984:qlev[1] *984:disable_mod 0.000788018
13 *984:bypass_p *984:disable_mod 3.88869e-05
14 *20:11 *877:13 0
15 *112:21 *877:13 0.0368407
16 *114:21 *877:13 0.000775033
17 *660:14 *877:17 0.00451785
18 *662:19 *877:17 0.00402
19 *740:13 *877:17 0.000606701
20 *755:25 *877:17 0.00518095
21 *757:25 *877:17 0.00518095
22 *766:21 *877:13 0.0447044
23 *769:13 *877:13 0.0186017
24 *772:13 *877:13 0.00657607
25 *773:13 *877:13 0.00178876
26 *774:13 *877:13 0.00010251
27 *783:13 *877:13 0.00718907
28 *814:29 *984:disable_mod 1.61382e-05
29 *815:13 *877:13 0
30 *820:29 *984:disable_mod 0.000948615
31 *873:17 *877:17 0.0291411
*RES
1 *988:analog_ctrl[9] *877:7 1.25321 
2 *877:7 *877:9 266.365 
3 *877:9 *877:11 8 
4 *877:11 *877:13 288.869 
5 *877:13 *877:15 8 
6 *877:15 *877:17 72.408 
7 *877:17 *984:disable_mod 19.2685 
*END

*D_NET *880 0.0381762
*CONN
*I *988:sram_ack_i I *D soc_sys
*I *989:wbs_ack_o O *D CF_SRAM_1024x32_wb_wrapper
*CAP
1 *988:sram_ack_i 0.00647114
2 *989:wbs_ack_o 0.0078195
3 *880:20 0.0142906
4 *988:sram_ack_i *989:wbs_cyc_i 0
5 *880:20 *989:wbs_adr_i[0] 0.00277626
6 *880:20 *989:wbs_cyc_i 8.9077e-05
7 *880:20 *989:wbs_dat_i[9] 0.00318964
8 *880:20 *886:9 0.000449304
9 *880:20 *916:25 0.000491324
10 *880:20 *919:21 0.000393282
11 *880:20 *921:17 0.000166452
12 *880:20 *946:19 0.000137466
13 *880:20 *950:11 0.00139708
14 *880:20 *954:9 0.000449304
15 *880:20 *978:13 5.56761e-05
*RES
1 *989:wbs_ack_o *880:20 35.6896 
2 *880:20 *988:sram_ack_i 16.5069 
*END

*D_NET *881 0.0402835
*CONN
*I *989:wbs_adr_i[0] I *D CF_SRAM_1024x32_wb_wrapper
*I *988:sram_adr_o[0] O *D soc_sys
*CAP
1 *989:wbs_adr_i[0] 0.007192
2 *988:sram_adr_o[0] 0.0039844
3 *881:9 0.00869937
4 *881:7 0.00549177
5 *989:wbs_adr_i[0] *989:wbs_cyc_i 2.37336e-05
6 *989:wbs_adr_i[0] *921:17 0.000549273
7 *989:wbs_adr_i[0] *946:19 0.00333086
8 *989:wbs_adr_i[0] *958:19 0.002363
9 *989:wbs_adr_i[0] *978:13 0.00121985
10 *881:7 *988:sram_dat_i[0] 0
11 *881:7 *983:7 0
12 *881:9 *915:23 0.000566635
13 *881:9 *949:9 0
14 *881:9 *973:9 0.00408635
15 *880:20 *989:wbs_adr_i[0] 0.00277626
*RES
1 *988:sram_adr_o[0] *881:7 18.9685 
2 *881:7 *881:9 52.2621 
3 *881:9 *989:wbs_adr_i[0] 45.5717 
*END

*D_NET *882 0.104556
*CONN
*I *989:wbs_adr_i[10] I *D CF_SRAM_1024x32_wb_wrapper
*I *988:sram_adr_o[10] O *D soc_sys
*CAP
1 *989:wbs_adr_i[10] 0.00185865
2 *988:sram_adr_o[10] 0.00010703
3 *882:13 0.0085492
4 *882:11 0.00669054
5 *882:9 0.00349184
6 *882:7 0.00359887
7 *989:wbs_adr_i[10] *989:wbs_adr_i[22] 0.000449184
8 *989:wbs_adr_i[10] *989:wbs_adr_i[24] 0.00145531
9 *989:wbs_adr_i[10] *989:wbs_adr_i[5] 0
10 *989:wbs_adr_i[10] *989:wbs_dat_i[10] 0
11 *989:wbs_adr_i[10] *989:wbs_dat_i[9] 0.0010157
12 *989:wbs_adr_i[10] *927:9 9.57306e-05
13 *989:wbs_adr_i[10] *928:8 0.000104681
14 *989:wbs_adr_i[10] *941:7 0.000714408
15 *989:wbs_adr_i[10] *942:26 4.93791e-05
16 *989:wbs_adr_i[10] *945:7 0
17 *989:wbs_adr_i[10] *980:21 0.0012322
18 *882:9 *921:21 0.0153563
19 *882:9 *958:9 0.0153025
20 *882:13 *989:wbs_adr_i[11] 0.00418818
21 *882:13 *989:wbs_we_i 0.00643485
22 *882:13 *884:19 0.00855917
23 *882:13 *903:15 8.84642e-05
24 *882:13 *906:13 0.0210342
25 *882:13 *909:17 0.000547511
26 *882:13 *925:11 0.000605343
27 *882:13 *979:13 0
28 *32:37 *882:13 0.000939154
29 *37:37 *882:13 0.00044599
30 *115:17 *882:13 0.00164194
*RES
1 *988:sram_adr_o[10] *882:7 8.24267 
2 *882:7 *882:9 212.073 
3 *882:9 *882:11 8 
4 *882:11 *882:13 48.7424 
5 *882:13 *989:wbs_adr_i[10] 40.505 
*END

*D_NET *883 0.102644
*CONN
*I *989:wbs_adr_i[11] I *D CF_SRAM_1024x32_wb_wrapper
*I *988:sram_adr_o[11] O *D soc_sys
*CAP
1 *989:wbs_adr_i[11] 0.0204543
2 *988:sram_adr_o[11] 0.0101255
3 *883:11 0.0305799
4 *989:wbs_adr_i[11] *988:sram_dat_i[6] 0.00309701
5 *989:wbs_adr_i[11] *989:wbs_adr_i[22] 0.000114954
6 *989:wbs_adr_i[11] *989:wbs_adr_i[24] 0.000328383
7 *989:wbs_adr_i[11] *989:wbs_dat_i[20] 0
8 *989:wbs_adr_i[11] *885:9 0.000245097
9 *989:wbs_adr_i[11] *899:17 0
10 *989:wbs_adr_i[11] *906:13 0.00404812
11 *989:wbs_adr_i[11] *910:9 0.000245097
12 *989:wbs_adr_i[11] *915:19 0.0174745
13 *989:wbs_adr_i[11] *949:9 0.000299019
14 *989:wbs_adr_i[11] *969:17 0
15 *883:11 *988:sram_dat_i[11] 0
16 *883:11 *988:sram_dat_i[6] 0.00671439
17 *883:11 *885:9 0.00132509
18 *883:11 *910:9 0.000644997
19 *883:11 *915:23 0.00205503
20 *883:11 *949:9 0.000515975
21 *883:11 *952:7 0
22 *35:17 *989:wbs_adr_i[11] 0
23 *35:17 *883:11 0
24 *115:17 *989:wbs_adr_i[11] 0.000188257
25 *882:13 *989:wbs_adr_i[11] 0.00418818
*RES
1 *988:sram_adr_o[11] *883:11 46.2536 
2 *883:11 *989:wbs_adr_i[11] 40.0816 
*END

*D_NET *884 0.0809124
*CONN
*I *989:wbs_adr_i[12] I *D CF_SRAM_1024x32_wb_wrapper
*I *988:sram_adr_o[12] O *D soc_sys
*CAP
1 *989:wbs_adr_i[12] 0.000622284
2 *988:sram_adr_o[12] 0.00068584
3 *884:21 0.00734139
4 *884:19 0.00922271
5 *884:9 0.0134766
6 *884:7 0.0116589
7 *989:wbs_adr_i[12] *989:wbs_dat_i[12] 0
8 *989:wbs_adr_i[12] *916:7 0
9 *884:7 *988:sram_dat_i[12] 0
10 *884:7 *953:7 0
11 *884:19 *989:wbs_we_i 0.000300085
12 *884:19 *885:19 9.69007e-05
13 *884:19 *887:19 0.000327255
14 *884:19 *890:19 0.000207169
15 *884:19 *925:11 2.26122e-05
16 *884:21 *989:wbs_we_i 0.00251402
17 *884:21 *885:21 0.020321
18 *884:21 *925:11 0.00012144
19 *32:27 *884:19 0.00290708
20 *33:37 *884:19 0.000432445
21 *37:37 *884:19 0.00208226
22 *38:33 *884:19 1.31877e-05
23 *105:52 *884:21 0
24 *882:13 *884:19 0.00855917
*RES
1 *988:sram_adr_o[12] *884:7 9.86667 
2 *884:7 *884:9 236.785 
3 *884:9 *884:19 48.1384 
4 *884:19 *884:21 217.873 
5 *884:21 *989:wbs_adr_i[12] 24.0521 
*END

*D_NET *885 0.105744
*CONN
*I *989:wbs_adr_i[13] I *D CF_SRAM_1024x32_wb_wrapper
*I *988:sram_adr_o[13] O *D soc_sys
*CAP
1 *989:wbs_adr_i[13] 0.000602982
2 *988:sram_adr_o[13] 0.00386632
3 *885:21 0.00370497
4 *885:19 0.00443425
5 *885:9 0.00661973
6 *885:7 0.00915378
7 *989:wbs_adr_i[13] *989:wbs_dat_i[13] 0
8 *989:wbs_adr_i[13] *917:7 0
9 *885:7 *988:sram_dat_i[13] 0
10 *885:7 *954:7 0
11 *885:9 *887:9 0.00309343
12 *885:9 *910:9 0.0133583
13 *885:9 *949:9 0.0100328
14 *885:19 *887:19 0.00234672
15 *885:19 *890:19 0.00177024
16 *885:19 *892:19 4.4772e-05
17 *885:19 *903:15 0.00100316
18 *885:19 *925:11 0.000296231
19 *885:19 *979:13 3.79087e-05
20 *885:21 *989:wbs_we_i 0.00218624
21 *885:21 *886:13 0.0210225
22 *885:21 *925:11 0.000140203
23 *989:wbs_adr_i[11] *885:9 0.000245097
24 *32:27 *885:19 4.1352e-05
25 *883:11 *885:9 0.00132509
26 *884:19 *885:19 9.69007e-05
27 *884:21 *885:21 0.020321
*RES
1 *988:sram_adr_o[13] *885:7 19.9131 
2 *885:7 *885:9 247.349 
3 *885:9 *885:19 38.0062 
4 *885:19 *885:21 225.496 
5 *885:21 *989:wbs_adr_i[13] 23.7 
*END

*D_NET *886 0.112467
*CONN
*I *989:wbs_adr_i[14] I *D CF_SRAM_1024x32_wb_wrapper
*I *988:sram_adr_o[14] O *D soc_sys
*CAP
1 *989:wbs_adr_i[14] 0.000572291
2 *988:sram_adr_o[14] 0.0056719
3 *886:13 0.00407397
4 *886:11 0.00350167
5 *886:9 0.0035452
6 *886:7 0.0092171
7 *989:wbs_adr_i[14] *989:wbs_dat_i[14] 0
8 *989:wbs_adr_i[14] *918:7 0
9 *886:7 *988:sram_dat_i[14] 0
10 *886:7 *955:7 0
11 *886:9 *888:9 2.13834e-05
12 *886:9 *916:23 0.000445588
13 *886:9 *916:25 1.23676e-05
14 *886:9 *919:21 0.019572
15 *886:9 *923:15 0.00109689
16 *886:9 *954:9 0.0174859
17 *886:9 *957:17 0.00078227
18 *886:13 *887:21 0.0222917
19 *886:13 *888:13 4.05745e-05
20 *886:13 *925:11 0.00266424
21 *880:20 *886:9 0.000449304
22 *885:21 *886:13 0.0210225
*RES
1 *988:sram_adr_o[14] *886:7 24.464 
2 *886:7 *886:9 260.555 
3 *886:9 *886:11 15 
4 *886:11 *886:13 240.265 
5 *886:13 *989:wbs_adr_i[14] 23.3479 
*END

*D_NET *887 0.116812
*CONN
*I *989:wbs_adr_i[15] I *D CF_SRAM_1024x32_wb_wrapper
*I *988:sram_adr_o[15] O *D soc_sys
*CAP
1 *989:wbs_adr_i[15] 0.000547249
2 *988:sram_adr_o[15] 0.00387363
3 *887:21 0.00399612
4 *887:19 0.00423419
5 *887:9 0.00495557
6 *887:7 0.00804388
7 *989:wbs_adr_i[15] *989:wbs_dat_i[15] 0
8 *989:wbs_adr_i[15] *919:7 0
9 *887:7 *988:sram_dat_i[15] 0
10 *887:7 *956:7 0
11 *887:9 *910:9 0.0134113
12 *887:19 *916:23 4.5745e-05
13 *887:21 *888:13 0.0229505
14 *887:21 *925:11 0.00230768
15 *32:27 *887:19 0.00166864
16 *34:21 *887:9 0.0211786
17 *35:17 *887:9 0.00153119
18 *37:25 *887:9 8.30566e-06
19 *884:19 *887:19 0.000327255
20 *885:9 *887:9 0.00309343
21 *885:19 *887:19 0.00234672
22 *886:13 *887:21 0.0222917
*RES
1 *988:sram_adr_o[15] *887:7 20.0848 
2 *887:7 *887:9 273.408 
3 *887:9 *887:19 36.2801 
4 *887:19 *887:21 246.459 
5 *887:21 *989:wbs_adr_i[15] 22.9957 
*END

*D_NET *888 0.119705
*CONN
*I *989:wbs_adr_i[16] I *D CF_SRAM_1024x32_wb_wrapper
*I *988:sram_adr_o[16] O *D soc_sys
*CAP
1 *989:wbs_adr_i[16] 0.000522208
2 *988:sram_adr_o[16] 0.00553208
3 *888:13 0.0041997
4 *888:11 0.00367749
5 *888:9 0.00395745
6 *888:7 0.00948953
7 *989:wbs_adr_i[16] *989:wbs_dat_i[16] 0
8 *989:wbs_adr_i[16] *920:7 0
9 *888:7 *988:sram_dat_i[16] 0
10 *888:7 *957:7 0
11 *888:7 *960:15 0
12 *888:9 *919:21 0.0199012
13 *888:9 *922:13 0.000373133
14 *888:9 *950:11 0.000511478
15 *888:9 *957:9 0.0212769
16 *888:9 *957:17 0.000727663
17 *888:9 *960:27 0.000252753
18 *888:13 *989:wbs_adr_i[1] 0.002504
19 *888:13 *889:17 0.0237672
20 *886:9 *888:9 2.13834e-05
21 *886:13 *888:13 4.05745e-05
22 *887:21 *888:13 0.0229505
*RES
1 *988:sram_adr_o[16] *888:7 24.2923 
2 *888:7 *888:9 285.205 
3 *888:9 *888:11 15 
4 *888:11 *888:13 255.511 
5 *888:13 *989:wbs_adr_i[16] 22.6436 
*END

*D_NET *889 0.125339
*CONN
*I *989:wbs_adr_i[17] I *D CF_SRAM_1024x32_wb_wrapper
*I *988:sram_adr_o[17] O *D soc_sys
*CAP
1 *989:wbs_adr_i[17] 0.000492085
2 *988:sram_adr_o[17] 0.00501131
3 *889:17 0.00451762
4 *889:15 0.00454303
5 *889:9 0.00473079
6 *889:7 0.00922461
7 *989:wbs_adr_i[17] *989:wbs_dat_i[17] 0
8 *989:wbs_adr_i[17] *921:7 0
9 *889:7 *988:sram_dat_i[17] 0
10 *889:7 *960:15 0
11 *889:9 *917:15 2.34364e-05
12 *889:9 *917:17 0.0169455
13 *889:9 *959:9 0.0216398
14 *889:15 *917:15 0.00166421
15 *889:15 *959:9 2.28244e-05
16 *889:15 *959:15 0.00157775
17 *889:17 *989:wbs_adr_i[1] 0.00216889
18 *889:17 *959:17 0.0250361
19 *31:17 *889:9 0.00397347
20 *888:13 *889:17 0.0237672
*RES
1 *988:sram_adr_o[17] *889:7 23.0043 
2 *889:7 *889:9 275.521 
3 *889:9 *889:15 37.7754 
4 *889:15 *889:17 269.327 
5 *889:17 *989:wbs_adr_i[17] 22.2914 
*END

*D_NET *890 0.115826
*CONN
*I *989:wbs_adr_i[18] I *D CF_SRAM_1024x32_wb_wrapper
*I *988:sram_adr_o[18] O *D soc_sys
*CAP
1 *989:wbs_adr_i[18] 0.000426254
2 *988:sram_adr_o[18] 0.00237916
3 *890:21 0.00433751
4 *890:19 0.00581092
5 *890:9 0.0109977
6 *890:7 0.0114772
7 *989:wbs_adr_i[18] *989:wbs_dat_i[18] 0
8 *989:wbs_adr_i[18] *922:7 0
9 *890:7 *988:sram_dat_i[18] 0
10 *890:7 *959:7 0
11 *890:9 *930:21 0
12 *890:9 *933:21 0.0241668
13 *890:19 *914:15 7.43456e-05
14 *890:19 *926:19 3.15502e-05
15 *890:19 *979:13 0.00053455
16 *890:21 *891:13 0.0252214
17 *890:21 *893:13 0.0255535
18 *890:21 *959:17 0.000178152
19 *32:27 *890:19 0.00032193
20 *33:27 *890:19 0.000168544
21 *34:25 *890:19 0.000102817
22 *35:27 *890:19 0.000535526
23 *35:29 *890:19 0.000130115
24 *36:23 *890:19 3.88523e-05
25 *37:29 *890:19 0.000114879
26 *38:29 *890:9 0.00011643
27 *38:33 *890:19 7.53071e-05
28 *39:17 *890:19 0.00105553
29 *884:19 *890:19 0.000207169
30 *885:19 *890:19 0.00177024
*RES
1 *988:sram_adr_o[18] *890:7 15.6197 
2 *890:7 *890:9 310.031 
3 *890:9 *890:19 39.8094 
4 *890:19 *890:21 275.044 
5 *890:21 *989:wbs_adr_i[18] 21.235 
*END

*D_NET *891 0.122283
*CONN
*I *989:wbs_adr_i[19] I *D CF_SRAM_1024x32_wb_wrapper
*I *988:sram_adr_o[19] O *D soc_sys
*CAP
1 *989:wbs_adr_i[19] 0.000422407
2 *988:sram_adr_o[19] 0.00534903
3 *891:13 0.00450535
4 *891:11 0.00408294
5 *891:9 0.00788023
6 *891:7 0.0132293
7 *989:wbs_adr_i[19] *989:wbs_dat_i[19] 0
8 *989:wbs_adr_i[19] *923:7 0
9 *989:wbs_adr_i[19] *924:7 0
10 *891:7 *988:sram_dat_i[19] 0
11 *891:7 *960:11 0
12 *891:9 *903:9 0.00763693
13 *891:9 *922:13 0.023593
14 *891:9 *926:21 0.00253483
15 *891:9 *948:9 0
16 *891:9 *950:11 0.000504197
17 *891:9 *953:9 0
18 *891:13 *893:13 0.000372096
19 *891:13 *903:15 0.00216889
20 *891:13 *959:17 0.0247822
21 *890:21 *891:13 0.0252214
*RES
1 *988:sram_adr_o[19] *891:7 24.0347 
2 *891:7 *891:9 322.18 
3 *891:9 *891:11 15 
4 *891:11 *891:13 278.379 
5 *891:13 *989:wbs_adr_i[19] 21.5871 
*END

*D_NET *892 0.0612117
*CONN
*I *989:wbs_adr_i[1] I *D CF_SRAM_1024x32_wb_wrapper
*I *988:sram_adr_o[1] O *D soc_sys
*CAP
1 *989:wbs_adr_i[1] 0.00289619
2 *988:sram_adr_o[1] 0.00603053
3 *892:19 0.00348747
4 *892:9 0.00303256
5 *892:7 0.0084718
6 *989:wbs_adr_i[1] *989:wbs_dat_i[1] 0
7 *989:wbs_adr_i[1] *989:wbs_sel_i[0] 0
8 *989:wbs_adr_i[1] *903:15 0.0125549
9 *989:wbs_adr_i[1] *914:9 0
10 *989:wbs_adr_i[1] *925:11 0.0125549
11 *892:7 *988:sram_dat_i[1] 0
12 *892:9 *903:9 0.00252642
13 *892:9 *914:17 0
14 *892:9 *919:15 0.000714466
15 *892:9 *926:21 0.000532307
16 *892:9 *948:9 0
17 *892:9 *954:19 0.00147123
18 *892:9 *958:19 5.6247e-05
19 *892:19 *989:wbs_stb_i 0.000982937
20 *892:19 *903:15 0.00109432
21 *892:19 *979:13 8.781e-05
22 *885:19 *892:19 4.4772e-05
23 *888:13 *989:wbs_adr_i[1] 0.002504
24 *889:17 *989:wbs_adr_i[1] 0.00216889
*RES
1 *988:sram_adr_o[1] *892:7 23.7771 
2 *892:7 *892:9 81.1379 
3 *892:9 *892:19 27.8421 
4 *892:19 *989:wbs_adr_i[1] 39.5748 
*END

*D_NET *893 0.118512
*CONN
*I *989:wbs_adr_i[20] I *D CF_SRAM_1024x32_wb_wrapper
*I *988:sram_adr_o[20] O *D soc_sys
*CAP
1 *989:wbs_adr_i[20] 0.000368138
2 *988:sram_adr_o[20] 0.0043359
3 *893:13 0.00508223
4 *893:11 0.00471409
5 *893:9 0.0107233
6 *893:7 0.0150592
7 *989:wbs_adr_i[20] *989:wbs_dat_i[20] 0
8 *989:wbs_adr_i[20] *924:7 0
9 *989:wbs_adr_i[20] *926:7 0
10 *893:7 *988:sram_dat_i[20] 0
11 *893:7 *961:11 0
12 *893:9 *920:13 0.000262394
13 *893:9 *944:21 0
14 *893:9 *960:17 0.0218397
15 *893:9 *961:13 0
16 *893:13 *989:wbs_adr_i[26] 0.000214439
17 *893:13 *989:wbs_stb_i 0.00246396
18 *893:13 *898:13 0.0271413
19 *893:13 *959:17 4.87889e-05
20 *33:29 *893:13 0
21 *115:23 *893:9 0
22 *115:25 *893:13 0.000333365
23 *890:21 *893:13 0.0255535
24 *891:13 *893:13 0.000372096
*RES
1 *988:sram_adr_o[20] *893:7 21.5445 
2 *893:7 *893:9 334.152 
3 *893:9 *893:11 15 
4 *893:11 *893:13 299.342 
5 *893:13 *989:wbs_adr_i[20] 20.8829 
*END

*D_NET *894 0.131217
*CONN
*I *989:wbs_adr_i[21] I *D CF_SRAM_1024x32_wb_wrapper
*I *988:sram_adr_o[21] O *D soc_sys
*CAP
1 *989:wbs_adr_i[21] 0.00156227
2 *988:sram_adr_o[21] 0.00259467
3 *894:13 0.00764573
4 *894:11 0.00608346
5 *894:9 0.0120175
6 *894:7 0.0146122
7 *989:wbs_adr_i[21] *989:wbs_dat_i[21] 0
8 *989:wbs_adr_i[21] *926:7 0
9 *894:7 *988:sram_dat_i[21] 0
10 *894:7 *963:7 4.08236e-06
11 *894:7 *963:9 0.00141524
12 *894:9 *896:9 0.00560036
13 *894:9 *952:9 0.0176878
14 *894:9 *973:9 0
15 *894:13 *896:13 0.0316822
16 *894:13 *932:16 0.00430084
17 *894:13 *968:13 0.00312232
18 *894:13 *981:13 0.0228883
*RES
1 *988:sram_adr_o[21] *894:7 18.1957 
2 *894:7 *894:9 371.304 
3 *894:9 *894:11 8 
4 *894:11 *894:13 58.6171 
5 *894:13 *989:wbs_adr_i[21] 38.3568 
*END

*D_NET *895 0.0950989
*CONN
*I *989:wbs_adr_i[22] I *D CF_SRAM_1024x32_wb_wrapper
*I *988:sram_adr_o[22] O *D soc_sys
*CAP
1 *989:wbs_adr_i[22] 0.00460194
2 *988:sram_adr_o[22] 0.0117225
3 *895:9 0.0230679
4 *895:7 0.018466
5 *895:5 0.0117225
6 *989:wbs_adr_i[22] *989:wbs_adr_i[24] 0.000140484
7 *989:wbs_adr_i[22] *989:wbs_dat_i[20] 0.00541695
8 *989:wbs_adr_i[22] *989:wbs_dat_i[26] 0.00666138
9 *989:wbs_adr_i[22] *989:wbs_dat_i[28] 0.000543763
10 *989:wbs_adr_i[22] *989:wbs_dat_i[30] 0.000630372
11 *989:wbs_adr_i[22] *989:wbs_dat_i[9] 0.000557812
12 *989:wbs_adr_i[22] *927:9 0.000394128
13 *989:wbs_adr_i[22] *972:19 0.00115923
14 *895:5 *988:sram_dat_i[22] 0
15 *895:5 *928:14 0
16 *895:5 *964:7 0
17 *895:5 *965:13 0.00944989
18 *895:9 *989:wbs_dat_i[20] 0
19 *895:9 *963:15 0
20 *989:wbs_adr_i[10] *989:wbs_adr_i[22] 0.000449184
21 *989:wbs_adr_i[11] *989:wbs_adr_i[22] 0.000114954
*RES
1 *988:sram_adr_o[22] *895:5 52.0557 
2 *895:5 *895:7 8 
3 *895:7 *895:9 64.1573 
4 *895:9 *989:wbs_adr_i[22] 35.7651 
*END

*D_NET *896 0.152853
*CONN
*I *989:wbs_adr_i[23] I *D CF_SRAM_1024x32_wb_wrapper
*I *988:sram_adr_o[23] O *D soc_sys
*CAP
1 *989:wbs_adr_i[23] 0.00147883
2 *988:sram_adr_o[23] 0.00274553
3 *896:13 0.00734099
4 *896:11 0.00586216
5 *896:9 0.00630821
6 *896:7 0.00905375
7 *989:wbs_adr_i[23] *989:wbs_dat_i[23] 0
8 *896:7 *988:sram_dat_i[23] 0
9 *896:7 *897:13 0.00106843
10 *896:7 *965:11 0
11 *896:9 *900:9 0.0307248
12 *896:9 *952:9 0.01788
13 *896:13 *964:13 0.0320034
14 *896:13 *966:13 0.000643354
15 *896:13 *968:13 0.000415523
16 *896:13 *981:13 4.5552e-05
17 *894:9 *896:9 0.00560036
18 *894:13 *896:13 0.0316822
*RES
1 *988:sram_adr_o[23] *896:7 18.024 
2 *896:7 *896:9 395.954 
3 *896:9 *896:11 8 
4 *896:11 *896:13 61.3648 
5 *896:13 *989:wbs_adr_i[23] 37.6525 
*END

*D_NET *897 0.105343
*CONN
*I *989:wbs_adr_i[24] I *D CF_SRAM_1024x32_wb_wrapper
*I *988:sram_adr_o[24] O *D soc_sys
*CAP
1 *989:wbs_adr_i[24] 0.0028951
2 *988:sram_adr_o[24] 0.000857667
3 *897:17 0.0216114
4 *897:15 0.0187163
5 *897:13 0.0102341
6 *897:11 0.0110918
7 *989:wbs_adr_i[24] *989:wbs_dat_i[26] 0.00466802
8 *989:wbs_adr_i[24] *989:wbs_dat_i[28] 0.000614634
9 *989:wbs_adr_i[24] *989:wbs_dat_i[9] 0.000256185
10 *989:wbs_adr_i[24] *928:8 0.0116814
11 *989:wbs_adr_i[24] *929:8 5.56761e-05
12 *989:wbs_adr_i[24] *942:26 4.93791e-05
13 *897:11 *988:sram_dat_i[24] 0
14 *897:11 *966:7 0
15 *897:13 *988:sram_dat_i[23] 0
16 *897:13 *929:14 0.0186386
17 *897:13 *965:11 0.000980247
18 *989:wbs_adr_i[10] *989:wbs_adr_i[24] 0.00145531
19 *989:wbs_adr_i[11] *989:wbs_adr_i[24] 0.000328383
20 *989:wbs_adr_i[22] *989:wbs_adr_i[24] 0.000140484
21 *896:7 *897:13 0.00106843
*RES
1 *988:sram_adr_o[24] *897:11 32.0774 
2 *897:11 *897:13 49.0429 
3 *897:13 *897:15 8 
4 *897:15 *897:17 65.4267 
5 *897:17 *989:wbs_adr_i[24] 39.1971 
*END

*D_NET *898 0.158107
*CONN
*I *989:wbs_adr_i[25] I *D CF_SRAM_1024x32_wb_wrapper
*I *988:sram_adr_o[25] O *D soc_sys
*CAP
1 *989:wbs_adr_i[25] 0.000316996
2 *988:sram_adr_o[25] 0.00321005
3 *898:13 0.00558295
4 *898:11 0.00526595
5 *898:9 0.0064843
6 *898:7 0.00969435
7 *989:wbs_adr_i[25] *989:wbs_dat_i[25] 0
8 *989:wbs_adr_i[25] *930:7 0
9 *898:7 *988:sram_dat_i[25] 0
10 *898:7 *899:13 0.00770085
11 *898:7 *967:11 0
12 *898:9 *988:sram_dat_i[23] 0
13 *898:9 *953:17 0.000142629
14 *898:9 *959:9 0.0223526
15 *898:9 *959:15 0.000154668
16 *898:9 *980:17 0.00112529
17 *898:13 *989:wbs_adr_i[26] 0.000988908
18 *898:13 *989:wbs_stb_i 0.00252403
19 *31:17 *898:9 0.00418087
20 *69:33 *898:9 0.0307814
21 *115:25 *898:13 0.0304596
22 *893:13 *898:13 0.0271413
*RES
1 *988:sram_adr_o[25] *898:7 22.8325 
2 *898:7 *898:9 397.186 
3 *898:9 *898:11 15 
4 *898:11 *898:13 327.928 
5 *898:13 *989:wbs_adr_i[25] 20.5307 
*END

*D_NET *899 0.119522
*CONN
*I *989:wbs_adr_i[26] I *D CF_SRAM_1024x32_wb_wrapper
*I *988:sram_adr_o[26] O *D soc_sys
*CAP
1 *989:wbs_adr_i[26] 0.0067484
2 *988:sram_adr_o[26] 0.000668976
3 *899:17 0.0206701
4 *899:15 0.0139217
5 *899:13 0.014414
6 *899:11 0.015083
7 *989:wbs_adr_i[26] *989:wbs_adr_i[28] 0.00596265
8 *989:wbs_adr_i[26] *989:wbs_dat_i[26] 0
9 *989:wbs_adr_i[26] *927:9 0.00189135
10 *989:wbs_adr_i[26] *931:7 0
11 *899:11 *968:7 0
12 *899:11 *971:17 0.000122364
13 *899:13 *988:sram_dat_i[25] 0.000645811
14 *899:13 *967:11 0
15 *899:17 *915:19 1.16365e-06
16 *899:17 *969:17 0.0300575
17 *989:wbs_adr_i[11] *899:17 0
18 *115:25 *989:wbs_adr_i[26] 0.000430648
19 *893:13 *989:wbs_adr_i[26] 0.000214439
20 *898:7 *899:13 0.00770085
21 *898:13 *989:wbs_adr_i[26] 0.000988908
*RES
1 *988:sram_adr_o[26] *899:11 28.556 
2 *899:11 *899:13 55.9123 
3 *899:13 *899:15 8 
4 *899:15 *899:17 71.6464 
5 *899:17 *989:wbs_adr_i[26] 39.9062 
*END

*D_NET *900 0.156466
*CONN
*I *989:wbs_adr_i[27] I *D CF_SRAM_1024x32_wb_wrapper
*I *988:sram_adr_o[27] O *D soc_sys
*CAP
1 *989:wbs_adr_i[27] 0.00136839
2 *988:sram_adr_o[27] 0.00240301
3 *900:13 0.0122605
4 *900:11 0.0108921
5 *900:9 0.00736757
6 *900:7 0.00977058
7 *989:wbs_adr_i[27] *989:wbs_dat_i[26] 0
8 *989:wbs_adr_i[27] *989:wbs_dat_i[27] 0
9 *989:wbs_adr_i[27] *932:16 0.00043992
10 *900:7 *988:sram_dat_i[27] 0
11 *900:7 *901:13 0.001427
12 *900:7 *969:11 0
13 *900:9 *909:9 0
14 *900:9 *940:13 0
15 *900:13 *964:13 0.0136017
16 *900:13 *970:21 0.0338149
17 *38:21 *900:9 6.79627e-05
18 *39:13 *900:9 0
19 *112:17 *900:9 0.0319485
20 *113:33 *900:9 0.000378845
21 *896:9 *900:9 0.0307248
*RES
1 *988:sram_adr_o[27] *900:7 17.9381 
2 *900:7 *900:9 445.782 
3 *900:9 *900:11 15 
4 *900:11 *900:13 369.377 
5 *900:13 *989:wbs_adr_i[27] 43.7721 
*END

*D_NET *901 0.104811
*CONN
*I *989:wbs_adr_i[28] I *D CF_SRAM_1024x32_wb_wrapper
*I *988:sram_adr_o[28] O *D soc_sys
*CAP
1 *989:wbs_adr_i[28] 0.00212974
2 *988:sram_adr_o[28] 0.000624271
3 *901:17 0.0183238
4 *901:15 0.0161941
5 *901:13 0.0172656
6 *901:11 0.0178899
7 *989:wbs_adr_i[28] *989:wbs_dat_i[28] 0
8 *989:wbs_adr_i[28] *989:wbs_dat_i[30] 0.00210225
9 *989:wbs_adr_i[28] *927:9 0.00302265
10 *989:wbs_adr_i[28] *933:7 0
11 *989:wbs_adr_i[28] *934:7 0
12 *901:11 *988:sram_dat_i[28] 0
13 *901:11 *970:7 0
14 *901:11 *971:15 0
15 *901:13 *988:sram_dat_i[27] 0.00206056
16 *901:17 *972:9 0.0176997
17 *989:wbs_adr_i[26] *989:wbs_adr_i[28] 0.00596265
18 *115:25 *989:wbs_adr_i[28] 0.000108552
19 *900:7 *901:13 0.001427
*RES
1 *988:sram_adr_o[28] *901:11 26.4431 
2 *901:11 *901:13 63.4685 
3 *901:13 *901:15 8 
4 *901:15 *901:17 76.4699 
5 *901:17 *989:wbs_adr_i[28] 34.2217 
*END

*D_NET *902 0.184952
*CONN
*I *989:wbs_adr_i[29] I *D CF_SRAM_1024x32_wb_wrapper
*I *988:sram_adr_o[29] O *D soc_sys
*CAP
1 *989:wbs_adr_i[29] 0.00125581
2 *988:sram_adr_o[29] 0.00213963
3 *902:13 0.0061706
4 *902:11 0.00491479
5 *902:9 0.00653657
6 *902:7 0.0086762
7 *989:wbs_adr_i[29] *989:wbs_dat_i[29] 0
8 *989:wbs_adr_i[29] *934:7 0
9 *989:wbs_adr_i[29] *935:7 0
10 *902:7 *988:sram_dat_i[29] 0
11 *902:7 *971:15 0
12 *902:9 *931:21 0
13 *902:9 *932:18 0.00116739
14 *902:9 *934:13 0.0359009
15 *902:9 *935:13 0.0365354
16 *902:13 *931:9 0.00733167
17 *902:13 *933:19 0.000160236
18 *902:13 *934:9 0.0369548
19 *902:13 *935:9 0.0372077
*RES
1 *988:sram_adr_o[29] *902:7 15.3621 
2 *902:7 *902:9 469.728 
3 *902:9 *902:11 15 
4 *902:11 *902:13 397.963 
5 *902:13 *989:wbs_adr_i[29] 42.3636 
*END

*D_NET *903 0.0633284
*CONN
*I *989:wbs_adr_i[2] I *D CF_SRAM_1024x32_wb_wrapper
*I *988:sram_adr_o[2] O *D soc_sys
*CAP
1 *989:wbs_adr_i[2] 0.000500846
2 *988:sram_adr_o[2] 0.00607105
3 *903:15 0.00467556
4 *903:9 0.00598744
5 *903:7 0.00788377
6 *989:wbs_adr_i[2] *989:wbs_dat_i[2] 0
7 *989:wbs_adr_i[2] *989:wbs_sel_i[1] 0
8 *989:wbs_adr_i[2] *936:7 0
9 *903:7 *988:sram_dat_i[2] 0
10 *903:7 *947:7 0
11 *903:9 *922:13 1.33995e-05
12 *903:9 *926:21 0.000335389
13 *903:9 *948:9 0
14 *903:9 *950:11 0.000337877
15 *903:9 *954:19 0.00151892
16 *903:15 *989:wbs_stb_i 0.00552972
17 *903:15 *925:11 0.000252028
18 *903:15 *959:17 0.002504
19 *903:15 *979:13 0.000645326
20 *989:wbs_adr_i[1] *903:15 0.0125549
21 *882:13 *903:15 8.84642e-05
22 *885:19 *903:15 0.00100316
23 *891:9 *903:9 0.00763693
24 *891:13 *903:15 0.00216889
25 *892:9 *903:9 0.00252642
26 *892:19 *903:15 0.00109432
*RES
1 *988:sram_adr_o[2] *903:7 23.9488 
2 *903:7 *903:9 98.745 
3 *903:9 *903:15 43.5333 
4 *903:15 *989:wbs_adr_i[2] 7.11536 
*END

*D_NET *904 0.161086
*CONN
*I *989:wbs_adr_i[30] I *D CF_SRAM_1024x32_wb_wrapper
*I *988:sram_adr_o[30] O *D soc_sys
*CAP
1 *989:wbs_adr_i[30] 0.00119561
2 *988:sram_adr_o[30] 0.00199969
3 *904:13 0.0129749
4 *904:11 0.0117793
5 *904:9 0.0068395
6 *904:7 0.00883919
7 *989:wbs_adr_i[30] *989:wbs_dat_i[30] 0
8 *989:wbs_adr_i[30] *935:7 0
9 *904:7 *988:sram_dat_i[30] 0
10 *904:7 *972:5 0
11 *904:9 *931:21 0.00122119
12 *904:9 *932:18 0.00156804
13 *904:9 *935:13 0.00119571
14 *904:13 *931:9 0.00551759
15 *904:13 *935:9 0.0376992
16 *904:13 *951:23 0.00010109
17 *904:13 *970:19 0.000230348
18 *104:25 *904:9 0.0349367
19 *114:17 *904:9 0.0349879
*RES
1 *988:sram_adr_o[30] *904:7 15.1045 
2 *904:7 *904:9 481.7 
3 *904:9 *904:11 15 
4 *904:11 *904:13 406.539 
5 *904:13 *989:wbs_adr_i[30] 41.6593 
*END

*D_NET *905 0.117122
*CONN
*I *989:wbs_adr_i[31] I *D CF_SRAM_1024x32_wb_wrapper
*I *988:sram_adr_o[31] O *D soc_sys
*CAP
1 *989:wbs_adr_i[31] 4.67136e-05
2 *988:sram_adr_o[31] 0.024207
3 *905:17 0.00671291
4 *905:15 0.0141011
5 *905:5 0.0316419
6 *905:5 *988:sram_dat_i[31] 0
7 *905:5 *938:14 0
8 *905:5 *974:5 0
9 *905:15 *937:10 0
10 *905:15 *937:20 0
11 *905:17 *937:10 0.0143547
12 *905:17 *975:17 0.026058
*RES
1 *988:sram_adr_o[31] *905:5 80.3917 
2 *905:5 *905:15 48.0352 
3 *905:15 *905:17 61.2379 
4 *905:17 *989:wbs_adr_i[31] 16.0989 
*END

*D_NET *906 0.0698272
*CONN
*I *989:wbs_adr_i[3] I *D CF_SRAM_1024x32_wb_wrapper
*I *988:sram_adr_o[3] O *D soc_sys
*CAP
1 *989:wbs_adr_i[3] 0.000739173
2 *988:sram_adr_o[3] 0.00200257
3 *906:13 0.00565447
4 *906:9 0.00860175
5 *906:7 0.00568903
6 *989:wbs_adr_i[3] *989:wbs_dat_i[3] 0
7 *989:wbs_adr_i[3] *989:wbs_sel_i[2] 0
8 *989:wbs_adr_i[3] *939:7 0
9 *906:7 *988:sram_dat_i[3] 0
10 *906:7 *948:7 0
11 *906:9 *908:9 0
12 *906:9 *911:9 1.77326e-05
13 *906:9 *911:15 0.000421584
14 *906:9 *979:9 0.00882717
15 *906:13 *909:17 0.00122222
16 *906:13 *914:9 0.00741284
17 *989:wbs_adr_i[11] *906:13 0.00404812
18 *32:37 *906:13 0.000505643
19 *115:17 *906:13 0.0036506
20 *882:13 *906:13 0.0210342
*RES
1 *988:sram_adr_o[3] *906:7 13.9883 
2 *906:7 *906:9 119.874 
3 *906:9 *906:13 47.2112 
4 *906:13 *989:wbs_adr_i[3] 19.3411 
*END

*D_NET *907 0.0918361
*CONN
*I *989:wbs_adr_i[4] I *D CF_SRAM_1024x32_wb_wrapper
*I *988:sram_adr_o[4] O *D soc_sys
*CAP
1 *989:wbs_adr_i[4] 0.00109297
2 *988:sram_adr_o[4] 0.00284971
3 *907:13 0.00524001
4 *907:9 0.00620579
5 *907:7 0.00490846
6 *989:wbs_adr_i[4] *989:wbs_dat_i[4] 0
7 *989:wbs_adr_i[4] *989:wbs_sel_i[3] 0
8 *989:wbs_adr_i[4] *940:7 0
9 *907:7 *988:sram_dat_i[4] 0
10 *907:7 *949:7 0
11 *907:9 *930:21 0.0109842
12 *907:9 *943:21 0.0109815
13 *907:13 *908:17 0.000994468
14 *907:13 *910:13 0.0188542
15 *907:13 *911:17 0.0207732
16 *907:13 *915:19 0.000829737
17 *907:13 *917:9 0.00324512
18 *907:13 *919:9 0.00281083
19 *907:13 *942:26 0.000928816
20 *907:13 *942:48 0.00113706
*RES
1 *988:sram_adr_o[4] *907:7 16.3925 
2 *907:7 *907:9 141.706 
3 *907:9 *907:13 46.5243 
4 *907:13 *989:wbs_adr_i[4] 24.2711 
*END

*D_NET *908 0.0887596
*CONN
*I *989:wbs_adr_i[5] I *D CF_SRAM_1024x32_wb_wrapper
*I *988:sram_adr_o[5] O *D soc_sys
*CAP
1 *989:wbs_adr_i[5] 0.000909415
2 *988:sram_adr_o[5] 0.00216276
3 *908:17 0.00594608
4 *908:9 0.00978776
5 *908:7 0.00691386
6 *989:wbs_adr_i[5] *940:7 0
7 *989:wbs_adr_i[5] *941:7 0
8 *908:7 *988:sram_dat_i[5] 0
9 *908:7 *977:7 0
10 *908:9 *911:15 0
11 *908:9 *932:18 0.000476486
12 *908:9 *941:13 0.000527485
13 *908:9 *978:9 0.010722
14 *908:9 *979:9 0
15 *908:17 *909:17 0.0207901
16 *908:17 *910:13 0.000552387
17 *908:17 *911:17 0.00031157
18 *908:17 *912:13 0.0184552
19 *908:17 *915:19 0.0036285
20 *908:17 *922:9 0.00324512
21 *908:17 *926:9 0.00281083
22 *989:wbs_adr_i[10] *989:wbs_adr_i[5] 0
23 *143:13 *908:17 0.000525611
24 *906:9 *908:9 0
25 *907:13 *908:17 0.000994468
*RES
1 *988:sram_adr_o[5] *908:7 14.6752 
2 *908:7 *908:9 152.975 
3 *908:9 *908:17 49.7685 
4 *908:17 *989:wbs_adr_i[5] 22.1582 
*END

*D_NET *909 0.0976851
*CONN
*I *989:wbs_adr_i[6] I *D CF_SRAM_1024x32_wb_wrapper
*I *988:sram_adr_o[6] O *D soc_sys
*CAP
1 *989:wbs_adr_i[6] 0.000832798
2 *988:sram_adr_o[6] 0.00313401
3 *909:17 0.00651193
4 *909:9 0.00840955
5 *909:7 0.00586443
6 *989:wbs_adr_i[6] *989:wbs_dat_i[6] 0
7 *989:wbs_adr_i[6] *941:7 0
8 *909:7 *988:sram_dat_i[6] 0
9 *909:7 *978:7 0
10 *909:9 *940:13 0.0111507
11 *909:9 *977:9 0.000170749
12 *909:17 *912:13 0.000383953
13 *909:17 *914:9 0.0138639
14 *909:17 *915:19 0.00309399
15 *909:17 *924:9 0.00346544
16 *909:17 *942:48 0.000214251
17 *39:13 *909:9 0.0122388
18 *66:21 *909:9 0.00195888
19 *105:52 *909:17 0.000214439
20 *115:17 *909:17 0.000363838
21 *143:13 *909:17 0.000442671
22 *143:21 *909:17 0.00281083
23 *882:13 *909:17 0.000547511
24 *900:9 *909:9 0
25 *906:13 *909:17 0.00122222
26 *908:17 *909:17 0.0207901
*RES
1 *988:sram_adr_o[6] *909:7 17.5088 
2 *909:7 *909:9 164.948 
3 *909:9 *909:17 48.2229 
4 *909:17 *989:wbs_adr_i[6] 21.4539 
*END

*D_NET *910 0.104145
*CONN
*I *989:wbs_adr_i[7] I *D CF_SRAM_1024x32_wb_wrapper
*I *988:sram_adr_o[7] O *D soc_sys
*CAP
1 *989:wbs_adr_i[7] 0.000994405
2 *988:sram_adr_o[7] 0.00411953
3 *910:13 0.00521531
4 *910:9 0.00684723
5 *910:7 0.00674586
6 *989:wbs_adr_i[7] *989:wbs_dat_i[6] 0
7 *989:wbs_adr_i[7] *989:wbs_dat_i[7] 0
8 *989:wbs_adr_i[7] *943:7 0
9 *910:7 *988:sram_dat_i[7] 0
10 *910:7 *979:7 0
11 *910:9 *924:13 0
12 *910:9 *944:21 0
13 *910:9 *949:9 0.000259551
14 *910:13 *911:17 0.00109376
15 *910:13 *912:13 0.0198537
16 *910:13 *915:19 0.00464486
17 *910:13 *917:9 0.000293444
18 *910:13 *918:9 0.00357561
19 *910:13 *919:9 0.000338783
20 *910:13 *957:21 0.00309708
21 *989:wbs_adr_i[11] *910:9 0.000245097
22 *883:11 *910:9 0.000644997
23 *885:9 *910:9 0.0133583
24 *887:9 *910:9 0.0134113
25 *907:13 *910:13 0.0188542
26 *908:17 *910:13 0.000552387
*RES
1 *988:sram_adr_o[7] *910:7 19.9989 
2 *910:7 *910:9 179.034 
3 *910:9 *910:13 46.7819 
4 *910:13 *989:wbs_adr_i[7] 23.5668 
*END

*D_NET *911 0.0972001
*CONN
*I *989:wbs_adr_i[8] I *D CF_SRAM_1024x32_wb_wrapper
*I *988:sram_adr_o[8] O *D soc_sys
*CAP
1 *989:wbs_adr_i[8] 0.00106901
2 *988:sram_adr_o[8] 0.00190216
3 *911:17 0.00804052
4 *911:15 0.00736827
5 *911:9 0.00316607
6 *911:7 0.00467147
7 *989:wbs_adr_i[8] *989:wbs_dat_i[8] 0
8 *989:wbs_adr_i[8] *943:7 0
9 *911:7 *988:sram_dat_i[8] 0
10 *911:9 *955:9 0.0141486
11 *911:9 *979:9 0.0127791
12 *911:15 *955:9 0.000303667
13 *911:17 *912:13 0.000226969
14 *911:17 *915:19 0.000899169
15 *911:17 *916:9 0.00381598
16 *911:17 *942:26 0.00211464
17 *911:17 *942:48 0.00135413
18 *911:17 *947:15 0.00413619
19 *911:17 *954:21 0.00330528
20 *911:17 *956:19 0.00505406
21 *37:35 *911:15 0.000227043
22 *143:13 *911:17 0
23 *906:9 *911:9 1.77326e-05
24 *906:9 *911:15 0.000421584
25 *907:13 *911:17 0.0207732
26 *908:9 *911:15 0
27 *908:17 *911:17 0.00031157
28 *910:13 *911:17 0.00109376
*RES
1 *988:sram_adr_o[8] *911:7 13.8165 
2 *911:7 *911:9 181.851 
3 *911:9 *911:15 20.035 
4 *911:15 *911:17 46.1664 
5 *911:17 *989:wbs_adr_i[8] 24.9754 
*END

*D_NET *912 0.0986309
*CONN
*I *989:wbs_adr_i[9] I *D CF_SRAM_1024x32_wb_wrapper
*I *988:sram_adr_o[9] O *D soc_sys
*CAP
1 *989:wbs_adr_i[9] 0.000933475
2 *988:sram_adr_o[9] 0.00491722
3 *912:13 0.00657645
4 *912:9 0.0123248
5 *912:7 0.011599
6 *989:wbs_adr_i[9] *989:wbs_dat_i[9] 0
7 *989:wbs_adr_i[9] *944:7 0
8 *989:wbs_adr_i[9] *945:7 0
9 *912:7 *988:sram_dat_i[9] 0
10 *912:7 *981:7 0
11 *912:9 *945:13 0.00389775
12 *912:9 *947:9 0.00781831
13 *912:9 *951:9 0
14 *912:9 *951:23 0
15 *912:13 *915:19 0.00486295
16 *912:13 *920:9 0.00309708
17 *912:13 *922:9 0.000108552
18 *912:13 *956:21 0.00357561
19 *31:27 *912:9 0
20 *69:33 *912:9 0
21 *908:17 *912:13 0.0184552
22 *909:17 *912:13 0.000383953
23 *910:13 *912:13 0.0198537
24 *911:17 *912:13 0.000226969
*RES
1 *988:sram_adr_o[9] *912:7 21.9739 
2 *912:7 *912:9 203.684 
3 *912:9 *912:13 47.3829 
4 *912:13 *989:wbs_adr_i[9] 22.8625 
*END

*D_NET *913 0.0343461
*CONN
*I *989:wbs_cyc_i I *D CF_SRAM_1024x32_wb_wrapper
*I *988:sram_cyc_o O *D soc_sys
*CAP
1 *989:wbs_cyc_i 0.0163992
2 *988:sram_cyc_o 0.0163992
3 *989:wbs_cyc_i *927:13 0.000502567
4 *989:wbs_cyc_i *950:11 0
5 *989:wbs_cyc_i *962:9 0.000191693
6 *989:wbs_cyc_i *978:13 2.98064e-05
7 *989:wbs_cyc_i *982:11 0.000710961
8 *988:sram_ack_i *989:wbs_cyc_i 0
9 *989:wbs_adr_i[0] *989:wbs_cyc_i 2.37336e-05
10 *880:20 *989:wbs_cyc_i 8.9077e-05
*RES
1 *988:sram_cyc_o *989:wbs_cyc_i 41.7491 
*END

*D_NET *914 0.0566707
*CONN
*I *988:sram_dat_i[0] I *D soc_sys
*I *989:wbs_dat_o[0] O *D CF_SRAM_1024x32_wb_wrapper
*CAP
1 *988:sram_dat_i[0] 0.00590668
2 *989:wbs_dat_o[0] 0.00381273
3 *914:17 0.00761492
4 *914:15 0.00225901
5 *914:9 0.0043635
6 *988:sram_dat_i[0] *951:7 0
7 *914:9 *989:wbs_dat_i[0] 0
8 *914:9 *989:wbs_sel_i[0] 0
9 *914:9 *915:19 0.00193422
10 *914:15 *917:15 0.00108256
11 *914:15 *926:19 0.000238621
12 *914:15 *958:19 0
13 *914:17 *917:15 1.25202e-05
14 *914:17 *948:9 0.00464924
15 *914:17 *958:19 7.0508e-05
16 *989:wbs_adr_i[1] *914:9 0
17 *32:17 *914:17 0.000705394
18 *105:52 *914:9 0.00262071
19 *541:33 *914:15 4.89546e-05
20 *881:7 *988:sram_dat_i[0] 0
21 *890:19 *914:15 7.43456e-05
22 *892:9 *914:17 0
23 *906:13 *914:9 0.00741284
24 *909:17 *914:9 0.0138639
*RES
1 *989:wbs_dat_o[0] *914:9 46.3939 
2 *914:9 *914:15 23.5564 
3 *914:15 *914:17 60.0093 
4 *914:17 *988:sram_dat_i[0] 23.3477 
*END

*D_NET *915 0.119291
*CONN
*I *988:sram_dat_i[10] I *D soc_sys
*I *989:wbs_dat_o[10] O *D CF_SRAM_1024x32_wb_wrapper
*CAP
1 *988:sram_dat_i[10] 0.00367731
2 *989:wbs_dat_o[10] 0.0126474
3 *915:23 0.0143927
4 *915:19 0.0233628
5 *988:sram_dat_i[10] *952:7 0
6 *915:19 *989:wbs_dat_i[10] 0
7 *915:19 *989:wbs_dat_i[11] 0
8 *915:19 *927:9 6.54495e-05
9 *915:19 *942:26 0.00475257
10 *915:19 *942:48 0.00662699
11 *915:19 *947:15 0.000162104
12 *915:19 *949:31 0.000141785
13 *915:23 *988:sram_dat_i[6] 0.0126086
14 *915:23 *942:48 3.58058e-05
15 *915:23 *973:9 0.000826857
16 *989:wbs_adr_i[11] *915:19 0.0174745
17 *881:9 *915:23 0.000566635
18 *883:11 *915:23 0.00205503
19 *899:17 *915:19 1.16365e-06
20 *907:13 *915:19 0.000829737
21 *908:17 *915:19 0.0036285
22 *909:17 *915:19 0.00309399
23 *910:13 *915:19 0.00464486
24 *911:17 *915:19 0.000899169
25 *912:13 *915:19 0.00486295
26 *914:9 *915:19 0.00193422
*RES
1 *989:wbs_dat_o[10] *915:19 30.4031 
2 *915:19 *915:23 47.9131 
3 *915:23 *988:sram_dat_i[10] 11.0115 
*END

*D_NET *916 0.0841339
*CONN
*I *988:sram_dat_i[11] I *D soc_sys
*I *989:wbs_dat_o[11] O *D CF_SRAM_1024x32_wb_wrapper
*CAP
1 *988:sram_dat_i[11] 0.00584751
2 *989:wbs_dat_o[11] 0.00109028
3 *916:25 0.0118362
4 *916:23 0.00709363
5 *916:9 0.00782756
6 *916:7 0.00781292
7 *988:sram_dat_i[11] *953:7 0
8 *916:7 *989:wbs_dat_i[11] 0
9 *916:7 *989:wbs_dat_i[12] 0
10 *916:9 *930:9 0
11 *916:9 *954:21 0.0203976
12 *916:23 *923:15 4.89348e-05
13 *916:23 *925:13 0
14 *916:23 *957:17 0.000204492
15 *916:23 *961:23 6.92618e-05
16 *916:23 *983:9 0
17 *916:25 *923:15 0.000936861
18 *916:25 *925:13 0
19 *916:25 *954:9 0.0161576
20 *989:wbs_adr_i[12] *916:7 0
21 *880:20 *916:25 0.000491324
22 *883:11 *988:sram_dat_i[11] 0
23 *886:9 *916:23 0.000445588
24 *886:9 *916:25 1.23676e-05
25 *887:19 *916:23 4.5745e-05
26 *911:17 *916:9 0.00381598
*RES
1 *989:wbs_dat_o[11] *916:7 31.7993 
2 *916:7 *916:9 223.114 
3 *916:9 *916:23 34.7304 
4 *916:23 *916:25 217.769 
5 *916:25 *988:sram_dat_i[11] 24.6357 
*END

*D_NET *917 0.112062
*CONN
*I *988:sram_dat_i[12] I *D soc_sys
*I *989:wbs_dat_o[12] O *D CF_SRAM_1024x32_wb_wrapper
*CAP
1 *988:sram_dat_i[12] 0.00518995
2 *989:wbs_dat_o[12] 0.00104955
3 *917:17 0.00785919
4 *917:15 0.00362023
5 *917:9 0.00402124
6 *917:7 0.0041198
7 *988:sram_dat_i[12] *954:7 0
8 *917:7 *989:wbs_dat_i[12] 0
9 *917:9 *918:9 0.0001164
10 *917:9 *919:9 0.0214779
11 *917:9 *920:9 2.92911e-06
12 *917:9 *930:9 0
13 *917:9 *954:21 0.0211759
14 *917:15 *918:19 5.95262e-05
15 *917:15 *926:19 0
16 *917:15 *948:9 0.00100065
17 *917:15 *953:17 0
18 *917:15 *956:19 2.31765e-05
19 *917:17 *948:9 1.50266e-05
20 *917:17 *953:9 0.016242
21 *989:wbs_adr_i[13] *917:7 0
22 *31:17 *917:17 0.00282207
23 *884:7 *988:sram_dat_i[12] 0
24 *889:9 *917:15 2.34364e-05
25 *889:9 *917:17 0.0169455
26 *889:15 *917:15 0.00166421
27 *907:13 *917:9 0.00324512
28 *910:13 *917:9 0.000293444
29 *914:15 *917:15 0.00108256
30 *914:17 *917:15 1.25202e-05
*RES
1 *989:wbs_dat_o[12] *917:7 31.095 
2 *917:7 *917:9 237.883 
3 *917:9 *917:15 47.2832 
4 *917:15 *917:17 215.656 
5 *917:17 *988:sram_dat_i[12] 23.0901 
*END

*D_NET *918 0.106031
*CONN
*I *988:sram_dat_i[13] I *D soc_sys
*I *989:wbs_dat_o[13] O *D CF_SRAM_1024x32_wb_wrapper
*CAP
1 *988:sram_dat_i[13] 0.00102146
2 *989:wbs_dat_o[13] 0.000967235
3 *918:21 0.0099331
4 *918:19 0.0109839
5 *918:9 0.00518362
6 *918:7 0.00407854
7 *988:sram_dat_i[13] *955:7 0
8 *918:7 *989:wbs_dat_i[13] 0
9 *918:7 *989:wbs_dat_i[14] 0
10 *918:9 *919:9 0.0221296
11 *918:9 *920:9 1.21972e-05
12 *918:9 *956:21 0.000285231
13 *918:9 *957:21 0.0217809
14 *918:19 *930:19 0.000522588
15 *918:19 *936:11 0.000505244
16 *918:19 *942:48 0.000431693
17 *918:19 *944:19 0.000267588
18 *918:19 *947:15 0.000755323
19 *918:19 *952:19 0.00148337
20 *918:19 *953:17 0
21 *918:19 *956:19 0.00118418
22 *918:21 *981:9 0.0157954
23 *989:wbs_adr_i[14] *918:7 0
24 *32:37 *918:19 0.000393037
25 *105:44 *918:19 0.00456477
26 *885:7 *988:sram_dat_i[13] 0
27 *910:13 *918:9 0.00357561
28 *917:9 *918:9 0.0001164
29 *917:15 *918:19 5.95262e-05
*RES
1 *989:wbs_dat_o[13] *918:7 30.3907 
2 *918:7 *918:9 244.553 
3 *918:9 *918:19 47.0057 
4 *918:19 *918:21 262.844 
5 *918:21 *988:sram_dat_i[13] 11.1547 
*END

*D_NET *919 0.116867
*CONN
*I *988:sram_dat_i[14] I *D soc_sys
*I *989:wbs_dat_o[14] O *D CF_SRAM_1024x32_wb_wrapper
*CAP
1 *988:sram_dat_i[14] 0.00562905
2 *989:wbs_dat_o[14] 0.00096563
3 *919:21 0.00864546
4 *919:19 0.00331297
5 *919:15 0.00100077
6 *919:9 0.00408209
7 *919:7 0.00434352
8 *988:sram_dat_i[14] *956:7 0
9 *919:7 *989:wbs_dat_i[14] 0
10 *919:7 *989:wbs_dat_i[15] 0
11 *919:9 *957:21 0.000368398
12 *919:15 *926:19 0.000324366
13 *919:15 *954:19 0.000291449
14 *919:15 *958:19 0.000517922
15 *919:19 *957:17 4.67488e-05
16 *989:wbs_adr_i[15] *919:7 0
17 *880:20 *919:21 0.000393282
18 *886:7 *988:sram_dat_i[14] 0
19 *886:9 *919:21 0.019572
20 *888:9 *919:21 0.0199012
21 *892:9 *919:15 0.000714466
22 *907:13 *919:9 0.00281083
23 *910:13 *919:9 0.000338783
24 *917:9 *919:9 0.0214779
25 *918:9 *919:9 0.0221296
*RES
1 *989:wbs_dat_o[14] *919:7 30.7429 
2 *919:7 *919:9 249.317 
3 *919:9 *919:15 49.1607 
4 *919:15 *919:19 18.9564 
5 *919:19 *919:21 253.16 
6 *919:21 *988:sram_dat_i[14] 24.3781 
*END

*D_NET *920 0.11684
*CONN
*I *988:sram_dat_i[15] I *D soc_sys
*I *989:wbs_dat_o[15] O *D CF_SRAM_1024x32_wb_wrapper
*CAP
1 *988:sram_dat_i[15] 0.00453649
2 *989:wbs_dat_o[15] 0.000879378
3 *920:13 0.0102977
4 *920:11 0.00576123
5 *920:9 0.00382227
6 *920:7 0.00470165
7 *988:sram_dat_i[15] *957:7 0
8 *920:7 *989:wbs_dat_i[15] 0
9 *920:9 *922:9 0.0232066
10 *920:9 *924:9 0.000325555
11 *920:9 *926:9 0.000164364
12 *920:9 *956:21 0.0227226
13 *920:9 *957:21 0.000363687
14 *920:13 *945:13 0.0159871
15 *920:13 *960:17 0.0206971
16 *989:wbs_adr_i[16] *920:7 0
17 *115:23 *920:13 0
18 *887:7 *988:sram_dat_i[15] 0
19 *893:9 *920:13 0.000262394
20 *912:13 *920:9 0.00309708
21 *917:9 *920:9 2.92911e-06
22 *918:9 *920:9 1.21972e-05
*RES
1 *989:wbs_dat_o[15] *920:7 29.3343 
2 *920:7 *920:9 267.421 
3 *920:9 *920:11 15 
4 *920:11 *920:13 283.444 
5 *920:13 *988:sram_dat_i[15] 21.7163 
*END

*D_NET *921 0.115621
*CONN
*I *988:sram_dat_i[16] I *D soc_sys
*I *989:wbs_dat_o[16] O *D CF_SRAM_1024x32_wb_wrapper
*CAP
1 *988:sram_dat_i[16] 0.000126527
2 *989:wbs_dat_o[16] 0.000156054
3 *921:21 0.00595464
4 *921:19 0.00582811
5 *921:17 0.00456852
6 *921:9 0.00823821
7 *921:7 0.00382574
8 *921:7 *989:wbs_dat_i[16] 0
9 *921:9 *923:9 0.0229715
10 *921:9 *958:29 0.016704
11 *921:9 *973:19 0.00237551
12 *921:17 *989:wbs_dat_i[9] 0.000291259
13 *921:17 *946:19 0.000224565
14 *921:17 *958:19 0.00796428
15 *921:17 *960:27 0.00037142
16 *921:17 *978:13 0.000676275
17 *921:21 *946:9 0.000259757
18 *921:21 *958:9 0.00321793
19 *921:21 *980:9 0.012362
20 *989:wbs_adr_i[0] *921:17 0.000549273
21 *989:wbs_adr_i[17] *921:7 0
22 *540:25 *921:17 0
23 *541:35 *921:9 0.0034323
24 *880:20 *921:17 0.000166452
25 *882:9 *921:21 0.0153563
26 *888:7 *988:sram_dat_i[16] 0
*RES
1 *989:wbs_dat_o[16] *921:7 17.0093 
2 *921:7 *921:9 252.652 
3 *921:9 *921:17 46.7086 
4 *921:17 *921:19 8 
5 *921:19 *921:21 277.571 
6 *921:21 *988:sram_dat_i[16] 8.32853 
*END

*D_NET *922 0.127837
*CONN
*I *988:sram_dat_i[17] I *D soc_sys
*I *989:wbs_dat_o[17] O *D CF_SRAM_1024x32_wb_wrapper
*CAP
1 *988:sram_dat_i[17] 0.00542884
2 *989:wbs_dat_o[17] 0.00082594
3 *922:13 0.00979377
4 *922:11 0.00436493
5 *922:9 0.0036666
6 *922:7 0.00449254
7 *988:sram_dat_i[17] *959:7 0
8 *922:7 *989:wbs_dat_i[17] 0
9 *922:9 *926:9 0.024504
10 *922:13 *926:21 0.00186405
11 *922:13 *950:11 0.000578199
12 *922:13 *954:19 0.000127325
13 *922:13 *957:9 0.0212792
14 *922:13 *957:17 0.000116344
15 *922:13 *960:27 0.000254985
16 *989:wbs_adr_i[18] *922:7 0
17 *888:9 *922:13 0.000373133
18 *889:7 *988:sram_dat_i[17] 0
19 *891:9 *922:13 0.023593
20 *903:9 *922:13 1.33995e-05
21 *908:17 *922:9 0.00324512
22 *912:13 *922:9 0.000108552
23 *920:9 *922:9 0.0232066
*RES
1 *989:wbs_dat_o[17] *922:7 28.9821 
2 *922:7 *922:9 268.374 
3 *922:9 *922:11 15 
4 *922:11 *922:13 308.446 
5 *922:13 *988:sram_dat_i[17] 24.1205 
*END

*D_NET *923 0.118138
*CONN
*I *988:sram_dat_i[18] I *D soc_sys
*I *989:wbs_dat_o[18] O *D CF_SRAM_1024x32_wb_wrapper
*CAP
1 *988:sram_dat_i[18] 0.000108619
2 *989:wbs_dat_o[18] 0.00011457
3 *923:21 0.00916435
4 *923:19 0.0135174
5 *923:15 0.00473031
6 *923:9 0.00433651
7 *923:7 0.00418244
8 *923:7 *989:wbs_dat_i[18] 0
9 *923:7 *972:19 5.43589e-05
10 *923:9 *989:wbs_dat_i[19] 0.00018282
11 *923:9 *960:29 0.024604
12 *923:9 *961:25 1.72202e-05
13 *923:9 *973:19 0.00206759
14 *923:15 *961:23 7.13521e-05
15 *923:19 *946:19 0
16 *923:19 *980:17 0.00737148
17 *923:21 *958:9 0.0212917
18 *923:21 *960:11 0
19 *989:wbs_adr_i[19] *923:7 0
20 *70:25 *923:19 0.00105391
21 *115:25 *923:9 0
22 *541:35 *923:9 0.000215071
23 *886:9 *923:15 0.00109689
24 *890:7 *988:sram_dat_i[18] 0
25 *916:23 *923:15 4.89348e-05
26 *916:25 *923:15 0.000936861
27 *921:9 *923:9 0.0229715
*RES
1 *989:wbs_dat_o[18] *923:7 16.6571 
2 *923:7 *923:9 273.139 
3 *923:9 *923:15 37.4068 
4 *923:15 *923:19 24.5424 
5 *923:19 *923:21 294.474 
6 *923:21 *988:sram_dat_i[18] 8.77823 
*END

*D_NET *924 0.13617
*CONN
*I *988:sram_dat_i[19] I *D soc_sys
*I *989:wbs_dat_o[19] O *D CF_SRAM_1024x32_wb_wrapper
*CAP
1 *988:sram_dat_i[19] 0.0030275
2 *989:wbs_dat_o[19] 0.000720336
3 *924:13 0.007884
4 *924:11 0.0048565
5 *924:9 0.00415402
6 *924:7 0.00487436
7 *988:sram_dat_i[19] *961:11 0.00343138
8 *924:7 *989:wbs_dat_i[19] 0
9 *924:9 *926:9 0.0261115
10 *924:13 *944:21 0.0150972
11 *924:13 *961:13 0.00566633
12 *989:wbs_adr_i[19] *924:7 0
13 *989:wbs_adr_i[20] *924:7 0
14 *35:17 *924:13 0.00376986
15 *37:25 *924:13 0
16 *40:25 *924:13 0.0252234
17 *143:21 *924:9 0.0275631
18 *891:7 *988:sram_dat_i[19] 0
19 *909:17 *924:9 0.00346544
20 *910:9 *924:13 0
21 *920:9 *924:9 0.000325555
*RES
1 *989:wbs_dat_o[19] *924:7 28.2779 
2 *924:7 *924:9 302.201 
3 *924:9 *924:11 15 
4 *924:11 *924:13 333.096 
5 *924:13 *988:sram_dat_i[19] 20.6 
*END

*D_NET *925 0.0613801
*CONN
*I *988:sram_dat_i[1] I *D soc_sys
*I *989:wbs_dat_o[1] O *D CF_SRAM_1024x32_wb_wrapper
*CAP
1 *988:sram_dat_i[1] 0.00656364
2 *989:wbs_dat_o[1] 0.00326687
3 *925:13 0.00968129
4 *925:11 0.00638452
5 *988:sram_dat_i[1] *962:7 0
6 *925:11 *989:wbs_dat_i[1] 0
7 *925:11 *989:wbs_sel_i[1] 0
8 *925:11 *989:wbs_we_i 0.0117359
9 *925:13 *983:9 0.00478326
10 *989:wbs_adr_i[1] *925:11 0.0125549
11 *882:13 *925:11 0.000605343
12 *884:19 *925:11 2.26122e-05
13 *884:21 *925:11 0.00012144
14 *885:19 *925:11 0.000296231
15 *885:21 *925:11 0.000140203
16 *886:13 *925:11 0.00266424
17 *887:21 *925:11 0.00230768
18 *892:7 *988:sram_dat_i[1] 0
19 *903:15 *925:11 0.000252028
20 *916:23 *925:13 0
21 *916:25 *925:13 0
*RES
1 *989:wbs_dat_o[1] *925:11 49.8247 
2 *925:11 *925:13 87.4764 
3 *925:13 *988:sram_dat_i[1] 25.3227 
*END

*D_NET *926 0.130919
*CONN
*I *988:sram_dat_i[20] I *D soc_sys
*I *989:wbs_dat_o[20] O *D CF_SRAM_1024x32_wb_wrapper
*CAP
1 *988:sram_dat_i[20] 0.00512355
2 *989:wbs_dat_o[20] 0.000722077
3 *926:21 0.0169813
4 *926:19 0.0125049
5 *926:9 0.00480454
6 *926:7 0.0048795
7 *988:sram_dat_i[20] *963:7 0
8 *988:sram_dat_i[20] *963:9 0
9 *926:7 *989:wbs_dat_i[20] 0
10 *926:19 *958:19 0.000369224
11 *926:19 *960:27 4.62763e-05
12 *926:19 *978:13 5.10545e-05
13 *926:21 *950:11 0.000396674
14 *989:wbs_adr_i[20] *926:7 0
15 *989:wbs_adr_i[21] *926:7 0
16 *32:17 *926:21 0.0251997
17 *143:21 *926:9 0.000368144
18 *541:33 *926:19 1.98125e-05
19 *890:19 *926:19 3.15502e-05
20 *891:9 *926:21 0.00253483
21 *892:9 *926:21 0.000532307
22 *893:7 *988:sram_dat_i[20] 0
23 *903:9 *926:21 0.000335389
24 *908:17 *926:9 0.00281083
25 *914:15 *926:19 0.000238621
26 *917:15 *926:19 0
27 *919:15 *926:19 0.000324366
28 *920:9 *926:9 0.000164364
29 *922:9 *926:9 0.024504
30 *922:13 *926:21 0.00186405
31 *924:9 *926:9 0.0261115
*RES
1 *989:wbs_dat_o[20] *926:7 28.63 
2 *926:7 *926:9 293.149 
3 *926:9 *926:19 46.21 
4 *926:19 *926:21 59.7147 
5 *926:21 *988:sram_dat_i[20] 23.4765 
*END

*D_NET *927 0.093195
*CONN
*I *988:sram_dat_i[21] I *D soc_sys
*I *989:wbs_dat_o[21] O *D CF_SRAM_1024x32_wb_wrapper
*CAP
1 *988:sram_dat_i[21] 0.010665
2 *989:wbs_dat_o[21] 0.00580395
3 *927:13 0.0286258
4 *927:11 0.0179608
5 *927:9 0.00580395
6 *988:sram_dat_i[21] *928:14 0.00270576
7 *988:sram_dat_i[21] *963:9 0
8 *927:9 *989:wbs_dat_i[20] 0.00677977
9 *927:9 *989:wbs_dat_i[21] 0
10 *927:9 *989:wbs_dat_i[30] 0.0011336
11 *927:9 *946:31 0.00113002
12 *927:9 *973:19 0.000651308
13 *927:9 *977:13 0.0042466
14 *927:9 *979:13 0.000643397
15 *927:9 *980:21 0.00107313
16 *989:wbs_adr_i[10] *927:9 9.57306e-05
17 *989:wbs_adr_i[22] *927:9 0.000394128
18 *989:wbs_adr_i[26] *927:9 0.00189135
19 *989:wbs_adr_i[28] *927:9 0.00302265
20 *989:wbs_cyc_i *927:13 0.000502567
21 *894:7 *988:sram_dat_i[21] 0
22 *915:19 *927:9 6.54495e-05
*RES
1 *989:wbs_dat_o[21] *927:9 42.0897 
2 *927:9 *927:11 8 
3 *927:11 *927:13 62.888 
4 *927:13 *988:sram_dat_i[21] 47.1757 
*END

*D_NET *928 0.0905875
*CONN
*I *988:sram_dat_i[22] I *D soc_sys
*I *989:wbs_dat_o[22] O *D CF_SRAM_1024x32_wb_wrapper
*CAP
1 *988:sram_dat_i[22] 0.000582396
2 *989:wbs_dat_o[22] 0.00560371
3 *928:14 0.011262
4 *928:10 0.0285889
5 *928:8 0.023513
6 *988:sram_dat_i[22] *965:11 0
7 *928:8 *989:wbs_dat_i[22] 5.45304e-05
8 *928:8 *989:wbs_dat_i[28] 0.000369007
9 *928:8 *978:13 0.00371301
10 *928:8 *980:21 4.56678e-05
11 *928:14 *964:7 0.00236346
12 *988:sram_dat_i[21] *928:14 0.00270576
13 *989:wbs_adr_i[10] *928:8 0.000104681
14 *989:wbs_adr_i[24] *928:8 0.0116814
15 *895:5 *988:sram_dat_i[22] 0
16 *895:5 *928:14 0
*RES
1 *989:wbs_dat_o[22] *928:8 45.2077 
2 *928:8 *928:10 62.6341 
3 *928:10 *928:14 49.3149 
4 *928:14 *988:sram_dat_i[22] 25.7388 
*END

*D_NET *929 0.0917679
*CONN
*I *988:sram_dat_i[23] I *D soc_sys
*I *989:wbs_dat_o[23] O *D CF_SRAM_1024x32_wb_wrapper
*CAP
1 *988:sram_dat_i[23] 0.00542717
2 *989:wbs_dat_o[23] 4.42647e-05
3 *929:14 0.0180056
4 *929:12 0.0125784
5 *929:10 0.0184869
6 *929:8 0.0185312
7 *988:sram_dat_i[23] *966:7 0
8 *929:10 *967:17 0
9 *929:14 *965:13 0
10 *989:wbs_adr_i[24] *929:8 5.56761e-05
11 *896:7 *988:sram_dat_i[23] 0
12 *897:13 *988:sram_dat_i[23] 0
13 *897:13 *929:14 0.0186386
14 *898:9 *988:sram_dat_i[23] 0
*RES
1 *989:wbs_dat_o[23] *929:8 16.1848 
2 *929:8 *929:10 65.0459 
3 *929:10 *929:12 8 
4 *929:12 *929:14 56.9427 
5 *929:14 *988:sram_dat_i[23] 39.3257 
*END

*D_NET *930 0.106337
*CONN
*I *988:sram_dat_i[24] I *D soc_sys
*I *989:wbs_dat_o[24] O *D CF_SRAM_1024x32_wb_wrapper
*CAP
1 *988:sram_dat_i[24] 0.00247642
2 *989:wbs_dat_o[24] 0.000952945
3 *930:21 0.0180546
4 *930:19 0.0160766
5 *930:9 0.012373
6 *930:7 0.0128274
7 *988:sram_dat_i[24] *967:11 0
8 *930:7 *989:wbs_dat_i[25] 0
9 *930:9 *942:26 0.000707571
10 *930:9 *947:15 0.00297125
11 *930:9 *954:21 0
12 *930:9 *955:21 0.0239677
13 *930:19 *936:11 0.00172107
14 *930:19 *949:9 4.94766e-06
15 *930:19 *952:19 0.00079317
16 *930:19 *955:19 4.89546e-05
17 *930:21 *933:21 0
18 *930:21 *943:21 0.00185443
19 *989:wbs_adr_i[25] *930:7 0
20 *890:9 *930:21 0
21 *897:11 *988:sram_dat_i[24] 0
22 *907:9 *930:21 0.0109842
23 *916:9 *930:9 0
24 *917:9 *930:9 0
25 *918:19 *930:19 0.000522588
*RES
1 *989:wbs_dat_o[24] *930:7 34.6164 
2 *930:7 *930:9 343.65 
3 *930:9 *930:19 35.3443 
4 *930:19 *930:21 403.701 
5 *930:21 *988:sram_dat_i[24] 16.3067 
*END

*D_NET *931 0.161251
*CONN
*I *988:sram_dat_i[25] I *D soc_sys
*I *989:wbs_dat_o[25] O *D CF_SRAM_1024x32_wb_wrapper
*CAP
1 *988:sram_dat_i[25] 0.00172575
2 *989:wbs_dat_o[25] 0.00130629
3 *931:21 0.0118993
4 *931:19 0.0105161
5 *931:9 0.0117473
6 *931:7 0.012711
7 *988:sram_dat_i[25] *968:7 0
8 *931:7 *989:wbs_dat_i[25] 0
9 *931:9 *935:9 0.00635046
10 *931:9 *939:11 0.00534891
11 *931:9 *941:9 0.000344938
12 *931:9 *951:23 0.000263481
13 *931:9 *966:13 0.0338755
14 *931:9 *968:13 0
15 *931:9 *970:19 0.000251387
16 *931:19 *933:19 1.58785e-05
17 *931:19 *964:13 0.00125124
18 *931:19 *981:13 0.000685141
19 *931:21 *932:18 0.00483354
20 *931:21 *941:13 0.0129335
21 *931:21 *978:9 0.000166109
22 *989:wbs_adr_i[26] *931:7 0
23 *104:25 *931:21 0.0303089
24 *898:7 *988:sram_dat_i[25] 0
25 *899:13 *988:sram_dat_i[25] 0.000645811
26 *902:9 *931:21 0
27 *902:13 *931:9 0.00733167
28 *904:9 *931:21 0.00122119
29 *904:13 *931:9 0.00551759
*RES
1 *989:wbs_dat_o[25] *931:7 35.5396 
2 *931:7 *931:9 65.6581 
3 *931:9 *931:19 28.5464 
4 *931:19 *931:21 425.534 
5 *931:21 *988:sram_dat_i[25] 14.9328 
*END

*D_NET *932 0.183456
*CONN
*I *988:sram_dat_i[26] I *D soc_sys
*I *989:wbs_dat_o[26] O *D CF_SRAM_1024x32_wb_wrapper
*CAP
1 *988:sram_dat_i[26] 0.00162243
2 *989:wbs_dat_o[26] 0.0284937
3 *932:18 0.0392618
4 *932:16 0.0661331
5 *988:sram_dat_i[26] *969:13 0.000979821
6 *988:sram_dat_i[26] *971:17 5.13351e-05
7 *932:16 *989:wbs_dat_i[30] 2.26772e-05
8 *932:16 *962:13 0.00363387
9 *932:16 *968:13 0.0163388
10 *932:16 *981:13 0.0038763
11 *932:18 *933:21 0.00116739
12 *932:18 *934:13 0.00116739
13 *932:18 *935:13 0.00116739
14 *932:18 *941:13 0.00127199
15 *932:18 *978:9 0.00110919
16 *989:wbs_adr_i[27] *932:16 0.00043992
17 *104:25 *932:18 0.0029484
18 *114:17 *932:18 0.00142423
19 *894:13 *932:16 0.00430084
20 *902:9 *932:18 0.00116739
21 *904:9 *932:18 0.00156804
22 *908:9 *932:18 0.000476486
23 *931:21 *932:18 0.00483354
*RES
1 *989:wbs_dat_o[26] *932:16 32.2996 
2 *932:16 *932:18 79.6432 
3 *932:18 *988:sram_dat_i[26] 14.8899 
*END

*D_NET *933 0.172373
*CONN
*I *988:sram_dat_i[27] I *D soc_sys
*I *989:wbs_dat_o[27] O *D CF_SRAM_1024x32_wb_wrapper
*CAP
1 *988:sram_dat_i[27] 0.00164548
2 *989:wbs_dat_o[27] 0.00133452
3 *933:21 0.0100122
4 *933:19 0.00852862
5 *933:9 0.00470229
6 *933:7 0.00587493
7 *988:sram_dat_i[27] *970:7 0
8 *933:7 *989:wbs_dat_i[27] 0
9 *933:9 *934:9 0.0347132
10 *933:9 *966:13 0.00704122
11 *933:9 *970:21 0.034201
12 *933:19 *935:9 0.000145977
13 *933:19 *966:13 0.000835448
14 *933:19 *970:19 0.000801471
15 *933:21 *934:13 0.0349169
16 *989:wbs_adr_i[28] *933:7 0
17 *33:35 *933:21 2.33476e-05
18 *38:29 *933:21 2.50873e-05
19 *890:9 *933:21 0.0241668
20 *900:7 *988:sram_dat_i[27] 0
21 *901:13 *988:sram_dat_i[27] 0.00206056
22 *902:13 *933:19 0.000160236
23 *930:21 *933:21 0
24 *931:19 *933:19 1.58785e-05
25 *932:18 *933:21 0.00116739
*RES
1 *989:wbs_dat_o[27] *933:7 43.0679 
2 *933:7 *933:9 379.382 
3 *933:9 *933:19 33.1889 
4 *933:19 *933:21 448.775 
5 *933:21 *988:sram_dat_i[27] 15.5339 
*END

*D_NET *934 0.180003
*CONN
*I *988:sram_dat_i[28] I *D soc_sys
*I *989:wbs_dat_o[28] O *D CF_SRAM_1024x32_wb_wrapper
*CAP
1 *988:sram_dat_i[28] 0.00219095
2 *989:wbs_dat_o[28] 0.0012896
3 *934:13 0.00870536
4 *934:11 0.0065144
5 *934:9 0.004983
6 *934:7 0.0062726
7 *988:sram_dat_i[28] *971:15 0
8 *934:7 *989:wbs_dat_i[28] 0
9 *934:9 *966:13 0.00639382
10 *989:wbs_adr_i[28] *934:7 0
11 *989:wbs_adr_i[29] *934:7 0
12 *901:11 *988:sram_dat_i[28] 0
13 *902:9 *934:13 0.0359009
14 *902:13 *934:9 0.0369548
15 *932:18 *934:13 0.00116739
16 *933:9 *934:9 0.0347132
17 *933:21 *934:13 0.0349169
*RES
1 *989:wbs_dat_o[28] *934:7 42.7157 
2 *934:7 *934:9 395.104 
3 *934:9 *934:11 15 
4 *934:11 *934:13 461.628 
5 *934:13 *988:sram_dat_i[28] 15.448 
*END

*D_NET *935 0.184676
*CONN
*I *988:sram_dat_i[29] I *D soc_sys
*I *989:wbs_dat_o[29] O *D CF_SRAM_1024x32_wb_wrapper
*CAP
1 *988:sram_dat_i[29] 0.00209678
2 *989:wbs_dat_o[29] 0.00122571
3 *935:13 0.00875656
4 *935:11 0.00665978
5 *935:9 0.00503799
6 *935:7 0.0062637
7 *988:sram_dat_i[29] *972:5 0
8 *935:7 *989:wbs_dat_i[29] 0
9 *989:wbs_adr_i[29] *935:7 0
10 *989:wbs_adr_i[30] *935:7 0
11 *114:17 *935:13 0.034334
12 *902:7 *988:sram_dat_i[29] 0
13 *902:9 *935:13 0.0365354
14 *902:13 *935:9 0.0372077
15 *904:9 *935:13 0.00119571
16 *904:13 *935:9 0.0376992
17 *931:9 *935:9 0.00635046
18 *932:18 *935:13 0.00116739
19 *933:19 *935:9 0.000145977
*RES
1 *989:wbs_dat_o[29] *935:7 42.0114 
2 *935:7 *935:9 403.204 
3 *935:9 *935:11 15 
4 *935:11 *935:13 473.601 
5 *935:13 *988:sram_dat_i[29] 15.2763 
*END

*D_NET *936 0.0782766
*CONN
*I *988:sram_dat_i[2] I *D soc_sys
*I *989:wbs_dat_o[2] O *D CF_SRAM_1024x32_wb_wrapper
*CAP
1 *988:sram_dat_i[2] 0.00165013
2 *989:wbs_dat_o[2] 0.00146313
3 *936:13 0.00339248
4 *936:11 0.00726123
5 *936:7 0.006982
6 *988:sram_dat_i[2] *973:7 0
7 *936:7 *989:wbs_dat_i[2] 0
8 *936:7 *989:wbs_sel_i[2] 0
9 *936:11 *940:11 0.0182641
10 *936:11 *942:26 0.00030225
11 *936:11 *944:19 0.00141012
12 *936:11 *945:9 0.00332523
13 *936:11 *947:15 0.00482154
14 *936:11 *949:31 0.00473376
15 *936:11 *952:19 0.000271466
16 *936:11 *953:21 0.00288021
17 *936:11 *955:19 0.000937567
18 *936:13 *964:9 0.00905376
19 *936:13 *966:9 0.00905621
20 *936:13 *982:11 0.000245097
21 *989:wbs_adr_i[2] *936:7 0
22 *903:7 *988:sram_dat_i[2] 0
23 *918:19 *936:11 0.000505244
24 *930:19 *936:11 0.00172107
*RES
1 *989:wbs_dat_o[2] *936:7 29.2011 
2 *936:7 *936:11 47.4688 
3 *936:11 *936:13 117.056 
4 *936:13 *988:sram_dat_i[2] 12.872 
*END

*D_NET *937 0.0987958
*CONN
*I *988:sram_dat_i[30] I *D soc_sys
*I *989:wbs_dat_o[30] O *D CF_SRAM_1024x32_wb_wrapper
*CAP
1 *988:sram_dat_i[30] 0.0189145
2 *989:wbs_dat_o[30] 4.67136e-05
3 *937:20 0.025499
4 *937:10 0.0194157
5 *937:8 0.0128779
6 *988:sram_dat_i[30] *938:14 0.00760442
7 *988:sram_dat_i[30] *974:5 0
8 *988:sram_dat_i[30] *975:13 0
9 *937:10 *975:17 8.29716e-05
10 *904:7 *988:sram_dat_i[30] 0
11 *905:15 *937:10 0
12 *905:15 *937:20 0
13 *905:17 *937:10 0.0143547
*RES
1 *989:wbs_dat_o[30] *937:8 16.0989 
2 *937:8 *937:10 61.9995 
3 *937:10 *937:20 46.9525 
4 *937:20 *988:sram_dat_i[30] 78.8461 
*END

*D_NET *938 0.11851
*CONN
*I *988:sram_dat_i[31] I *D soc_sys
*I *989:wbs_dat_o[31] O *D CF_SRAM_1024x32_wb_wrapper
*CAP
1 *988:sram_dat_i[31] 0.00157973
2 *989:wbs_dat_o[31] 7.22483e-05
3 *938:14 0.0145808
4 *938:12 0.0130011
5 *938:10 0.0235609
6 *938:8 0.0236331
7 *988:sram_dat_i[31] *975:5 0
8 *938:10 *975:17 0
9 *938:14 *974:5 0.0344781
10 *988:sram_dat_i[30] *938:14 0.00760442
11 *905:5 *988:sram_dat_i[31] 0
12 *905:5 *938:14 0
*RES
1 *989:wbs_dat_o[31] *938:8 16.1848 
2 *938:8 *938:10 83.0704 
3 *938:10 *938:12 8 
4 *938:12 *938:14 78.9245 
5 *938:14 *988:sram_dat_i[31] 29.0564 
*END

*D_NET *939 0.0727169
*CONN
*I *988:sram_dat_i[3] I *D soc_sys
*I *989:wbs_dat_o[3] O *D CF_SRAM_1024x32_wb_wrapper
*CAP
1 *988:sram_dat_i[3] 0.0015764
2 *989:wbs_dat_o[3] 0.00165339
3 *939:13 0.00360208
4 *939:11 0.00839214
5 *939:7 0.00801984
6 *988:sram_dat_i[3] *976:7 0
7 *939:7 *989:wbs_dat_i[3] 0
8 *939:7 *989:wbs_sel_i[3] 0
9 *939:11 *941:9 0.0205434
10 *939:11 *951:23 0.000531113
11 *939:11 *955:19 0.000133166
12 *939:11 *970:19 0.00126956
13 *939:13 *966:9 0.0106997
14 *939:13 *968:9 0.0107021
15 *939:13 *982:11 0.000245097
16 *989:wbs_adr_i[3] *939:7 0
17 *906:7 *988:sram_dat_i[3] 0
18 *931:9 *939:11 0.00534891
*RES
1 *989:wbs_dat_o[3] *939:7 33.4268 
2 *939:7 *939:11 49.3579 
3 *939:11 *939:13 138.185 
4 *939:13 *988:sram_dat_i[3] 12.7003 
*END

*D_NET *940 0.0949038
*CONN
*I *988:sram_dat_i[4] I *D soc_sys
*I *989:wbs_dat_o[4] O *D CF_SRAM_1024x32_wb_wrapper
*CAP
1 *988:sram_dat_i[4] 0.0031587
2 *989:wbs_dat_o[4] 0.00146598
3 *940:13 0.00583523
4 *940:11 0.00755408
5 *940:7 0.00634352
6 *988:sram_dat_i[4] *977:7 0
7 *940:7 *989:wbs_dat_i[4] 0
8 *940:11 *941:9 0.000141703
9 *940:11 *942:26 0.00051354
10 *940:11 *942:48 0.00218861
11 *940:11 *943:9 0.00732799
12 *940:11 *943:19 1.77747e-05
13 *940:11 *944:9 0.00316647
14 *940:11 *945:9 0.00010722
15 *940:11 *948:23 0.00122888
16 *940:11 *949:19 0.00829932
17 *940:11 *949:31 0.00518328
18 *940:11 *955:19 0.00118181
19 *940:13 *977:9 0.0104335
20 *989:wbs_adr_i[4] *940:7 0
21 *989:wbs_adr_i[5] *940:7 0
22 *66:21 *940:13 0.00134138
23 *900:9 *940:13 0
24 *907:7 *988:sram_dat_i[4] 0
25 *909:9 *940:13 0.0111507
26 *936:11 *940:11 0.0182641
*RES
1 *989:wbs_dat_o[4] *940:7 29.9054 
2 *940:7 *940:11 46.3525 
3 *940:11 *940:13 151.566 
4 *940:13 *988:sram_dat_i[4] 17.4229 
*END

*D_NET *941 0.0891741
*CONN
*I *988:sram_dat_i[5] I *D soc_sys
*I *989:wbs_dat_o[5] O *D CF_SRAM_1024x32_wb_wrapper
*CAP
1 *988:sram_dat_i[5] 0.00224215
2 *989:wbs_dat_o[5] 0.00138554
3 *941:13 0.00493126
4 *941:11 0.00268911
5 *941:9 0.00533262
6 *941:7 0.00671816
7 *988:sram_dat_i[5] *978:7 0
8 *941:9 *942:26 0
9 *941:9 *943:19 0.00357196
10 *941:9 *948:23 0.00113323
11 *941:9 *949:31 0.000261745
12 *941:9 *951:29 0.0131467
13 *941:9 *955:19 0.00023304
14 *941:13 *978:9 0.0110511
15 *989:wbs_adr_i[10] *941:7 0.000714408
16 *989:wbs_adr_i[5] *941:7 0
17 *989:wbs_adr_i[6] *941:7 0
18 *908:7 *988:sram_dat_i[5] 0
19 *908:9 *941:13 0.000527485
20 *931:9 *941:9 0.000344938
21 *931:21 *941:13 0.0129335
22 *932:18 *941:13 0.00127199
23 *939:11 *941:9 0.0205434
24 *940:11 *941:9 0.000141703
*RES
1 *989:wbs_dat_o[5] *941:7 32.7225 
2 *941:7 *941:9 42.2165 
3 *941:9 *941:11 8 
4 *941:11 *941:13 167.061 
5 *941:13 *988:sram_dat_i[5] 14.8469 
*END

*D_NET *942 0.0954606
*CONN
*I *988:sram_dat_i[6] I *D soc_sys
*I *989:wbs_dat_o[6] O *D CF_SRAM_1024x32_wb_wrapper
*CAP
1 *988:sram_dat_i[6] 0.00794861
2 *989:wbs_dat_o[6] 0.00662824
3 *942:48 0.0151331
4 *942:26 0.0138127
5 *988:sram_dat_i[6] *979:7 0
6 *942:26 *945:9 0.000103849
7 *942:26 *947:15 0.0014199
8 *942:26 *949:31 0.000404484
9 *942:26 *952:21 0.000612876
10 *942:26 *953:21 0.000117394
11 *942:26 *955:21 0.000707571
12 *942:48 *944:19 0.000147854
13 *942:48 *947:15 0.0015871
14 *942:48 *948:23 0.00219582
15 *942:48 *952:19 0.000223037
16 *942:48 *956:19 0.000383096
17 *989:wbs_adr_i[10] *942:26 4.93791e-05
18 *989:wbs_adr_i[11] *988:sram_dat_i[6] 0.00309701
19 *989:wbs_adr_i[24] *942:26 4.93791e-05
20 *143:13 *942:48 0.000208332
21 *883:11 *988:sram_dat_i[6] 0.00671439
22 *907:13 *942:26 0.000928816
23 *907:13 *942:48 0.00113706
24 *909:7 *988:sram_dat_i[6] 0
25 *909:17 *942:48 0.000214251
26 *911:17 *942:26 0.00211464
27 *911:17 *942:48 0.00135413
28 *915:19 *942:26 0.00475257
29 *915:19 *942:48 0.00662699
30 *915:23 *988:sram_dat_i[6] 0.0126086
31 *915:23 *942:48 3.58058e-05
32 *918:19 *942:48 0.000431693
33 *930:9 *942:26 0.000707571
34 *936:11 *942:26 0.00030225
35 *940:11 *942:26 0.00051354
36 *940:11 *942:48 0.00218861
37 *941:9 *942:26 0
*RES
1 *989:wbs_dat_o[6] *942:26 46.9455 
2 *942:26 *942:48 42.1743 
3 *942:48 *988:sram_dat_i[6] 49.5763 
*END

*D_NET *943 0.084167
*CONN
*I *988:sram_dat_i[7] I *D soc_sys
*I *989:wbs_dat_o[7] O *D CF_SRAM_1024x32_wb_wrapper
*CAP
1 *988:sram_dat_i[7] 0.00279851
2 *989:wbs_dat_o[7] 0.00136138
3 *943:21 0.00693692
4 *943:19 0.00526214
5 *943:9 0.00693127
6 *943:7 0.00716892
7 *943:7 *989:wbs_dat_i[7] 0
8 *943:7 *989:wbs_dat_i[8] 0
9 *943:9 *944:9 0.0188132
10 *943:9 *945:9 2.19403e-05
11 *943:19 *948:23 0.000391246
12 *943:19 *949:19 0.00070363
13 *943:19 *951:23 1.05441e-05
14 *943:19 *955:19 0.000820562
15 *943:21 *976:9 0.00919299
16 *943:21 *977:9 0
17 *989:wbs_adr_i[7] *943:7 0
18 *989:wbs_adr_i[8] *943:7 0
19 *907:9 *943:21 0.0109815
20 *910:7 *988:sram_dat_i[7] 0
21 *930:21 *943:21 0.00185443
22 *940:11 *943:9 0.00732799
23 *940:11 *943:19 1.77747e-05
24 *941:9 *943:19 0.00357196
*RES
1 *989:wbs_dat_o[7] *943:7 36.7293 
2 *943:7 *943:9 201.674 
3 *943:9 *943:19 40.2734 
4 *943:19 *943:21 191.711 
5 *943:21 *988:sram_dat_i[7] 16.4784 
*END

*D_NET *944 0.100392
*CONN
*I *988:sram_dat_i[8] I *D soc_sys
*I *989:wbs_dat_o[8] O *D CF_SRAM_1024x32_wb_wrapper
*CAP
1 *988:sram_dat_i[8] 0.00441626
2 *989:wbs_dat_o[8] 0.00132794
3 *944:21 0.00752832
4 *944:19 0.00376252
5 *944:9 0.00333826
6 *944:7 0.00401574
7 *988:sram_dat_i[8] *981:7 0
8 *944:7 *989:wbs_dat_i[8] 0
9 *944:9 *945:9 0.0194734
10 *944:19 *947:15 0.00080227
11 *944:19 *952:19 0.000122056
12 *944:19 *952:21 0.000200278
13 *944:21 *949:9 0
14 *944:21 *952:19 1.81615e-05
15 *944:21 *961:13 0.0141451
16 *989:wbs_adr_i[9] *944:7 0
17 *35:17 *944:21 0.00207731
18 *115:23 *944:21 0.000232202
19 *540:31 *944:21 2.97594e-05
20 *893:9 *944:21 0
21 *910:9 *944:21 0
22 *911:7 *988:sram_dat_i[8] 0
23 *918:19 *944:19 0.000267588
24 *924:13 *944:21 0.0150972
25 *936:11 *944:19 0.00141012
26 *940:11 *944:9 0.00316647
27 *942:48 *944:19 0.000147854
28 *943:9 *944:9 0.0188132
*RES
1 *989:wbs_dat_o[8] *944:7 36.3771 
2 *944:7 *944:9 208.344 
3 *944:9 *944:19 34.7432 
4 *944:19 *944:21 200.866 
5 *944:21 *988:sram_dat_i[8] 20.6859 
*END

*D_NET *945 0.0982804
*CONN
*I *988:sram_dat_i[9] I *D soc_sys
*I *989:wbs_dat_o[9] O *D CF_SRAM_1024x32_wb_wrapper
*CAP
1 *988:sram_dat_i[9] 0.00481708
2 *989:wbs_dat_o[9] 0.00131771
3 *945:13 0.00881989
4 *945:11 0.00400281
5 *945:9 0.00308991
6 *945:7 0.00440762
7 *988:sram_dat_i[9] *982:11 0
8 *945:7 *989:wbs_dat_i[10] 0
9 *945:7 *989:wbs_dat_i[9] 0
10 *945:9 *952:21 0.000236331
11 *945:9 *953:21 0.0204922
12 *945:13 *947:9 0.0081803
13 *945:13 *951:23 0
14 *989:wbs_adr_i[10] *945:7 0
15 *989:wbs_adr_i[9] *945:7 0
16 *912:7 *988:sram_dat_i[9] 0
17 *912:9 *945:13 0.00389775
18 *920:13 *945:13 0.0159871
19 *936:11 *945:9 0.00332523
20 *940:11 *945:9 0.00010722
21 *942:26 *945:9 0.000103849
22 *943:9 *945:9 2.19403e-05
23 *944:9 *945:9 0.0194734
*RES
1 *989:wbs_dat_o[9] *945:7 36.025 
2 *945:7 *945:9 224.066 
3 *945:9 *945:11 15 
4 *945:11 *945:13 214.072 
5 *945:13 *988:sram_dat_i[9] 21.8021 
*END

*D_NET *946 0.0631834
*CONN
*I *989:wbs_sel_i[0] I *D CF_SRAM_1024x32_wb_wrapper
*I *988:sram_sel_o[0] O *D soc_sys
*CAP
1 *989:wbs_sel_i[0] 0.00022393
2 *988:sram_sel_o[0] 0.000214778
3 *946:31 0.00274827
4 *946:19 0.0066694
5 *946:9 0.00607168
6 *946:7 0.00214139
7 *946:9 *980:9 0.00447052
8 *946:19 *958:19 0.00287655
9 *946:19 *983:9 0.000640962
10 *946:31 *989:wbs_dat_i[9] 0.00277486
11 *946:31 *958:27 0.00577492
12 *946:31 *958:29 0.000945605
13 *946:31 *973:19 0.0129287
14 *946:31 *977:13 0.00250391
15 *946:31 *980:21 0.000548002
16 *989:wbs_adr_i[0] *946:19 0.00333086
17 *989:wbs_adr_i[1] *989:wbs_sel_i[0] 0
18 *70:25 *946:19 0.000281876
19 *112:13 *946:19 0.00047768
20 *114:13 *946:19 0.0035859
21 *541:35 *946:31 0.00222179
22 *880:20 *946:19 0.000137466
23 *914:9 *989:wbs_sel_i[0] 0
24 *921:17 *946:19 0.000224565
25 *921:21 *946:9 0.000259757
26 *923:19 *946:19 0
27 *927:9 *946:31 0.00113002
*RES
1 *988:sram_sel_o[0] *946:7 8.50027 
2 *946:7 *946:9 64.1729 
3 *946:9 *946:19 49.654 
4 *946:19 *946:31 42.063 
5 *946:31 *989:wbs_sel_i[0] 10.8896 
*END

*D_NET *947 0.067854
*CONN
*I *989:wbs_sel_i[1] I *D CF_SRAM_1024x32_wb_wrapper
*I *988:sram_sel_o[1] O *D soc_sys
*CAP
1 *989:wbs_sel_i[1] 0.0013459
2 *988:sram_sel_o[1] 0.00524779
3 *947:15 0.00599597
4 *947:9 0.00665126
5 *947:7 0.00724899
6 *989:wbs_sel_i[1] *989:wbs_dat_i[1] 0
7 *947:7 *962:7 0
8 *947:9 *951:23 0
9 *947:15 *949:31 0.00486941
10 *947:15 *952:21 0.00177432
11 *947:15 *955:21 0.00204846
12 *947:15 *956:19 1.76364e-05
13 *989:wbs_adr_i[2] *989:wbs_sel_i[1] 0
14 *903:7 *947:7 0
15 *911:17 *947:15 0.00413619
16 *912:9 *947:9 0.00781831
17 *915:19 *947:15 0.000162104
18 *918:19 *947:15 0.000755323
19 *925:11 *989:wbs_sel_i[1] 0
20 *930:9 *947:15 0.00297125
21 *936:11 *947:15 0.00482154
22 *942:26 *947:15 0.0014199
23 *942:48 *947:15 0.0015871
24 *944:19 *947:15 0.00080227
25 *945:13 *947:9 0.0081803
*RES
1 *988:sram_sel_o[1] *947:7 21.888 
2 *947:7 *947:9 107.196 
3 *947:9 *947:15 45.1648 
4 *947:15 *989:wbs_sel_i[1] 19.7925 
*END

*D_NET *948 0.0739642
*CONN
*I *989:wbs_sel_i[2] I *D CF_SRAM_1024x32_wb_wrapper
*I *988:sram_sel_o[2] O *D soc_sys
*CAP
1 *989:wbs_sel_i[2] 0.0015826
2 *988:sram_sel_o[2] 0.00581138
3 *948:23 0.0051134
4 *948:19 0.00440868
5 *948:15 0.00118921
6 *948:9 0.00226812
7 *948:7 0.00776817
8 *948:7 *973:7 0
9 *948:9 *953:9 0.00692882
10 *948:19 *951:9 0.000355451
11 *948:19 *951:23 0.000585268
12 *948:19 *953:17 0.00168958
13 *948:23 *949:19 0.00687022
14 *948:23 *949:31 0.00427938
15 *948:23 *951:29 0.0131436
16 *989:wbs_adr_i[3] *989:wbs_sel_i[2] 0
17 *33:17 *948:9 0.00112938
18 *33:27 *948:19 0.000226911
19 *891:9 *948:9 0
20 *892:9 *948:9 0
21 *903:9 *948:9 0
22 *906:7 *948:7 0
23 *914:17 *948:9 0.00464924
24 *917:15 *948:9 0.00100065
25 *917:17 *948:9 1.50266e-05
26 *936:7 *989:wbs_sel_i[2] 0
27 *940:11 *948:23 0.00122888
28 *941:9 *948:23 0.00113323
29 *942:48 *948:23 0.00219582
30 *943:19 *948:23 0.000391246
*RES
1 *988:sram_sel_o[2] *948:7 23.2619 
2 *948:7 *948:9 101.738 
3 *948:9 *948:15 33.9564 
4 *948:15 *948:19 34.0275 
5 *948:19 *948:23 38.1952 
6 *948:23 *989:wbs_sel_i[2] 23.3139 
*END

*D_NET *949 0.0782583
*CONN
*I *989:wbs_sel_i[3] I *D CF_SRAM_1024x32_wb_wrapper
*I *988:sram_sel_o[3] O *D soc_sys
*CAP
1 *989:wbs_sel_i[3] 0.0015011
2 *988:sram_sel_o[3] 0.00422335
3 *949:31 0.00373352
4 *949:19 0.00428005
5 *949:9 0.0066013
6 *949:7 0.00877702
7 *949:7 *976:7 0
8 *949:9 *955:19 9.41668e-05
9 *949:31 *952:21 0.00105822
10 *949:31 *955:21 0.000916598
11 *989:wbs_adr_i[11] *949:9 0.000299019
12 *989:wbs_adr_i[4] *989:wbs_sel_i[3] 0
13 *35:27 *949:9 3.87221e-06
14 *36:23 *949:9 1.05364e-05
15 *105:50 *949:9 0.000199323
16 *881:9 *949:9 0
17 *883:11 *949:9 0.000515975
18 *885:9 *949:9 0.0100328
19 *907:7 *949:7 0
20 *910:9 *949:9 0.000259551
21 *915:19 *949:31 0.000141785
22 *930:19 *949:9 4.94766e-06
23 *936:11 *949:31 0.00473376
24 *939:7 *989:wbs_sel_i[3] 0
25 *940:11 *949:19 0.00829932
26 *940:11 *949:31 0.00518328
27 *941:9 *949:31 0.000261745
28 *942:26 *949:31 0.000404484
29 *943:19 *949:19 0.00070363
30 *944:21 *949:9 0
31 *947:15 *949:31 0.00486941
32 *948:23 *949:19 0.00687022
33 *948:23 *949:31 0.00427938
*RES
1 *988:sram_sel_o[3] *949:7 19.8272 
2 *949:7 *949:9 143.819 
3 *949:9 *949:19 42.1133 
4 *949:19 *949:31 45.1747 
5 *949:31 *989:wbs_sel_i[3] 22.6096 
*END

*D_NET *950 0.0554248
*CONN
*I *989:wbs_stb_i I *D CF_SRAM_1024x32_wb_wrapper
*I *988:sram_stb_o O *D soc_sys
*CAP
1 *989:wbs_stb_i 0.00310506
2 *988:sram_stb_o 0.0095377
3 *950:11 0.0126428
4 *989:wbs_stb_i *989:wbs_we_i 0
5 *989:wbs_stb_i *979:13 0.0121487
6 *950:11 *957:9 0.000578199
7 *950:11 *983:7 0
8 *989:wbs_cyc_i *950:11 0
9 *32:17 *950:11 0
10 *115:25 *989:wbs_stb_i 0.00218624
11 *880:20 *950:11 0.00139708
12 *888:9 *950:11 0.000511478
13 *891:9 *950:11 0.000504197
14 *892:19 *989:wbs_stb_i 0.000982937
15 *893:13 *989:wbs_stb_i 0.00246396
16 *898:13 *989:wbs_stb_i 0.00252403
17 *903:9 *950:11 0.000337877
18 *903:15 *989:wbs_stb_i 0.00552972
19 *922:13 *950:11 0.000578199
20 *926:21 *950:11 0.000396674
*RES
1 *988:sram_stb_o *950:11 42.1203 
2 *950:11 *989:wbs_stb_i 36.7321 
*END

*D_NET *951 0.057999
*CONN
*I *989:wbs_dat_i[0] I *D CF_SRAM_1024x32_wb_wrapper
*I *988:sram_dat_o[0] O *D soc_sys
*CAP
1 *989:wbs_dat_i[0] 0.00168796
2 *988:sram_dat_o[0] 0.00546294
3 *951:29 0.00439499
4 *951:23 0.00419475
5 *951:9 0.00378853
6 *951:7 0.00776375
7 *989:wbs_dat_i[0] *989:wbs_we_i 0
8 *951:9 *953:17 0.000518104
9 *988:sram_dat_i[0] *951:7 0
10 *31:17 *951:9 0.00022347
11 *31:27 *951:9 0.000223131
12 *33:27 *951:23 0.000229212
13 *69:33 *951:9 0.00137492
14 *904:13 *951:23 0.00010109
15 *912:9 *951:9 0
16 *912:9 *951:23 0
17 *914:9 *989:wbs_dat_i[0] 0
18 *931:9 *951:23 0.000263481
19 *939:11 *951:23 0.000531113
20 *941:9 *951:29 0.0131467
21 *943:19 *951:23 1.05441e-05
22 *945:13 *951:23 0
23 *947:9 *951:23 0
24 *948:19 *951:9 0.000355451
25 *948:19 *951:23 0.000585268
26 *948:23 *951:29 0.0131436
*RES
1 *988:sram_dat_o[0] *951:7 22.4891 
2 *951:7 *951:9 68.4607 
3 *951:9 *951:23 44.592 
4 *951:23 *951:29 41.0432 
5 *951:29 *989:wbs_dat_i[0] 24.0182 
*END

*D_NET *952 0.107165
*CONN
*I *989:wbs_dat_i[10] I *D CF_SRAM_1024x32_wb_wrapper
*I *988:sram_dat_o[10] O *D soc_sys
*CAP
1 *989:wbs_dat_i[10] 0.00125385
2 *988:sram_dat_o[10] 0.00326653
3 *952:21 0.00422794
4 *952:19 0.00351132
5 *952:9 0.00395933
6 *952:7 0.00668863
7 *952:21 *953:21 0.0204898
8 *952:21 *955:21 0.0214061
9 *988:sram_dat_i[10] *952:7 0
10 *989:wbs_adr_i[10] *989:wbs_dat_i[10] 0
11 *883:11 *952:7 0
12 *894:9 *952:9 0.0176878
13 *896:9 *952:9 0.01788
14 *915:19 *989:wbs_dat_i[10] 0
15 *918:19 *952:19 0.00148337
16 *930:19 *952:19 0.00079317
17 *936:11 *952:19 0.000271466
18 *942:26 *952:21 0.000612876
19 *942:48 *952:19 0.000223037
20 *944:19 *952:19 0.000122056
21 *944:19 *952:21 0.000200278
22 *944:21 *952:19 1.81615e-05
23 *945:7 *989:wbs_dat_i[10] 0
24 *945:9 *952:21 0.000236331
25 *947:15 *952:21 0.00177432
26 *949:31 *952:21 0.00105822
*RES
1 *988:sram_dat_o[10] *952:7 18.1099 
2 *952:7 *952:9 229.742 
3 *952:9 *952:19 34.4769 
4 *952:19 *952:21 234.071 
5 *952:21 *989:wbs_dat_i[10] 35.3207 
*END

*D_NET *953 0.104971
*CONN
*I *989:wbs_dat_i[11] I *D CF_SRAM_1024x32_wb_wrapper
*I *988:sram_dat_o[11] O *D soc_sys
*CAP
1 *989:wbs_dat_i[11] 0.00128795
2 *988:sram_dat_o[11] 0.00524989
3 *953:21 0.00435614
4 *953:19 0.00306819
5 *953:17 0.00119783
6 *953:15 0.00143418
7 *953:9 0.00453561
8 *953:7 0.00954914
9 *953:17 *959:15 0
10 *953:21 *955:21 0.000368398
11 *988:sram_dat_i[11] *953:7 0
12 *33:17 *953:9 0.00310908
13 *69:33 *953:17 0.00131346
14 *884:7 *953:7 0
15 *891:9 *953:9 0
16 *898:9 *953:17 0.000142629
17 *915:19 *989:wbs_dat_i[11] 0
18 *916:7 *989:wbs_dat_i[11] 0
19 *917:15 *953:17 0
20 *917:17 *953:9 0.016242
21 *918:19 *953:17 0
22 *936:11 *953:21 0.00288021
23 *942:26 *953:21 0.000117394
24 *945:9 *953:21 0.0204922
25 *948:9 *953:9 0.00692882
26 *948:19 *953:17 0.00168958
27 *951:9 *953:17 0.000518104
28 *952:21 *953:21 0.0204898
*RES
1 *988:sram_dat_o[11] *953:7 23.176 
2 *953:7 *953:9 206.677 
3 *953:9 *953:15 33.0036 
4 *953:15 *953:17 36.7679 
5 *953:17 *953:19 15 
6 *953:19 *953:21 231.213 
7 *953:21 *989:wbs_dat_i[11] 35.6729 
*END

*D_NET *954 0.110093
*CONN
*I *989:wbs_dat_i[12] I *D CF_SRAM_1024x32_wb_wrapper
*I *988:sram_dat_o[12] O *D soc_sys
*CAP
1 *989:wbs_dat_i[12] 0.00107011
2 *988:sram_dat_o[12] 0.00575168
3 *954:21 0.00405228
4 *954:19 0.00391829
5 *954:15 0.00124745
6 *954:9 0.00311638
7 *954:7 0.00855673
8 *988:sram_dat_i[12] *954:7 0
9 *989:wbs_adr_i[12] *989:wbs_dat_i[12] 0
10 *880:20 *954:9 0.000449304
11 *885:7 *954:7 0
12 *886:9 *954:9 0.0174859
13 *892:9 *954:19 0.00147123
14 *903:9 *954:19 0.00151892
15 *911:17 *954:21 0.00330528
16 *916:7 *989:wbs_dat_i[12] 0
17 *916:9 *954:21 0.0203976
18 *916:25 *954:9 0.0161576
19 *917:7 *989:wbs_dat_i[12] 0
20 *917:9 *954:21 0.0211759
21 *919:15 *954:19 0.000291449
22 *922:13 *954:19 0.000127325
23 *930:9 *954:21 0
*RES
1 *988:sram_dat_o[12] *954:7 24.5499 
2 *954:7 *954:9 222.171 
3 *954:9 *954:15 33.9564 
4 *954:15 *954:19 44.725 
5 *954:19 *954:21 231.689 
6 *954:21 *989:wbs_dat_i[12] 31.4471 
*END

*D_NET *955 0.101922
*CONN
*I *989:wbs_dat_i[13] I *D CF_SRAM_1024x32_wb_wrapper
*I *988:sram_dat_o[13] O *D soc_sys
*CAP
1 *989:wbs_dat_i[13] 0.00121149
2 *988:sram_dat_o[13] 0.00177105
3 *955:21 0.00483385
4 *955:19 0.00480543
5 *955:9 0.0105833
6 *955:7 0.0111713
7 *955:9 *964:9 0
8 *988:sram_dat_i[13] *955:7 0
9 *989:wbs_adr_i[13] *989:wbs_dat_i[13] 0
10 *37:35 *955:9 0.000229143
11 *886:7 *955:7 0
12 *911:9 *955:9 0.0141486
13 *911:15 *955:9 0.000303667
14 *918:7 *989:wbs_dat_i[13] 0
15 *930:9 *955:21 0.0239677
16 *930:19 *955:19 4.89546e-05
17 *936:11 *955:19 0.000937567
18 *939:11 *955:19 0.000133166
19 *940:11 *955:19 0.00118181
20 *941:9 *955:19 0.00023304
21 *942:26 *955:21 0.000707571
22 *943:19 *955:19 0.000820562
23 *947:15 *955:21 0.00204846
24 *949:9 *955:19 9.41668e-05
25 *949:31 *955:21 0.000916598
26 *952:21 *955:21 0.0214061
27 *953:21 *955:21 0.000368398
*RES
1 *988:sram_dat_o[13] *955:7 13.7307 
2 *955:7 *955:9 270.591 
3 *955:9 *955:19 39.7669 
4 *955:19 *955:21 262.181 
5 *955:21 *989:wbs_dat_i[13] 34.9686 
*END

*D_NET *956 0.125063
*CONN
*I *989:wbs_dat_i[14] I *D CF_SRAM_1024x32_wb_wrapper
*I *988:sram_dat_o[14] O *D soc_sys
*CAP
1 *989:wbs_dat_i[14] 0.000910973
2 *988:sram_dat_o[14] 0.00139395
3 *956:21 0.00407859
4 *956:19 0.00483801
5 *956:9 0.00553107
6 *956:7 0.00525464
7 *956:9 *968:9 0.0216356
8 *956:9 *970:9 0.0216382
9 *956:9 *982:11 0.000329213
10 *956:21 *957:21 0.022213
11 *988:sram_dat_i[14] *956:7 0
12 *989:wbs_adr_i[14] *989:wbs_dat_i[14] 0
13 *32:37 *956:19 0.000170291
14 *105:44 *956:19 0.00382359
15 *143:13 *956:19 0
16 *887:7 *956:7 0
17 *911:17 *956:19 0.00505406
18 *912:13 *956:21 0.00357561
19 *917:15 *956:19 2.31765e-05
20 *918:7 *989:wbs_dat_i[14] 0
21 *918:9 *956:21 0.000285231
22 *918:19 *956:19 0.00118418
23 *919:7 *989:wbs_dat_i[14] 0
24 *920:9 *956:21 0.0227226
25 *942:48 *956:19 0.000383096
26 *947:15 *956:19 1.76364e-05
*RES
1 *988:sram_dat_o[14] *956:7 12.5285 
2 *956:7 *956:9 278.338 
3 *956:9 *956:19 45.0134 
4 *956:19 *956:21 248.841 
5 *956:21 *989:wbs_dat_i[14] 29.6864 
*END

*D_NET *957 0.120106
*CONN
*I *989:wbs_dat_i[15] I *D CF_SRAM_1024x32_wb_wrapper
*I *988:sram_dat_o[15] O *D soc_sys
*CAP
1 *989:wbs_dat_i[15] 0.000925771
2 *988:sram_dat_o[15] 0.00549995
3 *957:21 0.00418886
4 *957:19 0.00326309
5 *957:17 0.00077586
6 *957:9 0.00394659
7 *957:7 0.00867068
8 *988:sram_dat_i[15] *957:7 0
9 *989:wbs_adr_i[15] *989:wbs_dat_i[15] 0
10 *886:9 *957:17 0.00078227
11 *888:7 *957:7 0
12 *888:9 *957:9 0.0212769
13 *888:9 *957:17 0.000727663
14 *910:13 *957:21 0.00309708
15 *916:23 *957:17 0.000204492
16 *918:9 *957:21 0.0217809
17 *919:7 *989:wbs_dat_i[15] 0
18 *919:9 *957:21 0.000368398
19 *919:19 *957:17 4.67488e-05
20 *920:7 *989:wbs_dat_i[15] 0
21 *920:9 *957:21 0.000363687
22 *922:13 *957:9 0.0212792
23 *922:13 *957:17 0.000116344
24 *950:11 *957:9 0.000578199
25 *956:21 *957:21 0.022213
*RES
1 *988:sram_dat_o[15] *957:7 24.2064 
2 *957:7 *957:9 270.767 
3 *957:9 *957:17 48.85 
4 *957:17 *957:19 15 
5 *957:19 *957:21 250.27 
6 *957:21 *989:wbs_dat_i[15] 30.0386 
*END

*D_NET *958 0.119174
*CONN
*I *989:wbs_dat_i[16] I *D CF_SRAM_1024x32_wb_wrapper
*I *988:sram_dat_o[16] O *D soc_sys
*CAP
1 *989:wbs_dat_i[16] 0.000181589
2 *988:sram_dat_o[16] 6.92165e-05
3 *958:29 0.00518534
4 *958:27 0.00663504
5 *958:19 0.00463372
6 *958:9 0.00723821
7 *958:7 0.004305
8 *958:9 *960:11 0
9 *958:19 *989:wbs_dat_i[9] 0.000291259
10 *958:27 *973:19 0.0015716
11 *958:27 *977:13 0.00736599
12 *989:wbs_adr_i[0] *958:19 0.002363
13 *989:wbs_adr_i[16] *989:wbs_dat_i[16] 0
14 *114:13 *958:19 5.92908e-05
15 *115:25 *958:29 0
16 *540:25 *958:19 0
17 *541:35 *958:29 0.00418339
18 *882:9 *958:9 0.0153025
19 *892:9 *958:19 5.6247e-05
20 *914:15 *958:19 0
21 *914:17 *958:19 7.0508e-05
22 *919:15 *958:19 0.000517922
23 *921:7 *989:wbs_dat_i[16] 0
24 *921:9 *958:29 0.016704
25 *921:17 *958:19 0.00796428
26 *921:21 *958:9 0.00321793
27 *923:21 *958:9 0.0212917
28 *926:19 *958:19 0.000369224
29 *946:19 *958:19 0.00287655
30 *946:31 *958:27 0.00577492
31 *946:31 *958:29 0.000945605
*RES
1 *988:sram_dat_o[16] *958:7 8.1568 
2 *958:7 *958:9 281.093 
3 *958:9 *958:19 48.1084 
4 *958:19 *958:27 38.4298 
5 *958:27 *958:29 184.046 
6 *958:29 *989:wbs_dat_i[16] 17.3614 
*END

*D_NET *959 0.130269
*CONN
*I *989:wbs_dat_i[17] I *D CF_SRAM_1024x32_wb_wrapper
*I *988:sram_dat_o[17] O *D soc_sys
*CAP
1 *989:wbs_dat_i[17] 0.000469793
2 *988:sram_dat_o[17] 0.00496299
3 *959:17 0.00441441
4 *959:15 0.00448429
5 *959:9 0.00405464
6 *959:7 0.00847796
7 *959:15 *980:17 0.00112284
8 *988:sram_dat_i[17] *959:7 0
9 *989:wbs_adr_i[17] *989:wbs_dat_i[17] 0
10 *31:17 *959:9 0.00398503
11 *889:9 *959:9 0.0216398
12 *889:15 *959:9 2.28244e-05
13 *889:15 *959:15 0.00157775
14 *889:17 *959:17 0.0250361
15 *890:7 *959:7 0
16 *890:21 *959:17 0.000178152
17 *891:13 *959:17 0.0247822
18 *893:13 *959:17 4.87889e-05
19 *898:9 *959:9 0.0223526
20 *898:9 *959:15 0.000154668
21 *903:15 *959:17 0.002504
22 *922:7 *989:wbs_dat_i[17] 0
23 *953:17 *959:15 0
*RES
1 *988:sram_dat_o[17] *959:7 22.9184 
2 *959:7 *959:9 284.676 
3 *959:9 *959:15 36.7189 
4 *959:15 *959:17 272.186 
5 *959:17 *989:wbs_dat_i[17] 21.9393 
*END

*D_NET *960 0.126364
*CONN
*I *989:wbs_dat_i[18] I *D CF_SRAM_1024x32_wb_wrapper
*I *988:sram_dat_o[18] O *D soc_sys
*CAP
1 *989:wbs_dat_i[18] 0.000116332
2 *988:sram_dat_o[18] 0.00139762
3 *960:29 0.00400812
4 *960:27 0.00492279
5 *960:17 0.00545115
6 *960:15 0.00875006
7 *960:11 0.00572753
8 *960:27 *978:13 0.000448178
9 *960:29 *961:25 0.0245537
10 *960:29 *980:21 0.00248395
11 *989:wbs_adr_i[18] *989:wbs_dat_i[18] 0
12 *31:27 *960:27 0.000303234
13 *540:33 *960:29 0.000101436
14 *541:35 *960:29 3.4078e-05
15 *888:7 *960:15 0
16 *888:9 *960:27 0.000252753
17 *889:7 *960:15 0
18 *891:7 *960:11 0
19 *893:9 *960:17 0.0218397
20 *920:13 *960:17 0.0206971
21 *921:17 *960:27 0.00037142
22 *922:13 *960:27 0.000254985
23 *923:7 *989:wbs_dat_i[18] 0
24 *923:9 *960:29 0.024604
25 *923:21 *960:11 0
26 *926:19 *960:27 4.62763e-05
27 *958:9 *960:11 0
*RES
1 *988:sram_dat_o[18] *960:11 44.0503 
2 *960:11 *960:15 21.1936 
3 *960:15 *960:17 281.859 
4 *960:17 *960:27 37.1224 
5 *960:27 *960:29 272.662 
6 *960:29 *989:wbs_dat_i[18] 16.305 
*END

*D_NET *961 0.118734
*CONN
*I *989:wbs_dat_i[19] I *D CF_SRAM_1024x32_wb_wrapper
*I *988:sram_dat_o[19] O *D soc_sys
*CAP
1 *989:wbs_dat_i[19] 0.000336349
2 *988:sram_dat_o[19] 0.00326443
3 *961:25 0.00413254
4 *961:23 0.00465427
5 *961:13 0.0103441
6 *961:11 0.0127505
7 *989:wbs_dat_i[19] *972:21 0.0004838
8 *961:23 *989:wbs_dat_i[9] 0.000106915
9 *961:23 *976:13 0.00197002
10 *961:23 *978:13 0.00197121
11 *961:25 *980:21 0.00210514
12 *988:sram_dat_i[19] *961:11 0.00343138
13 *989:wbs_adr_i[19] *989:wbs_dat_i[19] 0
14 *36:13 *961:13 0.00378144
15 *40:25 *961:13 3.38806e-05
16 *540:33 *961:25 0.0104912
17 *540:47 *989:wbs_dat_i[19] 6.51746e-05
18 *540:47 *961:25 0.0141064
19 *893:7 *961:11 0
20 *893:9 *961:13 0
21 *916:23 *961:23 6.92618e-05
22 *923:9 *989:wbs_dat_i[19] 0.00018282
23 *923:9 *961:25 1.72202e-05
24 *923:15 *961:23 7.13521e-05
25 *924:7 *989:wbs_dat_i[19] 0
26 *924:13 *961:13 0.00566633
27 *944:21 *961:13 0.0141451
28 *960:29 *961:25 0.0245537
*RES
1 *988:sram_dat_o[19] *961:11 21.3877 
2 *961:11 *961:13 321.299 
3 *961:13 *961:23 35.9454 
4 *961:23 *961:25 270.756 
5 *961:25 *989:wbs_dat_i[19] 23.6171 
*END

*D_NET *962 0.0712331
*CONN
*I *989:wbs_dat_i[1] I *D CF_SRAM_1024x32_wb_wrapper
*I *988:sram_dat_o[1] O *D soc_sys
*CAP
1 *989:wbs_dat_i[1] 0.00214586
2 *988:sram_dat_o[1] 0.00116198
3 *962:13 0.00563793
4 *962:9 0.00742084
5 *962:7 0.00509075
6 *962:9 *981:9 0.00450872
7 *962:13 *968:13 0.0203915
8 *962:13 *981:13 0.0210499
9 *988:sram_dat_i[1] *962:7 0
10 *989:wbs_adr_i[1] *989:wbs_dat_i[1] 0
11 *989:wbs_cyc_i *962:9 0.000191693
12 *989:wbs_sel_i[1] *989:wbs_dat_i[1] 0
13 *925:11 *989:wbs_dat_i[1] 0
14 *932:16 *962:13 0.00363387
15 *947:7 *962:7 0
*RES
1 *988:sram_dat_o[1] *962:7 11.4123 
2 *962:7 *962:9 114.944 
3 *962:9 *962:13 46.7819 
4 *962:13 *989:wbs_dat_i[1] 39.7654 
*END

*D_NET *963 0.0857876
*CONN
*I *989:wbs_dat_i[20] I *D CF_SRAM_1024x32_wb_wrapper
*I *988:sram_dat_o[20] O *D soc_sys
*CAP
1 *989:wbs_dat_i[20] 0.00588816
2 *988:sram_dat_o[20] 0.000204584
3 *963:15 0.0200488
4 *963:11 0.0141606
5 *963:9 0.0150255
6 *963:7 0.0152301
7 *989:wbs_dat_i[20] *989:wbs_dat_i[28] 0.00021252
8 *989:wbs_dat_i[20] *989:wbs_dat_i[30] 0.000236651
9 *989:wbs_dat_i[20] *972:19 0.00116468
10 *988:sram_dat_i[20] *963:7 0
11 *988:sram_dat_i[20] *963:9 0
12 *988:sram_dat_i[21] *963:9 0
13 *989:wbs_adr_i[11] *989:wbs_dat_i[20] 0
14 *989:wbs_adr_i[20] *989:wbs_dat_i[20] 0
15 *989:wbs_adr_i[22] *989:wbs_dat_i[20] 0.00541695
16 *894:7 *963:7 4.08236e-06
17 *894:7 *963:9 0.00141524
18 *895:9 *989:wbs_dat_i[20] 0
19 *895:9 *963:15 0
20 *926:7 *989:wbs_dat_i[20] 0
21 *927:9 *989:wbs_dat_i[20] 0.00677977
*RES
1 *988:sram_dat_o[20] *963:7 0.812 
2 *963:7 *963:9 52.7781 
3 *963:9 *963:11 8 
4 *963:11 *963:15 49.4107 
5 *963:15 *989:wbs_dat_i[20] 45.3136 
*END

*D_NET *964 0.15166
*CONN
*I *989:wbs_dat_i[21] I *D CF_SRAM_1024x32_wb_wrapper
*I *988:sram_dat_o[21] O *D soc_sys
*CAP
1 *989:wbs_dat_i[21] 0.00147352
2 *988:sram_dat_o[21] 0.00106196
3 *964:13 0.00762017
4 *964:11 0.00614666
5 *964:9 0.0120614
6 *964:7 0.0131233
7 *964:9 *966:9 0.0104285
8 *964:9 *968:9 0
9 *964:9 *982:11 0.000245097
10 *964:13 *966:13 0.0347712
11 *964:13 *970:21 0.00589069
12 *964:13 *981:13 0.000564108
13 *989:wbs_adr_i[21] *989:wbs_dat_i[21] 0
14 *895:5 *964:7 0
15 *896:13 *964:13 0.0320034
16 *900:13 *964:13 0.0136017
17 *927:9 *989:wbs_dat_i[21] 0
18 *928:14 *964:7 0.00236346
19 *931:19 *964:13 0.00125124
20 *936:13 *964:9 0.00905376
21 *955:9 *964:9 0
*RES
1 *988:sram_dat_o[21] *964:7 12.9579 
2 *964:7 *964:9 378.346 
3 *964:9 *964:11 8 
4 *964:11 *964:13 64.2843 
5 *964:13 *989:wbs_dat_i[21] 36.9482 
*END

*D_NET *965 0.0812326
*CONN
*I *989:wbs_dat_i[22] I *D CF_SRAM_1024x32_wb_wrapper
*I *988:sram_dat_o[22] O *D soc_sys
*CAP
1 *989:wbs_dat_i[22] 2.62736e-05
2 *988:sram_dat_o[22] 0.00116821
3 *965:17 0.0181996
4 *965:15 0.0181733
5 *965:13 0.0160061
6 *965:11 0.0171744
7 *965:11 *970:9 0
8 *988:sram_dat_i[22] *965:11 0
9 *895:5 *965:13 0.00944989
10 *896:7 *965:11 0
11 *897:13 *965:11 0.000980247
12 *928:8 *989:wbs_dat_i[22] 5.45304e-05
13 *929:14 *965:13 0
*RES
1 *988:sram_dat_o[22] *965:11 26.3252 
2 *965:11 *965:13 66.6456 
3 *965:13 *965:15 8 
4 *965:15 *965:17 63.7765 
5 *965:17 *989:wbs_dat_i[22] 16.0989 
*END

*D_NET *966 0.159146
*CONN
*I *989:wbs_dat_i[23] I *D CF_SRAM_1024x32_wb_wrapper
*I *988:sram_dat_o[23] O *D soc_sys
*CAP
1 *989:wbs_dat_i[23] 0.00138811
2 *988:sram_dat_o[23] 0.00144781
3 *966:13 0.00794373
4 *966:11 0.00655562
5 *966:9 0.00744851
6 *966:7 0.00889632
7 *966:9 *968:9 0.0106044
8 *966:9 *982:11 0.000245097
9 *966:13 *968:13 0
10 *966:13 *970:19 0.000843429
11 *966:13 *981:13 2.77015e-05
12 *988:sram_dat_i[23] *966:7 0
13 *989:wbs_adr_i[23] *989:wbs_dat_i[23] 0
14 *896:13 *966:13 0.000643354
15 *897:11 *966:7 0
16 *931:9 *966:13 0.0338755
17 *933:9 *966:13 0.00704122
18 *933:19 *966:13 0.000835448
19 *934:9 *966:13 0.00639382
20 *936:13 *966:9 0.00905621
21 *939:13 *966:9 0.0106997
22 *964:9 *966:9 0.0104285
23 *964:13 *966:13 0.0347712
*RES
1 *988:sram_dat_o[23] *966:7 12.7861 
2 *966:7 *966:9 402.996 
3 *966:9 *966:11 8 
4 *966:11 *966:13 67.032 
5 *966:13 *989:wbs_dat_i[23] 36.2439 
*END

*D_NET *967 0.0821477
*CONN
*I *989:wbs_dat_i[24] I *D CF_SRAM_1024x32_wb_wrapper
*I *988:sram_dat_o[24] O *D soc_sys
*CAP
1 *989:wbs_dat_i[24] 4.77831e-05
2 *988:sram_dat_o[24] 0.00577681
3 *967:17 0.0193472
4 *967:15 0.0192994
5 *967:13 0.0159349
6 *967:11 0.0217117
7 *989:wbs_dat_i[24] *989:wbs_dat_i[26] 2.98092e-05
8 *988:sram_dat_i[24] *967:11 0
9 *898:7 *967:11 0
10 *899:13 *967:11 0
11 *929:10 *967:17 0
*RES
1 *988:sram_dat_o[24] *967:11 43.345 
2 *967:11 *967:13 56.5992 
3 *967:13 *967:15 8 
4 *967:15 *967:17 67.5845 
5 *967:17 *989:wbs_dat_i[24] 16.1848 
*END

*D_NET *968 0.143015
*CONN
*I *989:wbs_dat_i[25] I *D CF_SRAM_1024x32_wb_wrapper
*I *988:sram_dat_o[25] O *D soc_sys
*CAP
1 *989:wbs_dat_i[25] 0.00157852
2 *988:sram_dat_o[25] 0.00138861
3 *968:13 0.0161982
4 *968:11 0.0146197
5 *968:9 0.00772367
6 *968:7 0.00911228
7 *968:7 *971:17 0
8 *968:9 *970:9 0.00591708
9 *968:9 *982:11 0.000299019
10 *968:13 *981:13 0.00296736
11 *988:sram_dat_i[25] *968:7 0
12 *989:wbs_adr_i[25] *989:wbs_dat_i[25] 0
13 *894:13 *968:13 0.00312232
14 *896:13 *968:13 0.000415523
15 *899:11 *968:7 0
16 *930:7 *989:wbs_dat_i[25] 0
17 *931:7 *989:wbs_dat_i[25] 0
18 *931:9 *968:13 0
19 *932:16 *968:13 0.0163388
20 *939:13 *968:9 0.0107021
21 *956:9 *968:9 0.0216356
22 *962:13 *968:13 0.0203915
23 *964:9 *968:9 0
24 *966:9 *968:9 0.0106044
25 *966:13 *968:13 0
*RES
1 *988:sram_dat_o[25] *968:7 12.6144 
2 *968:7 *968:9 432.576 
3 *968:9 *968:11 8 
4 *968:11 *968:13 69.7797 
5 *968:13 *989:wbs_dat_i[25] 40.4696 
*END

*D_NET *969 0.134076
*CONN
*I *989:wbs_dat_i[26] I *D CF_SRAM_1024x32_wb_wrapper
*I *988:sram_dat_o[26] O *D soc_sys
*CAP
1 *989:wbs_dat_i[26] 0.00428377
2 *988:sram_dat_o[26] 0.000455107
3 *969:17 0.018654
4 *969:15 0.0143703
5 *969:13 0.0103726
6 *969:11 0.0108277
7 *989:wbs_dat_i[26] *989:wbs_dat_i[28] 0.00128658
8 *989:wbs_dat_i[26] *989:wbs_dat_i[30] 0.00111853
9 *989:wbs_dat_i[26] *972:21 0.000660975
10 *969:11 *971:15 0
11 *969:13 *971:17 0.0293189
12 *988:sram_dat_i[26] *969:13 0.000979821
13 *989:wbs_adr_i[11] *969:17 0
14 *989:wbs_adr_i[22] *989:wbs_dat_i[26] 0.00666138
15 *989:wbs_adr_i[24] *989:wbs_dat_i[26] 0.00466802
16 *989:wbs_adr_i[26] *989:wbs_dat_i[26] 0
17 *989:wbs_adr_i[27] *989:wbs_dat_i[26] 0
18 *989:wbs_dat_i[24] *989:wbs_dat_i[26] 2.98092e-05
19 *540:47 *989:wbs_dat_i[26] 0.000330487
20 *899:17 *969:17 0.0300575
21 *900:7 *969:11 0
*RES
1 *988:sram_dat_o[26] *969:11 22.9217 
2 *969:11 *969:13 55.7405 
3 *969:13 *969:15 8 
4 *969:15 *969:17 73.4235 
5 *969:17 *989:wbs_dat_i[26] 36.2816 
*END

*D_NET *970 0.151425
*CONN
*I *989:wbs_dat_i[27] I *D CF_SRAM_1024x32_wb_wrapper
*I *988:sram_dat_o[27] O *D soc_sys
*CAP
1 *989:wbs_dat_i[27] 0.00133944
2 *988:sram_dat_o[27] 0.00134386
3 *970:21 0.00574614
4 *970:19 0.0053035
5 *970:9 0.0152556
6 *970:7 0.0157027
7 *970:9 *982:11 0.00187554
8 *970:19 *981:13 0
9 *988:sram_dat_i[27] *970:7 0
10 *989:wbs_adr_i[27] *989:wbs_dat_i[27] 0
11 *900:13 *970:21 0.0338149
12 *901:11 *970:7 0
13 *904:13 *970:19 0.000230348
14 *931:9 *970:19 0.000251387
15 *933:7 *989:wbs_dat_i[27] 0
16 *933:9 *970:21 0.034201
17 *933:19 *970:19 0.000801471
18 *939:11 *970:19 0.00126956
19 *956:9 *970:9 0.0216382
20 *964:13 *970:21 0.00589069
21 *965:11 *970:9 0
22 *966:13 *970:19 0.000843429
23 *968:9 *970:9 0.00591708
*RES
1 *988:sram_dat_o[27] *970:7 12.4427 
2 *970:7 *970:9 452.296 
3 *970:9 *970:19 37.9376 
4 *970:19 *970:21 373.665 
5 *970:21 *989:wbs_dat_i[27] 43.42 
*END

*D_NET *971 0.115747
*CONN
*I *989:wbs_dat_i[28] I *D CF_SRAM_1024x32_wb_wrapper
*I *988:sram_dat_o[28] O *D soc_sys
*CAP
1 *989:wbs_dat_i[28] 0.00484531
2 *988:sram_dat_o[28] 0.00159303
3 *971:21 0.0260529
4 *971:19 0.0212076
5 *971:17 0.013744
6 *971:15 0.0153371
7 *989:wbs_dat_i[28] *989:wbs_dat_i[30] 0.000448279
8 *971:21 *974:9 0
9 *988:sram_dat_i[26] *971:17 5.13351e-05
10 *988:sram_dat_i[28] *971:15 0
11 *989:wbs_adr_i[22] *989:wbs_dat_i[28] 0.000543763
12 *989:wbs_adr_i[24] *989:wbs_dat_i[28] 0.000614634
13 *989:wbs_adr_i[28] *989:wbs_dat_i[28] 0
14 *989:wbs_dat_i[20] *989:wbs_dat_i[28] 0.00021252
15 *989:wbs_dat_i[26] *989:wbs_dat_i[28] 0.00128658
16 *899:11 *971:17 0.000122364
17 *901:11 *971:15 0
18 *902:7 *971:15 0
19 *928:8 *989:wbs_dat_i[28] 0.000369007
20 *934:7 *989:wbs_dat_i[28] 0
21 *968:7 *971:17 0
22 *969:11 *971:15 0
23 *969:13 *971:17 0.0293189
*RES
1 *988:sram_dat_o[28] *971:15 49.4579 
2 *971:15 *971:17 66.1304 
3 *971:17 *971:19 8 
4 *971:19 *971:21 73.4235 
5 *971:21 *989:wbs_dat_i[28] 21.2922 
*END

*D_NET *972 0.105628
*CONN
*I *989:wbs_dat_i[29] I *D CF_SRAM_1024x32_wb_wrapper
*I *988:sram_dat_o[29] O *D soc_sys
*CAP
1 *989:wbs_dat_i[29] 5.89552e-05
2 *988:sram_dat_o[29] 0.0183781
3 *972:21 0.00255391
4 *972:19 0.00289204
5 *972:9 0.0177968
6 *972:7 0.0173997
7 *972:5 0.0183781
8 *988:sram_dat_i[29] *972:5 0
9 *989:wbs_adr_i[22] *972:19 0.00115923
10 *989:wbs_adr_i[29] *989:wbs_dat_i[29] 0
11 *989:wbs_dat_i[19] *972:21 0.0004838
12 *989:wbs_dat_i[20] *972:19 0.00116468
13 *989:wbs_dat_i[26] *972:21 0.000660975
14 *540:47 *972:21 0.00694799
15 *901:17 *972:9 0.0176997
16 *904:7 *972:5 0
17 *923:7 *972:19 5.43589e-05
18 *935:7 *989:wbs_dat_i[29] 0
*RES
1 *988:sram_dat_o[29] *972:5 63.5619 
2 *972:5 *972:7 8 
3 *972:7 *972:9 81.6741 
4 *972:9 *972:19 34.5372 
5 *972:19 *972:21 76.85 
6 *972:21 *989:wbs_dat_i[29] 15.9529 
*END

*D_NET *973 0.0708987
*CONN
*I *989:wbs_dat_i[2] I *D CF_SRAM_1024x32_wb_wrapper
*I *988:sram_dat_o[2] O *D soc_sys
*CAP
1 *989:wbs_dat_i[2] 0.000174694
2 *988:sram_dat_o[2] 0.00393136
3 *973:19 0.00442871
4 *973:9 0.00819391
5 *973:7 0.00787124
6 *973:19 *989:wbs_dat_i[9] 0.0039605
7 *973:19 *977:13 0.00111439
8 *973:19 *980:21 0.0144047
9 *988:sram_dat_i[2] *973:7 0
10 *989:wbs_adr_i[2] *989:wbs_dat_i[2] 0
11 *541:27 *973:19 0.00231119
12 *881:9 *973:9 0.00408635
13 *894:9 *973:9 0
14 *915:23 *973:9 0.000826857
15 *921:9 *973:19 0.00237551
16 *923:9 *973:19 0.00206759
17 *927:9 *973:19 0.000651308
18 *936:7 *989:wbs_dat_i[2] 0
19 *946:31 *973:19 0.0129287
20 *948:7 *973:7 0
21 *958:27 *973:19 0.0015716
*RES
1 *988:sram_dat_o[2] *973:7 18.8827 
2 *973:7 *973:9 102.971 
3 *973:9 *973:19 49.2677 
4 *973:19 *989:wbs_dat_i[2] 2.18536 
*END

*D_NET *974 0.121355
*CONN
*I *989:wbs_dat_i[30] I *D CF_SRAM_1024x32_wb_wrapper
*I *988:sram_dat_o[30] O *D soc_sys
*CAP
1 *989:wbs_dat_i[30] 0.00258832
2 *988:sram_dat_o[30] 0.0138486
3 *974:9 0.0267439
4 *974:7 0.0241555
5 *974:5 0.0138486
6 *988:sram_dat_i[30] *974:5 0
7 *989:wbs_adr_i[22] *989:wbs_dat_i[30] 0.000630372
8 *989:wbs_adr_i[28] *989:wbs_dat_i[30] 0.00210225
9 *989:wbs_adr_i[30] *989:wbs_dat_i[30] 0
10 *989:wbs_dat_i[20] *989:wbs_dat_i[30] 0.000236651
11 *989:wbs_dat_i[26] *989:wbs_dat_i[30] 0.00111853
12 *989:wbs_dat_i[28] *989:wbs_dat_i[30] 0.000448279
13 *905:5 *974:5 0
14 *927:9 *989:wbs_dat_i[30] 0.0011336
15 *932:16 *989:wbs_dat_i[30] 2.26772e-05
16 *938:14 *974:5 0.0344781
17 *971:21 *974:9 0
*RES
1 *988:sram_dat_o[30] *974:5 67.5117 
2 *974:5 *974:7 8 
3 *974:7 *974:9 84.0859 
4 *974:9 *989:wbs_dat_i[30] 32.212 
*END

*D_NET *975 0.112415
*CONN
*I *989:wbs_dat_i[31] I *D CF_SRAM_1024x32_wb_wrapper
*I *988:sram_dat_o[31] O *D soc_sys
*CAP
1 *989:wbs_dat_i[31] 0.000127094
2 *988:sram_dat_o[31] 0.0231991
3 *975:17 0.017739
4 *975:15 0.0176119
5 *975:13 0.00219892
6 *975:5 0.0253981
7 *988:sram_dat_i[30] *975:13 0
8 *988:sram_dat_i[31] *975:5 0
9 *905:17 *975:17 0.026058
10 *937:10 *975:17 8.29716e-05
11 *938:10 *975:17 0
*RES
1 *988:sram_dat_o[31] *975:5 78.5456 
2 *975:5 *975:13 42.6624 
3 *975:13 *975:15 8 
4 *975:15 *975:17 81.4203 
5 *975:17 *989:wbs_dat_i[31] 16.3565 
*END

*D_NET *976 0.0702012
*CONN
*I *989:wbs_dat_i[3] I *D CF_SRAM_1024x32_wb_wrapper
*I *988:sram_dat_o[3] O *D soc_sys
*CAP
1 *989:wbs_dat_i[3] 5.15074e-05
2 *988:sram_dat_o[3] 0.00291267
3 *976:13 0.00523873
4 *976:9 0.00862247
5 *976:7 0.00634792
6 *976:9 *977:9 0
7 *976:13 *989:wbs_dat_i[9] 0.00450521
8 *976:13 *978:13 0.00955529
9 *976:13 *980:21 0.0166271
10 *988:sram_dat_i[3] *976:7 0
11 *989:wbs_adr_i[3] *989:wbs_dat_i[3] 0
12 *540:25 *976:13 0.00222759
13 *540:33 *976:13 0.00228365
14 *540:47 *976:13 0.000140203
15 *541:27 *976:13 0.000525867
16 *939:7 *989:wbs_dat_i[3] 0
17 *943:21 *976:9 0.00919299
18 *949:7 *976:7 0
19 *961:23 *976:13 0.00197002
*RES
1 *988:sram_dat_o[3] *976:7 16.5643 
2 *976:7 *976:9 117.761 
3 *976:9 *976:13 45.0645 
4 *976:13 *989:wbs_dat_i[3] 8.77679 
*END

*D_NET *977 0.0719154
*CONN
*I *989:wbs_dat_i[4] I *D CF_SRAM_1024x32_wb_wrapper
*I *988:sram_dat_o[4] O *D soc_sys
*CAP
1 *989:wbs_dat_i[4] 0.00027594
2 *988:sram_dat_o[4] 0.00309349
3 *977:13 0.00526237
4 *977:9 0.00908974
5 *977:7 0.00719681
6 *977:13 *979:13 0.019787
7 *988:sram_dat_i[4] *977:7 0
8 *989:wbs_adr_i[4] *989:wbs_dat_i[4] 0
9 *66:21 *977:9 0.0011697
10 *541:27 *977:13 0.000205171
11 *908:7 *977:7 0
12 *909:9 *977:9 0.000170749
13 *927:9 *977:13 0.0042466
14 *940:7 *989:wbs_dat_i[4] 0
15 *940:13 *977:9 0.0104335
16 *943:21 *977:9 0
17 *946:31 *977:13 0.00250391
18 *958:27 *977:13 0.00736599
19 *973:19 *977:13 0.00111439
20 *976:9 *977:9 0
*RES
1 *988:sram_dat_o[4] *977:7 17.3371 
2 *977:7 *977:9 138.185 
3 *977:9 *977:13 46.0091 
4 *977:13 *989:wbs_dat_i[4] 12.2982 
*END

*D_NET *978 0.0695355
*CONN
*I *989:wbs_dat_i[5] I *D CF_SRAM_1024x32_wb_wrapper
*I *988:sram_dat_o[5] O *D soc_sys
*CAP
1 *989:wbs_dat_i[5] 0
2 *988:sram_dat_o[5] 0.00218479
3 *978:13 0.00798135
4 *978:9 0.0100553
5 *978:7 0.00425877
6 *978:9 *979:9 0
7 *978:13 *989:wbs_dat_i[9] 0.00310957
8 *978:13 *980:21 0.000551331
9 *988:sram_dat_i[5] *978:7 0
10 *989:wbs_adr_i[0] *978:13 0.00121985
11 *989:wbs_cyc_i *978:13 2.98064e-05
12 *31:27 *978:13 0.000308406
13 *540:25 *978:13 0.00031725
14 *880:20 *978:13 5.56761e-05
15 *908:9 *978:9 0.010722
16 *909:7 *978:7 0
17 *921:17 *978:13 0.000676275
18 *926:19 *978:13 5.10545e-05
19 *928:8 *978:13 0.00371301
20 *931:21 *978:9 0.000166109
21 *932:18 *978:9 0.00110919
22 *941:13 *978:9 0.0110511
23 *960:27 *978:13 0.000448178
24 *961:23 *978:13 0.00197121
25 *976:13 *978:13 0.00955529
*RES
1 *988:sram_dat_o[5] *978:7 14.7611 
2 *978:7 *978:9 145.932 
3 *978:9 *978:13 49.8731 
4 *978:13 *989:wbs_dat_i[5] 8 
*END

*D_NET *979 0.086078
*CONN
*I *989:wbs_dat_i[6] I *D CF_SRAM_1024x32_wb_wrapper
*I *988:sram_dat_o[6] O *D soc_sys
*CAP
1 *989:wbs_dat_i[6] 0.000314995
2 *988:sram_dat_o[6] 0.00194871
3 *979:13 0.00859913
4 *979:11 0.00828413
5 *979:9 0.00307169
6 *979:7 0.0050204
7 *988:sram_dat_i[6] *979:7 0
8 *989:wbs_adr_i[6] *989:wbs_dat_i[6] 0
9 *989:wbs_adr_i[7] *989:wbs_dat_i[6] 0
10 *989:wbs_stb_i *979:13 0.0121487
11 *33:27 *979:13 0.000348943
12 *36:23 *979:13 0.000601133
13 *36:25 *979:13 0.00015022
14 *39:17 *979:13 3.13284e-05
15 *66:25 *979:13 0.00185233
16 *541:27 *979:13 0.000363983
17 *882:13 *979:13 0
18 *885:19 *979:13 3.79087e-05
19 *890:19 *979:13 0.00053455
20 *892:19 *979:13 8.781e-05
21 *903:15 *979:13 0.000645326
22 *906:9 *979:9 0.00882717
23 *908:9 *979:9 0
24 *910:7 *979:7 0
25 *911:9 *979:9 0.0127791
26 *927:9 *979:13 0.000643397
27 *977:13 *979:13 0.019787
28 *978:9 *979:9 0
*RES
1 *988:sram_dat_o[6] *979:7 13.9024 
2 *979:7 *979:9 164.244 
3 *979:9 *979:11 8 
4 *979:11 *979:13 44.0197 
5 *979:13 *989:wbs_dat_i[6] 13.0025 
*END

*D_NET *980 0.0991291
*CONN
*I *989:wbs_dat_i[7] I *D CF_SRAM_1024x32_wb_wrapper
*I *988:sram_dat_o[7] O *D soc_sys
*CAP
1 *989:wbs_dat_i[7] 0.000112847
2 *988:sram_dat_o[7] 0.000177913
3 *980:21 0.00609069
4 *980:17 0.0102906
5 *980:9 0.00804707
6 *980:7 0.00391219
7 *980:21 *989:wbs_dat_i[9] 0.00474211
8 *989:wbs_adr_i[10] *980:21 0.0012322
9 *989:wbs_adr_i[7] *989:wbs_dat_i[7] 0
10 *541:27 *980:21 0.000232264
11 *898:9 *980:17 0.00112529
12 *921:21 *980:9 0.012362
13 *923:19 *980:17 0.00737148
14 *927:9 *980:21 0.00107313
15 *928:8 *980:21 4.56678e-05
16 *943:7 *989:wbs_dat_i[7] 0
17 *946:9 *980:9 0.00447052
18 *946:31 *980:21 0.000548002
19 *959:15 *980:17 0.00112284
20 *960:29 *980:21 0.00248395
21 *961:25 *980:21 0.00210514
22 *973:19 *980:21 0.0144047
23 *976:13 *980:21 0.0166271
24 *978:13 *980:21 0.000551331
*RES
1 *988:sram_dat_o[7] *980:7 8.4144 
2 *980:7 *980:9 158.547 
3 *980:9 *980:17 45.5025 
4 *980:17 *980:21 44.2917 
5 *980:21 *989:wbs_dat_i[7] 9.48107 
*END

*D_NET *981 0.0985806
*CONN
*I *989:wbs_dat_i[8] I *D CF_SRAM_1024x32_wb_wrapper
*I *988:sram_dat_o[8] O *D soc_sys
*CAP
1 *989:wbs_dat_i[8] 0.00187192
2 *988:sram_dat_o[8] 0.00108625
3 *981:13 0.00677377
4 *981:11 0.00490185
5 *981:9 0.005226
6 *981:7 0.00631225
7 *988:sram_dat_i[8] *981:7 0
8 *989:wbs_adr_i[8] *989:wbs_dat_i[8] 0
9 *894:13 *981:13 0.0228883
10 *896:13 *981:13 4.5552e-05
11 *912:7 *981:7 0
12 *918:21 *981:9 0.0157954
13 *931:19 *981:13 0.000685141
14 *932:16 *981:13 0.0038763
15 *943:7 *989:wbs_dat_i[8] 0
16 *944:7 *989:wbs_dat_i[8] 0
17 *962:9 *981:9 0.00450872
18 *962:13 *981:13 0.0210499
19 *964:13 *981:13 0.000564108
20 *966:13 *981:13 2.77015e-05
21 *968:13 *981:13 0.00296736
22 *970:19 *981:13 0
*RES
1 *988:sram_dat_o[8] *981:7 11.2405 
2 *981:7 *981:9 215.656 
3 *981:9 *981:11 8 
4 *981:11 *981:13 49.2576 
5 *981:13 *989:wbs_dat_i[8] 39.0611 
*END

*D_NET *982 0.106425
*CONN
*I *989:wbs_dat_i[9] I *D CF_SRAM_1024x32_wb_wrapper
*I *988:sram_dat_o[9] O *D soc_sys
*CAP
1 *989:wbs_dat_i[9] 0.0203303
2 *988:sram_dat_o[9] 0.017482
3 *982:11 0.0378123
4 *988:sram_dat_i[9] *982:11 0
5 *989:wbs_adr_i[10] *989:wbs_dat_i[9] 0.0010157
6 *989:wbs_adr_i[22] *989:wbs_dat_i[9] 0.000557812
7 *989:wbs_adr_i[24] *989:wbs_dat_i[9] 0.000256185
8 *989:wbs_adr_i[9] *989:wbs_dat_i[9] 0
9 *989:wbs_cyc_i *982:11 0.000710961
10 *540:25 *989:wbs_dat_i[9] 0.000827501
11 *541:27 *989:wbs_dat_i[9] 0.000976533
12 *880:20 *989:wbs_dat_i[9] 0.00318964
13 *921:17 *989:wbs_dat_i[9] 0.000291259
14 *936:13 *982:11 0.000245097
15 *939:13 *982:11 0.000245097
16 *945:7 *989:wbs_dat_i[9] 0
17 *946:31 *989:wbs_dat_i[9] 0.00277486
18 *956:9 *982:11 0.000329213
19 *958:19 *989:wbs_dat_i[9] 0.000291259
20 *961:23 *989:wbs_dat_i[9] 0.000106915
21 *964:9 *982:11 0.000245097
22 *966:9 *982:11 0.000245097
23 *968:9 *982:11 0.000299019
24 *970:9 *982:11 0.00187554
25 *973:19 *989:wbs_dat_i[9] 0.0039605
26 *976:13 *989:wbs_dat_i[9] 0.00450521
27 *978:13 *989:wbs_dat_i[9] 0.00310957
28 *980:21 *989:wbs_dat_i[9] 0.00474211
*RES
1 *988:sram_dat_o[9] *982:11 49.0561 
2 *982:11 *989:wbs_dat_i[9] 25.2563 
*END

*D_NET *983 0.0513956
*CONN
*I *989:wbs_we_i I *D CF_SRAM_1024x32_wb_wrapper
*I *988:sram_we_o O *D soc_sys
*CAP
1 *989:wbs_we_i 0.00282923
2 *988:sram_we_o 0.00667549
3 *983:9 0.00472468
4 *983:7 0.00857094
5 *989:wbs_dat_i[0] *989:wbs_we_i 0
6 *989:wbs_stb_i *989:wbs_we_i 0
7 *881:7 *983:7 0
8 *882:13 *989:wbs_we_i 0.00643485
9 *884:19 *989:wbs_we_i 0.000300085
10 *884:21 *989:wbs_we_i 0.00251402
11 *885:21 *989:wbs_we_i 0.00218624
12 *916:23 *983:9 0
13 *925:11 *989:wbs_we_i 0.0117359
14 *925:13 *983:9 0.00478326
15 *946:19 *983:9 0.000640962
16 *950:11 *983:7 0
*RES
1 *988:sram_we_o *983:7 25.4085 
2 *983:7 *983:9 62.8264 
3 *983:9 *989:wbs_we_i 47.4378 
*END
