*SPEF "ieee 1481-1999"
*DESIGN "user_project_wrapper"
*DATE "07:11:40 Wednesday September 30, 2026"
*VENDOR "The OpenROAD Project"
*PROGRAM "OpenROAD"
*VERSION "edf00dff99f6c40d67a30c0e22a8191c5d2ed9d6"
*DESIGN_FLOW "NAME_SCOPE LOCAL" "PIN_CAP NONE"
*DIVIDER /
*DELIMITER :
*BUS_DELIMITER []
*T_UNIT 1 NS
*C_UNIT 1 PF
*R_UNIT 1 OHM
*L_UNIT 1 HENRY

*NAME_MAP
*1 analog_io[0]
*2 analog_io[10]
*3 analog_io[11]
*4 analog_io[12]
*5 analog_io[13]
*6 analog_io[14]
*7 analog_io[15]
*8 analog_io[16]
*9 analog_io[17]
*10 analog_io[18]
*11 analog_io[19]
*12 analog_io[1]
*13 analog_io[20]
*14 analog_io[21]
*15 analog_io[22]
*16 analog_io[23]
*17 analog_io[24]
*18 analog_io[25]
*19 analog_io[26]
*20 analog_io[27]
*21 analog_io[28]
*22 analog_io[2]
*23 analog_io[3]
*24 analog_io[4]
*25 analog_io[5]
*26 analog_io[6]
*27 analog_io[7]
*28 analog_io[8]
*29 analog_io[9]
*30 io_in[0]
*31 io_in[10]
*32 io_in[11]
*33 io_in[12]
*34 io_in[13]
*35 io_in[14]
*36 io_in[15]
*37 io_in[16]
*38 io_in[17]
*39 io_in[18]
*40 io_in[19]
*41 io_in[1]
*42 io_in[20]
*43 io_in[21]
*44 io_in[22]
*45 io_in[23]
*46 io_in[24]
*47 io_in[25]
*48 io_in[26]
*49 io_in[27]
*50 io_in[28]
*51 io_in[29]
*52 io_in[2]
*53 io_in[30]
*54 io_in[31]
*55 io_in[32]
*56 io_in[33]
*57 io_in[34]
*58 io_in[35]
*59 io_in[36]
*60 io_in[37]
*61 io_in[3]
*62 io_in[4]
*63 io_in[5]
*64 io_in[6]
*65 io_in[7]
*66 io_in[8]
*67 io_in[9]
*68 io_oeb[0]
*69 io_oeb[10]
*70 io_oeb[11]
*71 io_oeb[12]
*72 io_oeb[13]
*73 io_oeb[14]
*74 io_oeb[15]
*75 io_oeb[16]
*76 io_oeb[17]
*77 io_oeb[18]
*78 io_oeb[19]
*79 io_oeb[1]
*80 io_oeb[20]
*81 io_oeb[21]
*82 io_oeb[22]
*83 io_oeb[23]
*84 io_oeb[24]
*85 io_oeb[25]
*86 io_oeb[26]
*87 io_oeb[27]
*88 io_oeb[28]
*89 io_oeb[29]
*90 io_oeb[2]
*91 io_oeb[30]
*92 io_oeb[31]
*93 io_oeb[32]
*94 io_oeb[33]
*95 io_oeb[34]
*96 io_oeb[35]
*97 io_oeb[36]
*98 io_oeb[37]
*99 io_oeb[3]
*100 io_oeb[4]
*101 io_oeb[5]
*102 io_oeb[6]
*103 io_oeb[7]
*104 io_oeb[8]
*105 io_oeb[9]
*106 io_out[0]
*107 io_out[10]
*108 io_out[11]
*109 io_out[12]
*110 io_out[13]
*111 io_out[14]
*112 io_out[15]
*113 io_out[16]
*114 io_out[17]
*115 io_out[18]
*116 io_out[19]
*117 io_out[1]
*118 io_out[20]
*119 io_out[21]
*120 io_out[22]
*121 io_out[23]
*122 io_out[24]
*123 io_out[25]
*124 io_out[26]
*125 io_out[27]
*126 io_out[28]
*127 io_out[29]
*128 io_out[2]
*129 io_out[30]
*130 io_out[31]
*131 io_out[32]
*132 io_out[33]
*133 io_out[34]
*134 io_out[35]
*135 io_out[36]
*136 io_out[37]
*137 io_out[3]
*138 io_out[4]
*139 io_out[5]
*140 io_out[6]
*141 io_out[7]
*142 io_out[8]
*143 io_out[9]
*144 la_data_in[0]
*145 la_data_in[100]
*146 la_data_in[101]
*147 la_data_in[102]
*148 la_data_in[103]
*149 la_data_in[104]
*150 la_data_in[105]
*151 la_data_in[106]
*152 la_data_in[107]
*153 la_data_in[108]
*154 la_data_in[109]
*155 la_data_in[10]
*156 la_data_in[110]
*157 la_data_in[111]
*158 la_data_in[112]
*159 la_data_in[113]
*160 la_data_in[114]
*161 la_data_in[115]
*162 la_data_in[116]
*163 la_data_in[117]
*164 la_data_in[118]
*165 la_data_in[119]
*166 la_data_in[11]
*167 la_data_in[120]
*168 la_data_in[121]
*169 la_data_in[122]
*170 la_data_in[123]
*171 la_data_in[124]
*172 la_data_in[125]
*173 la_data_in[126]
*174 la_data_in[127]
*175 la_data_in[12]
*176 la_data_in[13]
*177 la_data_in[14]
*178 la_data_in[15]
*179 la_data_in[16]
*180 la_data_in[17]
*181 la_data_in[18]
*182 la_data_in[19]
*183 la_data_in[1]
*184 la_data_in[20]
*185 la_data_in[21]
*186 la_data_in[22]
*187 la_data_in[23]
*188 la_data_in[24]
*189 la_data_in[25]
*190 la_data_in[26]
*191 la_data_in[27]
*192 la_data_in[28]
*193 la_data_in[29]
*194 la_data_in[2]
*195 la_data_in[30]
*196 la_data_in[31]
*197 la_data_in[32]
*198 la_data_in[33]
*199 la_data_in[34]
*200 la_data_in[35]
*201 la_data_in[36]
*202 la_data_in[37]
*203 la_data_in[38]
*204 la_data_in[39]
*205 la_data_in[3]
*206 la_data_in[40]
*207 la_data_in[41]
*208 la_data_in[42]
*209 la_data_in[43]
*210 la_data_in[44]
*211 la_data_in[45]
*212 la_data_in[46]
*213 la_data_in[47]
*214 la_data_in[48]
*215 la_data_in[49]
*216 la_data_in[4]
*217 la_data_in[50]
*218 la_data_in[51]
*219 la_data_in[52]
*220 la_data_in[53]
*221 la_data_in[54]
*222 la_data_in[55]
*223 la_data_in[56]
*224 la_data_in[57]
*225 la_data_in[58]
*226 la_data_in[59]
*227 la_data_in[5]
*228 la_data_in[60]
*229 la_data_in[61]
*230 la_data_in[62]
*231 la_data_in[63]
*232 la_data_in[64]
*233 la_data_in[65]
*234 la_data_in[66]
*235 la_data_in[67]
*236 la_data_in[68]
*237 la_data_in[69]
*238 la_data_in[6]
*239 la_data_in[70]
*240 la_data_in[71]
*241 la_data_in[72]
*242 la_data_in[73]
*243 la_data_in[74]
*244 la_data_in[75]
*245 la_data_in[76]
*246 la_data_in[77]
*247 la_data_in[78]
*248 la_data_in[79]
*249 la_data_in[7]
*250 la_data_in[80]
*251 la_data_in[81]
*252 la_data_in[82]
*253 la_data_in[83]
*254 la_data_in[84]
*255 la_data_in[85]
*256 la_data_in[86]
*257 la_data_in[87]
*258 la_data_in[88]
*259 la_data_in[89]
*260 la_data_in[8]
*261 la_data_in[90]
*262 la_data_in[91]
*263 la_data_in[92]
*264 la_data_in[93]
*265 la_data_in[94]
*266 la_data_in[95]
*267 la_data_in[96]
*268 la_data_in[97]
*269 la_data_in[98]
*270 la_data_in[99]
*271 la_data_in[9]
*272 la_data_out[0]
*273 la_data_out[100]
*274 la_data_out[101]
*275 la_data_out[102]
*276 la_data_out[103]
*277 la_data_out[104]
*278 la_data_out[105]
*279 la_data_out[106]
*280 la_data_out[107]
*281 la_data_out[108]
*282 la_data_out[109]
*283 la_data_out[10]
*284 la_data_out[110]
*285 la_data_out[111]
*286 la_data_out[112]
*287 la_data_out[113]
*288 la_data_out[114]
*289 la_data_out[115]
*290 la_data_out[116]
*291 la_data_out[117]
*292 la_data_out[118]
*293 la_data_out[119]
*294 la_data_out[11]
*295 la_data_out[120]
*296 la_data_out[121]
*297 la_data_out[122]
*298 la_data_out[123]
*299 la_data_out[124]
*300 la_data_out[125]
*301 la_data_out[126]
*302 la_data_out[127]
*303 la_data_out[12]
*304 la_data_out[13]
*305 la_data_out[14]
*306 la_data_out[15]
*307 la_data_out[16]
*308 la_data_out[17]
*309 la_data_out[18]
*310 la_data_out[19]
*311 la_data_out[1]
*312 la_data_out[20]
*313 la_data_out[21]
*314 la_data_out[22]
*315 la_data_out[23]
*316 la_data_out[24]
*317 la_data_out[25]
*318 la_data_out[26]
*319 la_data_out[27]
*320 la_data_out[28]
*321 la_data_out[29]
*322 la_data_out[2]
*323 la_data_out[30]
*324 la_data_out[31]
*325 la_data_out[32]
*326 la_data_out[33]
*327 la_data_out[34]
*328 la_data_out[35]
*329 la_data_out[36]
*330 la_data_out[37]
*331 la_data_out[38]
*332 la_data_out[39]
*333 la_data_out[3]
*334 la_data_out[40]
*335 la_data_out[41]
*336 la_data_out[42]
*337 la_data_out[43]
*338 la_data_out[44]
*339 la_data_out[45]
*340 la_data_out[46]
*341 la_data_out[47]
*342 la_data_out[48]
*343 la_data_out[49]
*344 la_data_out[4]
*345 la_data_out[50]
*346 la_data_out[51]
*347 la_data_out[52]
*348 la_data_out[53]
*349 la_data_out[54]
*350 la_data_out[55]
*351 la_data_out[56]
*352 la_data_out[57]
*353 la_data_out[58]
*354 la_data_out[59]
*355 la_data_out[5]
*356 la_data_out[60]
*357 la_data_out[61]
*358 la_data_out[62]
*359 la_data_out[63]
*360 la_data_out[64]
*361 la_data_out[65]
*362 la_data_out[66]
*363 la_data_out[67]
*364 la_data_out[68]
*365 la_data_out[69]
*366 la_data_out[6]
*367 la_data_out[70]
*368 la_data_out[71]
*369 la_data_out[72]
*370 la_data_out[73]
*371 la_data_out[74]
*372 la_data_out[75]
*373 la_data_out[76]
*374 la_data_out[77]
*375 la_data_out[78]
*376 la_data_out[79]
*377 la_data_out[7]
*378 la_data_out[80]
*379 la_data_out[81]
*380 la_data_out[82]
*381 la_data_out[83]
*382 la_data_out[84]
*383 la_data_out[85]
*384 la_data_out[86]
*385 la_data_out[87]
*386 la_data_out[88]
*387 la_data_out[89]
*388 la_data_out[8]
*389 la_data_out[90]
*390 la_data_out[91]
*391 la_data_out[92]
*392 la_data_out[93]
*393 la_data_out[94]
*394 la_data_out[95]
*395 la_data_out[96]
*396 la_data_out[97]
*397 la_data_out[98]
*398 la_data_out[99]
*399 la_data_out[9]
*400 la_oenb[0]
*401 la_oenb[100]
*402 la_oenb[101]
*403 la_oenb[102]
*404 la_oenb[103]
*405 la_oenb[104]
*406 la_oenb[105]
*407 la_oenb[106]
*408 la_oenb[107]
*409 la_oenb[108]
*410 la_oenb[109]
*411 la_oenb[10]
*412 la_oenb[110]
*413 la_oenb[111]
*414 la_oenb[112]
*415 la_oenb[113]
*416 la_oenb[114]
*417 la_oenb[115]
*418 la_oenb[116]
*419 la_oenb[117]
*420 la_oenb[118]
*421 la_oenb[119]
*422 la_oenb[11]
*423 la_oenb[120]
*424 la_oenb[121]
*425 la_oenb[122]
*426 la_oenb[123]
*427 la_oenb[124]
*428 la_oenb[125]
*429 la_oenb[126]
*430 la_oenb[127]
*431 la_oenb[12]
*432 la_oenb[13]
*433 la_oenb[14]
*434 la_oenb[15]
*435 la_oenb[16]
*436 la_oenb[17]
*437 la_oenb[18]
*438 la_oenb[19]
*439 la_oenb[1]
*440 la_oenb[20]
*441 la_oenb[21]
*442 la_oenb[22]
*443 la_oenb[23]
*444 la_oenb[24]
*445 la_oenb[25]
*446 la_oenb[26]
*447 la_oenb[27]
*448 la_oenb[28]
*449 la_oenb[29]
*450 la_oenb[2]
*451 la_oenb[30]
*452 la_oenb[31]
*453 la_oenb[32]
*454 la_oenb[33]
*455 la_oenb[34]
*456 la_oenb[35]
*457 la_oenb[36]
*458 la_oenb[37]
*459 la_oenb[38]
*460 la_oenb[39]
*461 la_oenb[3]
*462 la_oenb[40]
*463 la_oenb[41]
*464 la_oenb[42]
*465 la_oenb[43]
*466 la_oenb[44]
*467 la_oenb[45]
*468 la_oenb[46]
*469 la_oenb[47]
*470 la_oenb[48]
*471 la_oenb[49]
*472 la_oenb[4]
*473 la_oenb[50]
*474 la_oenb[51]
*475 la_oenb[52]
*476 la_oenb[53]
*477 la_oenb[54]
*478 la_oenb[55]
*479 la_oenb[56]
*480 la_oenb[57]
*481 la_oenb[58]
*482 la_oenb[59]
*483 la_oenb[5]
*484 la_oenb[60]
*485 la_oenb[61]
*486 la_oenb[62]
*487 la_oenb[63]
*488 la_oenb[64]
*489 la_oenb[65]
*490 la_oenb[66]
*491 la_oenb[67]
*492 la_oenb[68]
*493 la_oenb[69]
*494 la_oenb[6]
*495 la_oenb[70]
*496 la_oenb[71]
*497 la_oenb[72]
*498 la_oenb[73]
*499 la_oenb[74]
*500 la_oenb[75]
*501 la_oenb[76]
*502 la_oenb[77]
*503 la_oenb[78]
*504 la_oenb[79]
*505 la_oenb[7]
*506 la_oenb[80]
*507 la_oenb[81]
*508 la_oenb[82]
*509 la_oenb[83]
*510 la_oenb[84]
*511 la_oenb[85]
*512 la_oenb[86]
*513 la_oenb[87]
*514 la_oenb[88]
*515 la_oenb[89]
*516 la_oenb[8]
*517 la_oenb[90]
*518 la_oenb[91]
*519 la_oenb[92]
*520 la_oenb[93]
*521 la_oenb[94]
*522 la_oenb[95]
*523 la_oenb[96]
*524 la_oenb[97]
*525 la_oenb[98]
*526 la_oenb[99]
*527 la_oenb[9]
*528 user_clock2
*529 user_irq[0]
*530 user_irq[1]
*531 user_irq[2]
*540 wb_clk_i
*541 wb_rst_i
*542 wbs_ack_o
*543 wbs_adr_i[0]
*544 wbs_adr_i[10]
*545 wbs_adr_i[11]
*546 wbs_adr_i[12]
*547 wbs_adr_i[13]
*548 wbs_adr_i[14]
*549 wbs_adr_i[15]
*550 wbs_adr_i[16]
*551 wbs_adr_i[17]
*552 wbs_adr_i[18]
*553 wbs_adr_i[19]
*554 wbs_adr_i[1]
*555 wbs_adr_i[20]
*556 wbs_adr_i[21]
*557 wbs_adr_i[22]
*558 wbs_adr_i[23]
*559 wbs_adr_i[24]
*560 wbs_adr_i[25]
*561 wbs_adr_i[26]
*562 wbs_adr_i[27]
*563 wbs_adr_i[28]
*564 wbs_adr_i[29]
*565 wbs_adr_i[2]
*566 wbs_adr_i[30]
*567 wbs_adr_i[31]
*568 wbs_adr_i[3]
*569 wbs_adr_i[4]
*570 wbs_adr_i[5]
*571 wbs_adr_i[6]
*572 wbs_adr_i[7]
*573 wbs_adr_i[8]
*574 wbs_adr_i[9]
*575 wbs_cyc_i
*576 wbs_dat_i[0]
*577 wbs_dat_i[10]
*578 wbs_dat_i[11]
*579 wbs_dat_i[12]
*580 wbs_dat_i[13]
*581 wbs_dat_i[14]
*582 wbs_dat_i[15]
*583 wbs_dat_i[16]
*584 wbs_dat_i[17]
*585 wbs_dat_i[18]
*586 wbs_dat_i[19]
*587 wbs_dat_i[1]
*588 wbs_dat_i[20]
*589 wbs_dat_i[21]
*590 wbs_dat_i[22]
*591 wbs_dat_i[23]
*592 wbs_dat_i[24]
*593 wbs_dat_i[25]
*594 wbs_dat_i[26]
*595 wbs_dat_i[27]
*596 wbs_dat_i[28]
*597 wbs_dat_i[29]
*598 wbs_dat_i[2]
*599 wbs_dat_i[30]
*600 wbs_dat_i[31]
*601 wbs_dat_i[3]
*602 wbs_dat_i[4]
*603 wbs_dat_i[5]
*604 wbs_dat_i[6]
*605 wbs_dat_i[7]
*606 wbs_dat_i[8]
*607 wbs_dat_i[9]
*608 wbs_dat_o[0]
*609 wbs_dat_o[10]
*610 wbs_dat_o[11]
*611 wbs_dat_o[12]
*612 wbs_dat_o[13]
*613 wbs_dat_o[14]
*614 wbs_dat_o[15]
*615 wbs_dat_o[16]
*616 wbs_dat_o[17]
*617 wbs_dat_o[18]
*618 wbs_dat_o[19]
*619 wbs_dat_o[1]
*620 wbs_dat_o[20]
*621 wbs_dat_o[21]
*622 wbs_dat_o[22]
*623 wbs_dat_o[23]
*624 wbs_dat_o[24]
*625 wbs_dat_o[25]
*626 wbs_dat_o[26]
*627 wbs_dat_o[27]
*628 wbs_dat_o[28]
*629 wbs_dat_o[29]
*630 wbs_dat_o[2]
*631 wbs_dat_o[30]
*632 wbs_dat_o[31]
*633 wbs_dat_o[3]
*634 wbs_dat_o[4]
*635 wbs_dat_o[5]
*636 wbs_dat_o[6]
*637 wbs_dat_o[7]
*638 wbs_dat_o[8]
*639 wbs_dat_o[9]
*640 wbs_sel_i[0]
*641 wbs_sel_i[1]
*642 wbs_sel_i[2]
*643 wbs_sel_i[3]
*644 wbs_stb_i
*645 wbs_we_i
*646 afe_chopclk
*647 afe_dout\[0\]
*648 afe_dout\[1\]
*649 afe_dout\[2\]
*650 afe_dout\[3\]
*651 afe_dout\[4\]
*652 afe_dout\[5\]
*653 afe_dout\[6\]
*654 afe_dout\[7\]
*655 afe_ibias
*656 afe_nbias
*657 afe_out1
*658 afe_ov_one
*659 afe_ov_zero
*660 afe_scanout
*661 afe_test\[0\]
*662 afe_test\[1\]
*663 afe_test\[2\]
*664 afe_test\[3\]
*665 afe_test\[4\]
*666 afe_test\[5\]
*667 afe_test\[6\]
*668 afe_test\[7\]
*669 afe_test_dig
*670 afe_vref
*671 analog_ctrl\[0\]
*672 analog_ctrl\[100\]
*673 analog_ctrl\[101\]
*674 analog_ctrl\[102\]
*675 analog_ctrl\[103\]
*676 analog_ctrl\[104\]
*677 analog_ctrl\[105\]
*678 analog_ctrl\[106\]
*679 analog_ctrl\[107\]
*680 analog_ctrl\[108\]
*681 analog_ctrl\[109\]
*682 analog_ctrl\[10\]
*683 analog_ctrl\[110\]
*684 analog_ctrl\[111\]
*685 analog_ctrl\[112\]
*686 analog_ctrl\[113\]
*687 analog_ctrl\[114\]
*688 analog_ctrl\[115\]
*689 analog_ctrl\[116\]
*690 analog_ctrl\[117\]
*691 analog_ctrl\[118\]
*692 analog_ctrl\[119\]
*693 analog_ctrl\[11\]
*694 analog_ctrl\[120\]
*695 analog_ctrl\[121\]
*696 analog_ctrl\[122\]
*697 analog_ctrl\[123\]
*698 analog_ctrl\[124\]
*699 analog_ctrl\[125\]
*700 analog_ctrl\[126\]
*701 analog_ctrl\[127\]
*702 analog_ctrl\[128\]
*703 analog_ctrl\[129\]
*704 analog_ctrl\[12\]
*705 analog_ctrl\[130\]
*706 analog_ctrl\[131\]
*707 analog_ctrl\[132\]
*708 analog_ctrl\[133\]
*709 analog_ctrl\[134\]
*710 analog_ctrl\[135\]
*711 analog_ctrl\[136\]
*712 analog_ctrl\[137\]
*713 analog_ctrl\[138\]
*714 analog_ctrl\[139\]
*715 analog_ctrl\[13\]
*716 analog_ctrl\[140\]
*717 analog_ctrl\[141\]
*718 analog_ctrl\[142\]
*719 analog_ctrl\[143\]
*720 analog_ctrl\[144\]
*721 analog_ctrl\[145\]
*722 analog_ctrl\[146\]
*723 analog_ctrl\[147\]
*724 analog_ctrl\[148\]
*725 analog_ctrl\[149\]
*726 analog_ctrl\[14\]
*727 analog_ctrl\[150\]
*728 analog_ctrl\[151\]
*729 analog_ctrl\[152\]
*730 analog_ctrl\[153\]
*731 analog_ctrl\[154\]
*732 analog_ctrl\[155\]
*733 analog_ctrl\[156\]
*734 analog_ctrl\[157\]
*735 analog_ctrl\[158\]
*736 analog_ctrl\[159\]
*737 analog_ctrl\[15\]
*738 analog_ctrl\[160\]
*739 analog_ctrl\[161\]
*740 analog_ctrl\[162\]
*741 analog_ctrl\[163\]
*742 analog_ctrl\[164\]
*743 analog_ctrl\[165\]
*744 analog_ctrl\[166\]
*745 analog_ctrl\[167\]
*746 analog_ctrl\[168\]
*747 analog_ctrl\[169\]
*748 analog_ctrl\[16\]
*749 analog_ctrl\[170\]
*750 analog_ctrl\[171\]
*751 analog_ctrl\[172\]
*752 analog_ctrl\[173\]
*753 analog_ctrl\[174\]
*754 analog_ctrl\[175\]
*755 analog_ctrl\[176\]
*756 analog_ctrl\[177\]
*757 analog_ctrl\[178\]
*758 analog_ctrl\[179\]
*759 analog_ctrl\[17\]
*760 analog_ctrl\[180\]
*761 analog_ctrl\[181\]
*762 analog_ctrl\[182\]
*763 analog_ctrl\[183\]
*764 analog_ctrl\[184\]
*765 analog_ctrl\[185\]
*766 analog_ctrl\[186\]
*767 analog_ctrl\[187\]
*768 analog_ctrl\[188\]
*769 analog_ctrl\[189\]
*770 analog_ctrl\[18\]
*771 analog_ctrl\[190\]
*772 analog_ctrl\[191\]
*773 analog_ctrl\[192\]
*774 analog_ctrl\[193\]
*775 analog_ctrl\[194\]
*776 analog_ctrl\[195\]
*777 analog_ctrl\[196\]
*778 analog_ctrl\[197\]
*779 analog_ctrl\[198\]
*780 analog_ctrl\[199\]
*781 analog_ctrl\[19\]
*782 analog_ctrl\[1\]
*783 analog_ctrl\[200\]
*784 analog_ctrl\[201\]
*785 analog_ctrl\[202\]
*786 analog_ctrl\[203\]
*787 analog_ctrl\[204\]
*788 analog_ctrl\[205\]
*789 analog_ctrl\[206\]
*790 analog_ctrl\[20\]
*791 analog_ctrl\[21\]
*792 analog_ctrl\[22\]
*793 analog_ctrl\[23\]
*794 analog_ctrl\[24\]
*795 analog_ctrl\[25\]
*796 analog_ctrl\[26\]
*797 analog_ctrl\[27\]
*798 analog_ctrl\[28\]
*799 analog_ctrl\[29\]
*800 analog_ctrl\[2\]
*801 analog_ctrl\[30\]
*802 analog_ctrl\[31\]
*803 analog_ctrl\[32\]
*804 analog_ctrl\[33\]
*805 analog_ctrl\[34\]
*806 analog_ctrl\[35\]
*807 analog_ctrl\[36\]
*808 analog_ctrl\[37\]
*809 analog_ctrl\[38\]
*810 analog_ctrl\[39\]
*811 analog_ctrl\[3\]
*812 analog_ctrl\[40\]
*813 analog_ctrl\[41\]
*814 analog_ctrl\[42\]
*815 analog_ctrl\[43\]
*816 analog_ctrl\[44\]
*817 analog_ctrl\[45\]
*818 analog_ctrl\[46\]
*819 analog_ctrl\[47\]
*820 analog_ctrl\[48\]
*821 analog_ctrl\[49\]
*822 analog_ctrl\[4\]
*823 analog_ctrl\[50\]
*824 analog_ctrl\[51\]
*825 analog_ctrl\[52\]
*826 analog_ctrl\[53\]
*827 analog_ctrl\[54\]
*828 analog_ctrl\[55\]
*829 analog_ctrl\[56\]
*830 analog_ctrl\[57\]
*831 analog_ctrl\[58\]
*832 analog_ctrl\[59\]
*833 analog_ctrl\[5\]
*834 analog_ctrl\[60\]
*835 analog_ctrl\[61\]
*836 analog_ctrl\[62\]
*837 analog_ctrl\[63\]
*838 analog_ctrl\[64\]
*839 analog_ctrl\[65\]
*840 analog_ctrl\[66\]
*841 analog_ctrl\[67\]
*842 analog_ctrl\[68\]
*843 analog_ctrl\[69\]
*844 analog_ctrl\[6\]
*845 analog_ctrl\[70\]
*846 analog_ctrl\[71\]
*847 analog_ctrl\[72\]
*848 analog_ctrl\[73\]
*849 analog_ctrl\[74\]
*850 analog_ctrl\[75\]
*851 analog_ctrl\[76\]
*852 analog_ctrl\[77\]
*853 analog_ctrl\[78\]
*854 analog_ctrl\[79\]
*855 analog_ctrl\[7\]
*856 analog_ctrl\[80\]
*857 analog_ctrl\[81\]
*858 analog_ctrl\[82\]
*859 analog_ctrl\[83\]
*860 analog_ctrl\[84\]
*861 analog_ctrl\[85\]
*862 analog_ctrl\[86\]
*863 analog_ctrl\[87\]
*864 analog_ctrl\[88\]
*865 analog_ctrl\[89\]
*866 analog_ctrl\[8\]
*867 analog_ctrl\[90\]
*868 analog_ctrl\[91\]
*869 analog_ctrl\[92\]
*870 analog_ctrl\[93\]
*871 analog_ctrl\[94\]
*872 analog_ctrl\[95\]
*873 analog_ctrl\[96\]
*874 analog_ctrl\[97\]
*875 analog_ctrl\[98\]
*876 analog_ctrl\[99\]
*877 analog_ctrl\[9\]
*878 dsm_sumn
*879 dsm_sump
*880 sram_ack
*881 sram_adr\[0\]
*882 sram_adr\[10\]
*883 sram_adr\[11\]
*884 sram_adr\[12\]
*885 sram_adr\[13\]
*886 sram_adr\[14\]
*887 sram_adr\[15\]
*888 sram_adr\[16\]
*889 sram_adr\[17\]
*890 sram_adr\[18\]
*891 sram_adr\[19\]
*892 sram_adr\[1\]
*893 sram_adr\[20\]
*894 sram_adr\[21\]
*895 sram_adr\[22\]
*896 sram_adr\[23\]
*897 sram_adr\[24\]
*898 sram_adr\[25\]
*899 sram_adr\[26\]
*900 sram_adr\[27\]
*901 sram_adr\[28\]
*902 sram_adr\[29\]
*903 sram_adr\[2\]
*904 sram_adr\[30\]
*905 sram_adr\[31\]
*906 sram_adr\[3\]
*907 sram_adr\[4\]
*908 sram_adr\[5\]
*909 sram_adr\[6\]
*910 sram_adr\[7\]
*911 sram_adr\[8\]
*912 sram_adr\[9\]
*913 sram_cyc
*914 sram_rdat\[0\]
*915 sram_rdat\[10\]
*916 sram_rdat\[11\]
*917 sram_rdat\[12\]
*918 sram_rdat\[13\]
*919 sram_rdat\[14\]
*920 sram_rdat\[15\]
*921 sram_rdat\[16\]
*922 sram_rdat\[17\]
*923 sram_rdat\[18\]
*924 sram_rdat\[19\]
*925 sram_rdat\[1\]
*926 sram_rdat\[20\]
*927 sram_rdat\[21\]
*928 sram_rdat\[22\]
*929 sram_rdat\[23\]
*930 sram_rdat\[24\]
*931 sram_rdat\[25\]
*932 sram_rdat\[26\]
*933 sram_rdat\[27\]
*934 sram_rdat\[28\]
*935 sram_rdat\[29\]
*936 sram_rdat\[2\]
*937 sram_rdat\[30\]
*938 sram_rdat\[31\]
*939 sram_rdat\[3\]
*940 sram_rdat\[4\]
*941 sram_rdat\[5\]
*942 sram_rdat\[6\]
*943 sram_rdat\[7\]
*944 sram_rdat\[8\]
*945 sram_rdat\[9\]
*946 sram_sel\[0\]
*947 sram_sel\[1\]
*948 sram_sel\[2\]
*949 sram_sel\[3\]
*950 sram_stb
*951 sram_wdat\[0\]
*952 sram_wdat\[10\]
*953 sram_wdat\[11\]
*954 sram_wdat\[12\]
*955 sram_wdat\[13\]
*956 sram_wdat\[14\]
*957 sram_wdat\[15\]
*958 sram_wdat\[16\]
*959 sram_wdat\[17\]
*960 sram_wdat\[18\]
*961 sram_wdat\[19\]
*962 sram_wdat\[1\]
*963 sram_wdat\[20\]
*964 sram_wdat\[21\]
*965 sram_wdat\[22\]
*966 sram_wdat\[23\]
*967 sram_wdat\[24\]
*968 sram_wdat\[25\]
*969 sram_wdat\[26\]
*970 sram_wdat\[27\]
*971 sram_wdat\[28\]
*972 sram_wdat\[29\]
*973 sram_wdat\[2\]
*974 sram_wdat\[30\]
*975 sram_wdat\[31\]
*976 sram_wdat\[3\]
*977 sram_wdat\[4\]
*978 sram_wdat\[5\]
*979 sram_wdat\[6\]
*980 sram_wdat\[7\]
*981 sram_wdat\[8\]
*982 sram_wdat\[9\]
*983 sram_we
*984 u_cf_adc_dsm20
*985 u_cf_bgr
*986 u_cf_buf_hiz
*987 u_cf_refbuf
*988 u_soc_sys
*989 u_sram

*PORTS
analog_io[0] I
analog_io[10] I
analog_io[11] I
analog_io[12] I
analog_io[13] I
analog_io[14] I
analog_io[15] I
analog_io[16] I
analog_io[17] I
analog_io[18] I
analog_io[19] I
analog_io[1] I
analog_io[20] I
analog_io[21] I
analog_io[22] I
analog_io[23] I
analog_io[24] I
analog_io[25] I
analog_io[26] I
analog_io[27] I
analog_io[28] I
analog_io[2] I
analog_io[3] I
analog_io[4] I
analog_io[5] I
analog_io[6] I
analog_io[7] I
analog_io[8] I
analog_io[9] I
io_in[0] I
io_in[10] I
io_in[11] I
io_in[12] I
io_in[13] I
io_in[14] I
io_in[15] I
io_in[16] I
io_in[17] I
io_in[18] I
io_in[19] I
io_in[1] I
io_in[20] I
io_in[21] I
io_in[22] I
io_in[23] I
io_in[24] I
io_in[25] I
io_in[26] I
io_in[27] I
io_in[28] I
io_in[29] I
io_in[2] I
io_in[30] I
io_in[31] I
io_in[32] I
io_in[33] I
io_in[34] I
io_in[35] I
io_in[36] I
io_in[37] I
io_in[3] I
io_in[4] I
io_in[5] I
io_in[6] I
io_in[7] I
io_in[8] I
io_in[9] I
io_oeb[0] O
io_oeb[10] O
io_oeb[11] O
io_oeb[12] O
io_oeb[13] O
io_oeb[14] O
io_oeb[15] O
io_oeb[16] O
io_oeb[17] O
io_oeb[18] O
io_oeb[19] O
io_oeb[1] O
io_oeb[20] O
io_oeb[21] O
io_oeb[22] O
io_oeb[23] O
io_oeb[24] O
io_oeb[25] O
io_oeb[26] O
io_oeb[27] O
io_oeb[28] O
io_oeb[29] O
io_oeb[2] O
io_oeb[30] O
io_oeb[31] O
io_oeb[32] O
io_oeb[33] O
io_oeb[34] O
io_oeb[35] O
io_oeb[36] O
io_oeb[37] O
io_oeb[3] O
io_oeb[4] O
io_oeb[5] O
io_oeb[6] O
io_oeb[7] O
io_oeb[8] O
io_oeb[9] O
io_out[0] O
io_out[10] O
io_out[11] O
io_out[12] O
io_out[13] O
io_out[14] O
io_out[15] O
io_out[16] O
io_out[17] O
io_out[18] O
io_out[19] O
io_out[1] O
io_out[20] O
io_out[21] O
io_out[22] O
io_out[23] O
io_out[24] O
io_out[25] O
io_out[26] O
io_out[27] O
io_out[28] O
io_out[29] O
io_out[2] O
io_out[30] O
io_out[31] O
io_out[32] O
io_out[33] O
io_out[34] O
io_out[35] O
io_out[36] O
io_out[37] O
io_out[3] O
io_out[4] O
io_out[5] O
io_out[6] O
io_out[7] O
io_out[8] O
io_out[9] O
la_data_in[0] I
la_data_in[100] I
la_data_in[101] I
la_data_in[102] I
la_data_in[103] I
la_data_in[104] I
la_data_in[105] I
la_data_in[106] I
la_data_in[107] I
la_data_in[108] I
la_data_in[109] I
la_data_in[10] I
la_data_in[110] I
la_data_in[111] I
la_data_in[112] I
la_data_in[113] I
la_data_in[114] I
la_data_in[115] I
la_data_in[116] I
la_data_in[117] I
la_data_in[118] I
la_data_in[119] I
la_data_in[11] I
la_data_in[120] I
la_data_in[121] I
la_data_in[122] I
la_data_in[123] I
la_data_in[124] I
la_data_in[125] I
la_data_in[126] I
la_data_in[127] I
la_data_in[12] I
la_data_in[13] I
la_data_in[14] I
la_data_in[15] I
la_data_in[16] I
la_data_in[17] I
la_data_in[18] I
la_data_in[19] I
la_data_in[1] I
la_data_in[20] I
la_data_in[21] I
la_data_in[22] I
la_data_in[23] I
la_data_in[24] I
la_data_in[25] I
la_data_in[26] I
la_data_in[27] I
la_data_in[28] I
la_data_in[29] I
la_data_in[2] I
la_data_in[30] I
la_data_in[31] I
la_data_in[32] I
la_data_in[33] I
la_data_in[34] I
la_data_in[35] I
la_data_in[36] I
la_data_in[37] I
la_data_in[38] I
la_data_in[39] I
la_data_in[3] I
la_data_in[40] I
la_data_in[41] I
la_data_in[42] I
la_data_in[43] I
la_data_in[44] I
la_data_in[45] I
la_data_in[46] I
la_data_in[47] I
la_data_in[48] I
la_data_in[49] I
la_data_in[4] I
la_data_in[50] I
la_data_in[51] I
la_data_in[52] I
la_data_in[53] I
la_data_in[54] I
la_data_in[55] I
la_data_in[56] I
la_data_in[57] I
la_data_in[58] I
la_data_in[59] I
la_data_in[5] I
la_data_in[60] I
la_data_in[61] I
la_data_in[62] I
la_data_in[63] I
la_data_in[64] I
la_data_in[65] I
la_data_in[66] I
la_data_in[67] I
la_data_in[68] I
la_data_in[69] I
la_data_in[6] I
la_data_in[70] I
la_data_in[71] I
la_data_in[72] I
la_data_in[73] I
la_data_in[74] I
la_data_in[75] I
la_data_in[76] I
la_data_in[77] I
la_data_in[78] I
la_data_in[79] I
la_data_in[7] I
la_data_in[80] I
la_data_in[81] I
la_data_in[82] I
la_data_in[83] I
la_data_in[84] I
la_data_in[85] I
la_data_in[86] I
la_data_in[87] I
la_data_in[88] I
la_data_in[89] I
la_data_in[8] I
la_data_in[90] I
la_data_in[91] I
la_data_in[92] I
la_data_in[93] I
la_data_in[94] I
la_data_in[95] I
la_data_in[96] I
la_data_in[97] I
la_data_in[98] I
la_data_in[99] I
la_data_in[9] I
la_data_out[0] O
la_data_out[100] O
la_data_out[101] O
la_data_out[102] O
la_data_out[103] O
la_data_out[104] O
la_data_out[105] O
la_data_out[106] O
la_data_out[107] O
la_data_out[108] O
la_data_out[109] O
la_data_out[10] O
la_data_out[110] O
la_data_out[111] O
la_data_out[112] O
la_data_out[113] O
la_data_out[114] O
la_data_out[115] O
la_data_out[116] O
la_data_out[117] O
la_data_out[118] O
la_data_out[119] O
la_data_out[11] O
la_data_out[120] O
la_data_out[121] O
la_data_out[122] O
la_data_out[123] O
la_data_out[124] O
la_data_out[125] O
la_data_out[126] O
la_data_out[127] O
la_data_out[12] O
la_data_out[13] O
la_data_out[14] O
la_data_out[15] O
la_data_out[16] O
la_data_out[17] O
la_data_out[18] O
la_data_out[19] O
la_data_out[1] O
la_data_out[20] O
la_data_out[21] O
la_data_out[22] O
la_data_out[23] O
la_data_out[24] O
la_data_out[25] O
la_data_out[26] O
la_data_out[27] O
la_data_out[28] O
la_data_out[29] O
la_data_out[2] O
la_data_out[30] O
la_data_out[31] O
la_data_out[32] O
la_data_out[33] O
la_data_out[34] O
la_data_out[35] O
la_data_out[36] O
la_data_out[37] O
la_data_out[38] O
la_data_out[39] O
la_data_out[3] O
la_data_out[40] O
la_data_out[41] O
la_data_out[42] O
la_data_out[43] O
la_data_out[44] O
la_data_out[45] O
la_data_out[46] O
la_data_out[47] O
la_data_out[48] O
la_data_out[49] O
la_data_out[4] O
la_data_out[50] O
la_data_out[51] O
la_data_out[52] O
la_data_out[53] O
la_data_out[54] O
la_data_out[55] O
la_data_out[56] O
la_data_out[57] O
la_data_out[58] O
la_data_out[59] O
la_data_out[5] O
la_data_out[60] O
la_data_out[61] O
la_data_out[62] O
la_data_out[63] O
la_data_out[64] O
la_data_out[65] O
la_data_out[66] O
la_data_out[67] O
la_data_out[68] O
la_data_out[69] O
la_data_out[6] O
la_data_out[70] O
la_data_out[71] O
la_data_out[72] O
la_data_out[73] O
la_data_out[74] O
la_data_out[75] O
la_data_out[76] O
la_data_out[77] O
la_data_out[78] O
la_data_out[79] O
la_data_out[7] O
la_data_out[80] O
la_data_out[81] O
la_data_out[82] O
la_data_out[83] O
la_data_out[84] O
la_data_out[85] O
la_data_out[86] O
la_data_out[87] O
la_data_out[88] O
la_data_out[89] O
la_data_out[8] O
la_data_out[90] O
la_data_out[91] O
la_data_out[92] O
la_data_out[93] O
la_data_out[94] O
la_data_out[95] O
la_data_out[96] O
la_data_out[97] O
la_data_out[98] O
la_data_out[99] O
la_data_out[9] O
la_oenb[0] I
la_oenb[100] I
la_oenb[101] I
la_oenb[102] I
la_oenb[103] I
la_oenb[104] I
la_oenb[105] I
la_oenb[106] I
la_oenb[107] I
la_oenb[108] I
la_oenb[109] I
la_oenb[10] I
la_oenb[110] I
la_oenb[111] I
la_oenb[112] I
la_oenb[113] I
la_oenb[114] I
la_oenb[115] I
la_oenb[116] I
la_oenb[117] I
la_oenb[118] I
la_oenb[119] I
la_oenb[11] I
la_oenb[120] I
la_oenb[121] I
la_oenb[122] I
la_oenb[123] I
la_oenb[124] I
la_oenb[125] I
la_oenb[126] I
la_oenb[127] I
la_oenb[12] I
la_oenb[13] I
la_oenb[14] I
la_oenb[15] I
la_oenb[16] I
la_oenb[17] I
la_oenb[18] I
la_oenb[19] I
la_oenb[1] I
la_oenb[20] I
la_oenb[21] I
la_oenb[22] I
la_oenb[23] I
la_oenb[24] I
la_oenb[25] I
la_oenb[26] I
la_oenb[27] I
la_oenb[28] I
la_oenb[29] I
la_oenb[2] I
la_oenb[30] I
la_oenb[31] I
la_oenb[32] I
la_oenb[33] I
la_oenb[34] I
la_oenb[35] I
la_oenb[36] I
la_oenb[37] I
la_oenb[38] I
la_oenb[39] I
la_oenb[3] I
la_oenb[40] I
la_oenb[41] I
la_oenb[42] I
la_oenb[43] I
la_oenb[44] I
la_oenb[45] I
la_oenb[46] I
la_oenb[47] I
la_oenb[48] I
la_oenb[49] I
la_oenb[4] I
la_oenb[50] I
la_oenb[51] I
la_oenb[52] I
la_oenb[53] I
la_oenb[54] I
la_oenb[55] I
la_oenb[56] I
la_oenb[57] I
la_oenb[58] I
la_oenb[59] I
la_oenb[5] I
la_oenb[60] I
la_oenb[61] I
la_oenb[62] I
la_oenb[63] I
la_oenb[64] I
la_oenb[65] I
la_oenb[66] I
la_oenb[67] I
la_oenb[68] I
la_oenb[69] I
la_oenb[6] I
la_oenb[70] I
la_oenb[71] I
la_oenb[72] I
la_oenb[73] I
la_oenb[74] I
la_oenb[75] I
la_oenb[76] I
la_oenb[77] I
la_oenb[78] I
la_oenb[79] I
la_oenb[7] I
la_oenb[80] I
la_oenb[81] I
la_oenb[82] I
la_oenb[83] I
la_oenb[84] I
la_oenb[85] I
la_oenb[86] I
la_oenb[87] I
la_oenb[88] I
la_oenb[89] I
la_oenb[8] I
la_oenb[90] I
la_oenb[91] I
la_oenb[92] I
la_oenb[93] I
la_oenb[94] I
la_oenb[95] I
la_oenb[96] I
la_oenb[97] I
la_oenb[98] I
la_oenb[99] I
la_oenb[9] I
user_clock2 I
user_irq[0] O
user_irq[1] O
user_irq[2] O
wb_clk_i I
wb_rst_i I
wbs_ack_o O
wbs_adr_i[0] I
wbs_adr_i[10] I
wbs_adr_i[11] I
wbs_adr_i[12] I
wbs_adr_i[13] I
wbs_adr_i[14] I
wbs_adr_i[15] I
wbs_adr_i[16] I
wbs_adr_i[17] I
wbs_adr_i[18] I
wbs_adr_i[19] I
wbs_adr_i[1] I
wbs_adr_i[20] I
wbs_adr_i[21] I
wbs_adr_i[22] I
wbs_adr_i[23] I
wbs_adr_i[24] I
wbs_adr_i[25] I
wbs_adr_i[26] I
wbs_adr_i[27] I
wbs_adr_i[28] I
wbs_adr_i[29] I
wbs_adr_i[2] I
wbs_adr_i[30] I
wbs_adr_i[31] I
wbs_adr_i[3] I
wbs_adr_i[4] I
wbs_adr_i[5] I
wbs_adr_i[6] I
wbs_adr_i[7] I
wbs_adr_i[8] I
wbs_adr_i[9] I
wbs_cyc_i I
wbs_dat_i[0] I
wbs_dat_i[10] I
wbs_dat_i[11] I
wbs_dat_i[12] I
wbs_dat_i[13] I
wbs_dat_i[14] I
wbs_dat_i[15] I
wbs_dat_i[16] I
wbs_dat_i[17] I
wbs_dat_i[18] I
wbs_dat_i[19] I
wbs_dat_i[1] I
wbs_dat_i[20] I
wbs_dat_i[21] I
wbs_dat_i[22] I
wbs_dat_i[23] I
wbs_dat_i[24] I
wbs_dat_i[25] I
wbs_dat_i[26] I
wbs_dat_i[27] I
wbs_dat_i[28] I
wbs_dat_i[29] I
wbs_dat_i[2] I
wbs_dat_i[30] I
wbs_dat_i[31] I
wbs_dat_i[3] I
wbs_dat_i[4] I
wbs_dat_i[5] I
wbs_dat_i[6] I
wbs_dat_i[7] I
wbs_dat_i[8] I
wbs_dat_i[9] I
wbs_dat_o[0] O
wbs_dat_o[10] O
wbs_dat_o[11] O
wbs_dat_o[12] O
wbs_dat_o[13] O
wbs_dat_o[14] O
wbs_dat_o[15] O
wbs_dat_o[16] O
wbs_dat_o[17] O
wbs_dat_o[18] O
wbs_dat_o[19] O
wbs_dat_o[1] O
wbs_dat_o[20] O
wbs_dat_o[21] O
wbs_dat_o[22] O
wbs_dat_o[23] O
wbs_dat_o[24] O
wbs_dat_o[25] O
wbs_dat_o[26] O
wbs_dat_o[27] O
wbs_dat_o[28] O
wbs_dat_o[29] O
wbs_dat_o[2] O
wbs_dat_o[30] O
wbs_dat_o[31] O
wbs_dat_o[3] O
wbs_dat_o[4] O
wbs_dat_o[5] O
wbs_dat_o[6] O
wbs_dat_o[7] O
wbs_dat_o[8] O
wbs_dat_o[9] O
wbs_sel_i[0] I
wbs_sel_i[1] I
wbs_sel_i[2] I
wbs_sel_i[3] I
wbs_stb_i I
wbs_we_i I

*D_NET *1 0.316069
*CONN
*P analog_io[0] I
*I *985:vb2_fast I *D CF_BGR
*CAP
1 analog_io[0] 0.0579798
2 *985:vb2_fast 0.000118582
3 *1:17 0.0251143
4 *1:15 0.0249957
5 *1:13 0.0674918
6 *1:11 0.0674918
7 *1:9 0.00701552
8 *1:7 0.00701552
9 *1:5 0.0579798
10 *1:13 *54:13 0.000866359
11 *1:17 *867:13 0
*RES
1 analog_io[0] *1:5 152.415 
2 *1:5 *1:7 0.5 
3 *1:7 *1:9 127.605 
4 *1:9 *1:11 0.5 
5 *1:11 *1:13 177.547 
6 *1:13 *1:15 0.5 
7 *1:15 *1:17 67.1359 
8 *1:17 *985:vb2_fast 4.29338 
*END

*D_NET *12 0.0997821
*CONN
*P analog_io[1] I
*I *986:vinp1 I *D CF_BUF_HIZ
*CAP
1 analog_io[1] 0.0205648
2 *986:vinp1 3.48835e-05
3 *12:9 0.0269486
4 *12:7 0.0269137
5 *12:5 0.0205648
6 *12:9 *23:9 0.00475532
*RES
1 analog_io[1] *12:5 50.5945 
2 *12:5 *12:7 0.5 
3 *12:7 *12:9 79.2807 
4 *12:9 *986:vinp1 1.06713 
*END

*D_NET *13 0.361604
*CONN
*P analog_io[20] I
*I *984:INN I *D CF_ADC_DSM20
*I *984:COMBUF_INN I *D CF_ADC_DSM20
*I *984:PBUF_INN I *D CF_ADC_DSM20
*I *986:out2 O *D CF_BUF_HIZ
*CAP
1 analog_io[20] 0.00185654
2 *984:INN 3.25158e-05
3 *984:COMBUF_INN 0.00269337
4 *984:PBUF_INN 0.000812414
5 *986:out2 7.86776e-05
6 *13:68 0.0315404
7 *13:66 0.0296838
8 *13:64 0.0416764
9 *13:62 0.0429757
10 *13:56 0.00427232
11 *13:31 0.00581609
12 *13:29 0.00559928
13 *13:25 0.00163621
14 *13:19 0.00968073
15 *13:17 0.00839298
16 *13:15 0.00491545
17 *13:13 0.00491545
18 *13:11 0.0504379
19 *13:9 0.0505166
20 *984:PBUF_INN *984:VREFQ 9.49882e-05
21 *984:PBUF_INN *984:PBUF_INP 0.00125843
22 *984:PBUF_INN *737:15 0.000132748
23 *984:COMBUF_INN *984:COMBUF_INP 8.81051e-05
24 *13:15 *749:10 0.00394278
25 *13:25 *984:INP 0
26 *13:31 *984:PBUF_INP 0
27 *13:31 *657:24 0.0134381
28 *13:62 *696:20 0.000162895
29 *13:64 *15:14 0.0449531
*RES
1 *986:out2 *13:9 1.8575 
2 *13:9 *13:11 128.807 
3 *13:11 *13:13 0.5 
4 *13:13 *13:15 88.9725 
5 *13:15 *13:17 2 
6 *13:17 *13:19 142.417 
7 *13:19 *13:25 21.7575 
8 *13:25 *13:29 12.455 
9 *13:29 *13:31 152.212 
10 *13:31 *984:PBUF_INN 21.915 
11 *984:PBUF_INN *13:56 7.025 
12 *13:56 *13:62 4.3592 
13 *13:62 *13:64 909.945 
14 *13:64 *13:66 0.5 
15 *13:66 *13:68 77.387 
16 *13:68 analog_io[20] 4.46247 
17 *13:56 *984:COMBUF_INN 11.7177 
18 *13:25 *984:INN 0.5625 
*END

*D_NET *14 0.346824
*CONN
*P analog_io[21] I
*I *986:vcm I *D CF_BUF_HIZ
*I *984:VCM I *D CF_ADC_DSM20
*CAP
1 analog_io[21] 0.00186782
2 *986:vcm 0.000594903
3 *984:VCM 0.000126216
4 *14:41 0.00517816
5 *14:39 0.00458326
6 *14:37 0.0844821
7 *14:19 0.0895007
8 *14:15 0.0533953
9 *14:13 0.0485029
10 *14:11 0.0252828
11 *14:9 0.0271506
12 *984:VCM *695:5 1.00941e-05
13 *984:VCM *698:13 1.79536e-05
14 *986:vcm *656:50 0.000479364
15 *14:37 *984:dig_test_sel[1] 0
16 *14:37 *663:20 0.00525177
17 *14:41 *23:19 0.000399616
*RES
1 analog_io[21] *14:9 4.46247 
2 *14:9 *14:11 66.025 
3 *14:11 *14:13 0.5 
4 *14:13 *14:15 880.875 
5 *14:15 *14:19 13.0071 
6 *14:19 *984:VCM 4.5025 
7 *14:19 *14:37 228.851 
8 *14:37 *14:39 0.5 
9 *14:39 *14:41 84.6375 
10 *14:41 *986:vcm 14.11 
*END

*D_NET *15 0.298966
*CONN
*P analog_io[22] I
*I *984:refout O *D CF_ADC_DSM20
*CAP
1 analog_io[22] 0.00190782
2 *984:refout 4.29999e-05
3 *15:18 0.031699
4 *15:16 0.0297912
5 *15:14 0.0200098
6 *15:12 0.0200098
7 *15:10 0.0365837
8 *15:8 0.0366267
9 *15:8 *984:vpwr_cp 9.88524e-06
10 *15:10 *984:vpwr_cp 0.00840889
11 *15:10 *20:23 0.024817
12 *15:14 *655:14 0.0441061
13 *13:64 *15:14 0.0449531
*RES
1 *984:refout *15:8 0.6482 
2 *15:8 *15:10 112.289 
3 *15:10 *15:12 0.5 
4 *15:12 *15:14 708.495 
5 *15:14 *15:16 0.5 
6 *15:16 *15:18 77.4453 
7 *15:18 analog_io[22] 4.46247 
*END

*D_NET *17 0.031874
*CONN
*P analog_io[24] I
*I *985:dft_curr_in I *D CF_BGR
*CAP
1 analog_io[24] 0.00100298
2 *985:dft_curr_in 0.00424614
3 *17:11 0.014934
4 *17:9 0.0116909
5 *17:11 *51:19 0
*RES
1 analog_io[24] *17:9 2.65333 
2 *17:9 *17:11 194.415 
3 *17:11 *985:dft_curr_in 12.707 
*END

*D_NET *18 0.212303
*CONN
*P analog_io[25] I
*I *984:vpwrd_int I *D CF_ADC_DSM20
*I *984:vpwr_ext I *D CF_ADC_DSM20
*I *984:vpwr_int I *D CF_ADC_DSM20
*CAP
1 analog_io[25] 0.00198284
2 *984:vpwrd_int 0.00164619
3 *984:vpwr_ext 0.0023468
4 *984:vpwr_int 3.48835e-05
5 *18:34 0.00411133
6 *18:32 0.00341071
7 *18:30 0.0324956
8 *18:19 0.0132754
9 *18:17 0.0132405
10 *18:15 0.035246
11 *18:11 0.0318777
12 *18:9 0.0311101
13 *984:vpwr_ext *984:FCAP3[0] 0.000561154
14 *984:vpwr_ext *716:45 4.75184e-05
15 *984:vpwr_ext *747:14 0.00179964
16 *984:vpwr_ext *785:22 0.000139198
17 *984:vpwrd_int *984:IPCAP1[4] 0.00235983
18 *984:vpwrd_int *984:FCAP1EN 0.00266021
19 *984:vpwrd_int *716:45 0.00258086
20 *18:19 *688:13 0
21 *18:19 *697:10 0.0300206
22 *18:30 *984:iso 0.00135642
23 *18:30 *693:17 0
24 *18:34 *728:26 0
*RES
1 analog_io[25] *18:9 4.46247 
2 *18:9 *18:11 73.454 
3 *18:11 *18:15 7.03253 
4 *18:15 *18:17 0.5 
5 *18:17 *18:19 54.9911 
6 *18:19 *984:vpwr_int 1.06713 
7 *18:15 *18:30 84.8451 
8 *18:30 *18:32 0.5 
9 *18:32 *18:34 59.775 
10 *18:34 *984:vpwr_ext 8.81403 
11 *984:vpwr_ext *984:vpwrd_int 15.8817 
*END

*D_NET *19 0.204404
*CONN
*P analog_io[26] I
*I *984:vgnde_vnb I *D CF_ADC_DSM20
*I *984:vgnde I *D CF_ADC_DSM20
*I *984:vgndd_vnb I *D CF_ADC_DSM20
*I *984:VGND_DAC I *D CF_ADC_DSM20
*CAP
1 analog_io[26] 0.010254
2 *984:vgnde_vnb 2.80914e-05
3 *984:vgnde 0.00177925
4 *984:vgndd_vnb 0.00173652
5 *984:VGND_DAC 0.0303387
6 *19:91 0.00394278
7 *19:54 0.00417032
8 *19:46 0.00899214
9 *19:44 0.00891837
10 *19:34 0.0304865
11 *19:19 0.0238277
12 *19:17 0.0238072
13 *19:15 0.0133123
14 *19:13 0.0235663
15 *984:vgndd_vnb *984:SCANMODE 0
16 *984:vgndd_vnb *653:13 0.000207189
17 *984:VGND_DAC *657:24 4.18203e-05
18 *19:15 *81:48 0.00999583
19 *19:19 *984:VREFQ 0
20 *19:19 *737:9 0
21 *19:34 *984:vpwr_cp_dc 0.000139943
22 *19:34 *651:8 0.00116189
23 *19:44 *772:21 0
24 *19:46 *651:8 0.00739782
25 *19:54 *653:13 0
26 *19:91 *651:8 0.000299561
27 *19:91 *652:13 0
*RES
1 analog_io[26] *19:13 25.5395 
2 *19:13 *19:15 242.355 
3 *19:15 *19:17 0.5 
4 *19:17 *19:19 60.2857 
5 *19:19 *984:VGND_DAC 2.9875 
6 *984:VGND_DAC *19:34 507.547 
7 *19:34 *19:44 6.64 
8 *19:44 *19:46 150.87 
9 *19:46 *19:54 7.975 
10 *19:54 *984:vgndd_vnb 21.6057 
11 *19:54 *19:91 43.26 
12 *19:91 *984:vgnde 31.8 
13 *984:vgnde *984:vgnde_vnb 0.51 
*END

*D_NET *20 0.262745
*CONN
*P analog_io[27] I
*I *984:vpwr_cp_dc I *D CF_ADC_DSM20
*I *984:vpwr_cp I *D CF_ADC_DSM20
*CAP
1 analog_io[27] 0.00203386
2 *984:vpwr_cp_dc 0.000126643
3 *984:vpwr_cp 0.00768497
4 *20:34 0.00660077
5 *20:23 0.0241134
6 *20:17 0.022908
7 *20:11 0.0671308
8 *20:9 0.056211
9 *984:vpwr_cp *669:12 0
10 *20:11 *683:11 0
11 *20:11 *798:9 0
12 *20:11 *802:9 0
13 *20:11 *826:9 0.0242064
14 *20:17 *785:10 0.00975796
15 *20:17 *812:13 0
16 *20:23 *658:14 0
17 *20:23 *772:21 7.85736e-05
18 *20:34 *772:21 0.00851659
19 *15:8 *984:vpwr_cp 9.88524e-06
20 *15:10 *984:vpwr_cp 0.00840889
21 *15:10 *20:23 0.024817
22 *19:34 *984:vpwr_cp_dc 0.000139943
*RES
1 analog_io[27] *20:9 4.46247 
2 *20:9 *20:11 130.672 
3 *20:11 *20:17 46.4303 
4 *20:17 *20:23 39.4345 
5 *20:23 *984:vpwr_cp 27.3163 
6 *20:23 *20:34 167.258 
7 *20:34 *984:vpwr_cp_dc 4.8125 
*END

*D_NET *22 0.175796
*CONN
*P analog_io[2] I
*I *986:vinp2 I *D CF_BUF_HIZ
*CAP
1 analog_io[2] 0.0338819
2 *986:vinp2 0.0129802
3 *22:9 0.0540163
4 *22:7 0.041036
5 *22:5 0.0338819
*RES
1 analog_io[2] *22:5 88.7009 
2 *22:5 *22:7 0.5 
3 *22:7 *22:9 111.322 
4 *22:9 *986:vinp2 37.369 
*END

*D_NET *23 0.20355
*CONN
*P analog_io[3] I
*I *986:vpwr_acore I *D CF_BUF_HIZ
*I *986:vpwr_core I *D CF_BUF_HIZ
*CAP
1 analog_io[3] 0.0194755
2 *986:vpwr_acore 4.89338e-05
3 *986:vpwr_core 0.0165397
4 *23:19 0.0258495
5 *23:17 0.0108674
6 *23:13 0.00237201
7 *23:9 0.0479523
8 *23:7 0.0471868
9 *23:5 0.0194755
10 *986:vpwr_core *986:disable_n 0.000542914
11 *986:vpwr_core *986:gain[0] 0
12 *986:vpwr_core *986:gain[1] 0
13 *986:vpwr_core *986:vgnd_core 0.00655364
14 *986:vpwr_core *112:55 0
15 *986:vpwr_core *811:9 0
16 *986:vpwr_core *844:9 0.00103015
17 *23:13 *986:bypass_p 8.26224e-06
18 *23:13 *655:41 0
19 *23:17 *655:41 0
20 *23:17 *657:6 0.000492749
21 *12:9 *23:9 0.00475532
22 *14:41 *23:19 0.000399616
*RES
1 analog_io[3] *23:5 51.0606 
2 *23:5 *23:7 0.5 
3 *23:7 *23:9 134.492 
4 *23:9 *23:13 2.66473 
5 *23:13 *23:17 5.37413 
6 *23:17 *23:19 170.955 
7 *23:19 *986:vpwr_core 48.9332 
8 *23:13 *986:vpwr_acore 1.3175 
*END

*D_NET *24 0.216536
*CONN
*P analog_io[4] I
*I *986:vpwrb I *D CF_BUF_HIZ
*I *986:vpwrb_clk I *D CF_BUF_HIZ
*CAP
1 analog_io[4] 0.029341
2 *986:vpwrb 0.000291034
3 *986:vpwrb_clk 0.00736758
4 *24:9 0.0786361
5 *24:7 0.0715595
6 *24:5 0.029341
*RES
1 analog_io[4] *24:5 77.2806 
2 *24:5 *24:7 0.5 
3 *24:7 *24:9 194.441 
4 *24:9 *986:vpwrb_clk 27.8091 
5 *986:vpwrb_clk *986:vpwrb 5.37 
*END

*D_NET *25 0.24736
*CONN
*P analog_io[5] I
*I *986:vgnd1 I *D CF_BUF_HIZ
*CAP
1 analog_io[5] 0.0330953
2 *986:vgnd1 0.00737166
3 *25:9 0.0905848
4 *25:7 0.0832132
5 *25:5 0.0330953
*RES
1 analog_io[5] *25:5 81.7089 
2 *25:5 *25:7 0.5 
3 *25:7 *25:9 226.31 
4 *25:9 *986:vgnd1 40.1224 
*END

*D_NET *26 0.272979
*CONN
*P analog_io[6] I
*I *986:vgnd_core I *D CF_BUF_HIZ
*CAP
1 analog_io[6] 0.0330124
2 *986:vgnd_core 0.00253604
3 *26:9 0.1002
4 *26:7 0.0976641
5 *26:5 0.0330124
6 *986:vgnd_core *112:55 0
7 *986:vpwr_core *986:vgnd_core 0.00655364
*RES
1 analog_io[6] *26:5 86.9529 
2 *26:5 *26:7 0.5 
3 *26:7 *26:9 264.209 
4 *26:9 *986:vgnd_core 10.9725 
*END

*D_NET *27 0.303546
*CONN
*P analog_io[7] I
*I *987:ch1 I *D CF_REFBUF
*I *987:ch2 I *D CF_REFBUF
*I *987:out O *D CF_REFBUF
*CAP
1 analog_io[7] 0.0932227
2 *987:ch1 0.00045793
3 *987:ch2 0.00261772
4 *987:out 0
5 *27:39 0.0932227
6 *27:37 0.0522428
7 *27:35 0.0559324
8 *27:4 0.00584942
*RES
1 *987:out *27:4 0.5 
2 *27:4 *987:ch2 6.53947 
3 *987:ch2 *987:ch1 9.9425 
4 *27:4 *27:35 11.5523 
5 *27:35 *27:37 951.765 
6 *27:37 *27:39 0.5 
7 *27:39 analog_io[7] 245.933 
*END

*D_NET *28 0.323093
*CONN
*P analog_io[8] I
*I *987:ng I *D CF_REFBUF
*I *987:vpwre I *D CF_REFBUF
*CAP
1 analog_io[8] 0.0629396
2 *987:ng 4.08978e-05
3 *987:vpwre 0.00336351
4 *28:24 0.00448125
5 *28:22 0.00444036
6 *28:13 0.00385576
7 *28:9 0.0907621
8 *28:7 0.0902699
9 *28:5 0.0629396
*RES
1 analog_io[8] *28:5 1146.02 
2 *28:5 *28:7 0.5 
3 *28:7 *28:9 238.028 
4 *28:9 *28:13 1.41233 
5 *28:13 *987:vpwre 9.6276 
6 *28:13 *28:22 0.5 
7 *28:22 *28:24 80.685 
8 *28:24 *987:ng 0.7425 
*END

*D_NET *31 0.88027
*CONN
*P io_in[10] I
*I *988:io_in[3] I *D soc_sys
*CAP
1 io_in[10] 0.00080438
2 *988:io_in[3] 0.00042222
3 *31:37 0.0014945
4 *31:35 0.00206949
5 *31:21 0.014315
6 *31:19 0.0133178
7 *31:17 0.0100798
8 *31:15 0.0100798
9 *31:13 0.0179403
10 *31:11 0.0179403
11 *31:9 0.0284756
12 *31:7 0.02928
13 *988:io_in[3] *988:io_in[2] 0
14 *988:io_in[3] *988:io_in[4] 0
15 *31:9 *32:9 0.0926251
16 *31:9 *67:9 0.00211255
17 *31:9 *109:30 0.0310036
18 *31:13 *32:13 0.134129
19 *31:13 *36:9 0.125435
20 *31:13 *39:9 0.00439715
21 *31:13 *108:29 5.062e-06
22 *31:13 *758:9 0.00147311
23 *31:13 *766:9 0.000202825
24 *31:17 *32:17 0.0529856
25 *31:17 *110:17 0.0499044
26 *31:17 *927:13 0.000351278
27 *31:21 wbs_dat_o[31] 0.000562462
28 *31:21 *988:wbs_sel_i[2] 0.00186978
29 *31:21 *988:wbs_sel_i[3] 0.000131531
30 *31:21 *32:21 0.101477
31 *31:21 *32:49 2.7441e-05
32 *31:21 *33:21 0.100483
33 *31:21 *34:21 2.30292e-05
34 *31:21 *44:43 0.00026732
35 *31:21 *54:21 0.000114997
36 *31:21 *540:25 0.000278184
37 *31:21 *540:52 0.000138165
38 *31:21 *541:59 1.55649e-05
39 *31:21 *608:23 0.00083798
40 *31:21 *621:13 0.000282169
41 *31:21 *623:13 0.00789855
42 *31:21 *625:9 0.00112013
43 *31:21 *628:15 0.000175849
44 *31:21 *631:15 0.00282846
45 *31:21 *633:11 0.000376573
46 *31:21 *634:11 0.000325871
47 *31:21 *635:11 0.000490064
48 *31:21 *636:11 0.00033529
49 *31:21 *637:11 0.000557667
50 *31:21 *639:15 0.00143651
51 *31:35 *988:wbs_stb_i 0.00195478
52 *31:35 *32:49 0.000333134
53 *31:35 *33:21 1.12578e-05
54 *31:35 *33:35 0.00166307
55 *31:35 *54:21 0.00368293
56 *31:35 *640:13 2.99518e-06
57 *31:37 *32:51 0.00485958
58 *31:37 *33:37 4.77584e-05
59 *31:37 *34:37 0.00481724
60 *31:37 *37:37 0
61 *31:37 *47:39 0
*RES
1 io_in[10] *31:7 2.29613 
2 *31:7 *31:9 1036.3 
3 *31:9 *31:11 2 
4 *31:11 *31:13 1212.44 
5 *31:13 *31:15 2 
6 *31:15 *31:17 596.55 
7 *31:17 *31:19 2 
8 *31:19 *31:21 921.945 
9 *31:21 *31:35 13.1674 
10 *31:35 *31:37 57.735 
11 *31:37 *988:io_in[3] 1.3056 
*END

*D_NET *32 0.918187
*CONN
*P io_in[11] I
*I *988:io_in[4] I *D soc_sys
*CAP
1 io_in[11] 0.000817531
2 *988:io_in[4] 0.000383788
3 *32:51 0.00148282
4 *32:49 0.00437378
5 *32:21 0.0286819
6 *32:19 0.0254071
7 *32:17 0.0195558
8 *32:15 0.0195558
9 *32:13 0.0161788
10 *32:11 0.0161788
11 *32:9 0.0175317
12 *32:7 0.0183493
13 *988:io_in[4] *988:io_in[5] 0
14 *32:9 *33:9 0.110484
15 *32:9 *67:9 0.0120217
16 *32:9 *109:30 0.0103773
17 *32:13 *33:13 1.34503e-05
18 *32:13 *34:13 3.93101e-05
19 *32:13 *35:13 0.134023
20 *32:13 *36:9 1.91597e-05
21 *32:13 *39:9 0.00777367
22 *32:13 *108:29 1.33293e-05
23 *32:13 *740:9 0.00109089
24 *32:13 *758:9 0.000473219
25 *32:17 *906:9 0.00709495
26 *32:17 *916:21 0
27 *32:17 *927:13 5.71093e-06
28 *32:21 wbs_dat_o[31] 0.00122729
29 *32:21 *988:wbs_sel_i[2] 0.00170684
30 *32:21 *988:wbs_sel_i[3] 0.000143501
31 *32:21 *42:25 0.0413387
32 *32:21 *44:43 0.000152088
33 *32:21 *54:21 0.000114997
34 *32:21 *541:59 0.000134938
35 *32:21 *608:23 0.000912612
36 *32:21 *621:13 0.000306083
37 *32:21 *623:13 0.0131812
38 *32:21 *625:9 0.00244412
39 *32:21 *628:15 0.000381504
40 *32:21 *631:15 0.00517113
41 *32:21 *633:11 0.000410841
42 *32:21 *634:11 0.000355525
43 *32:21 *635:11 0.00053466
44 *32:21 *636:11 0.000309094
45 *32:21 *637:11 0.000608414
46 *32:21 *639:15 0.00130971
47 *32:21 *928:9 0
48 *32:49 *988:wbs_stb_i 0.000345797
49 *32:49 *33:35 0.000346325
50 *32:49 *34:35 0.000364561
51 *32:49 *42:43 0.000504775
52 *32:49 *43:17 0.000469
53 *32:49 *44:43 0.00100372
54 *32:49 *45:23 0.000347928
55 *32:49 *49:31 0.000550128
56 *32:49 *119:13 0.000241453
57 *32:49 *540:15 0
58 *32:49 *608:25 1.23312e-05
59 *32:51 *34:37 0.000151052
60 *32:51 *35:25 0.00451163
61 *32:51 *37:37 0.00023131
62 *988:io_in[3] *988:io_in[4] 0
63 *31:9 *32:9 0.0926251
64 *31:13 *32:13 0.134129
65 *31:17 *32:17 0.0529856
66 *31:21 *32:21 0.101477
67 *31:21 *32:49 2.7441e-05
68 *31:35 *32:49 0.000333134
69 *31:37 *32:51 0.00485958
*RES
1 io_in[11] *32:7 2.3544 
2 *32:7 *32:9 1235.96 
3 *32:9 *32:11 2 
4 *32:11 *32:13 1212.44 
5 *32:13 *32:15 2 
6 *32:15 *32:17 596.55 
7 *32:17 *32:19 2 
8 *32:19 *32:21 920.91 
9 *32:21 *32:49 14.6763 
10 *32:49 *32:51 59.265 
11 *32:51 *988:io_in[4] 1.24733 
*END

*D_NET *33 1.00642
*CONN
*P io_in[12] I
*I *988:io_in[5] I *D soc_sys
*CAP
1 io_in[12] 0.000779935
2 *988:io_in[5] 0.000522127
3 *33:37 0.00304805
4 *33:35 0.00370188
5 *33:21 0.0142314
6 *33:19 0.0130555
7 *33:17 0.00894302
8 *33:15 0.00894302
9 *33:13 0.0163055
10 *33:11 0.0163055
11 *33:9 0.0206464
12 *33:7 0.0214263
13 *988:io_in[5] *988:io_in[6] 0
14 *33:9 *34:9 0.128307
15 *33:9 *67:9 0.0167067
16 *33:9 *109:30 0.00767257
17 *33:9 *110:25 1.07797e-05
18 *33:13 *34:13 0.135162
19 *33:13 *36:9 3.1562e-06
20 *33:13 *39:9 0.0100727
21 *33:13 *108:29 0.135239
22 *33:17 *34:17 0.0528432
23 *33:17 *108:25 0.0528441
24 *33:17 *964:9 6.54361e-06
25 *33:21 wbs_dat_o[31] 0.00298269
26 *33:21 *988:wbs_cyc_i 0.00026732
27 *33:21 *988:wbs_sel_i[1] 0.00102849
28 *33:21 *988:wbs_sel_i[2] 0.000751916
29 *33:21 *988:wbs_sel_i[3] 0.000126737
30 *33:21 *34:21 0.100497
31 *33:21 *49:31 0.000117682
32 *33:21 *608:23 0.000853392
33 *33:21 *621:13 0.000159217
34 *33:21 *623:13 0.000627694
35 *33:21 *625:9 0.00773129
36 *33:21 *627:9 0.000338088
37 *33:21 *633:11 0.000371778
38 *33:21 *634:11 0.000321076
39 *33:21 *635:11 0.000490064
40 *33:21 *636:11 0.000359513
41 *33:21 *637:11 0.000743556
42 *33:21 *638:11 0.000613645
43 *33:21 *639:15 0.000556358
44 *33:35 *988:wbs_stb_i 0.000397673
45 *33:35 *34:21 3.90495e-05
46 *33:35 *34:35 0.00240544
47 *33:35 *44:43 0.00170366
48 *33:35 *54:21 5.7289e-05
49 *33:35 *644:11 1.75432e-05
50 *33:37 *34:37 0.00303746
51 *33:37 *47:39 0
52 *988:io_in[4] *988:io_in[5] 0
53 *31:21 *33:21 0.100483
54 *31:35 *33:21 1.12578e-05
55 *31:35 *33:35 0.00166307
56 *31:37 *33:37 4.77584e-05
57 *32:9 *33:9 0.110484
58 *32:13 *33:13 1.34503e-05
59 *32:49 *33:35 0.000346325
*RES
1 io_in[12] *33:7 2.41267 
2 *33:7 *33:9 1435.63 
3 *33:9 *33:11 2 
4 *33:11 *33:13 1222.09 
5 *33:13 *33:15 2 
6 *33:15 *33:17 595.275 
7 *33:17 *33:19 2 
8 *33:19 *33:21 911.94 
9 *33:21 *33:35 29.3727 
10 *33:35 *33:37 63.345 
11 *33:37 *988:io_in[5] 1.4804 
*END

*D_NET *34 1.05069
*CONN
*P io_in[13] I
*I *988:io_in[6] I *D soc_sys
*CAP
1 io_in[13] 0.000782214
2 *988:io_in[6] 0.000450166
3 *34:37 0.00188972
4 *34:35 0.00276663
5 *34:21 0.0144063
6 *34:19 0.0130793
7 *34:17 0.00897003
8 *34:15 0.00897003
9 *34:13 0.0162932
10 *34:11 0.0162932
11 *34:9 0.0266254
12 *34:7 0.0274076
13 *988:io_in[6] *988:io_in[7] 0
14 *34:9 *67:9 0.0179636
15 *34:9 *109:30 0
16 *34:9 *110:25 0.146149
17 *34:13 *35:13 0.135051
18 *34:13 *36:9 8.73389e-06
19 *34:13 *39:9 0.0109894
20 *34:17 *35:17 0.0522803
21 *34:17 *964:9 0.000320635
22 *34:21 wbs_dat_o[31] 0.00325412
23 *34:21 *988:wbs_cyc_i 0.000153576
24 *34:21 *988:wbs_sel_i[1] 0.000942709
25 *34:21 *988:wbs_sel_i[2] 0.00069317
26 *34:21 *988:wbs_sel_i[3] 0.000145886
27 *34:21 *989:wbs_dat_i[9] 0.000102021
28 *34:21 *49:31 0.000269044
29 *34:21 *540:25 0.100626
30 *34:21 *608:23 0.00093105
31 *34:21 *621:13 0.000117682
32 *34:21 *623:13 0.000580033
33 *34:21 *625:9 0.00839274
34 *34:21 *627:9 0.000309889
35 *34:21 *633:11 0.00040561
36 *34:21 *634:11 0.00035791
37 *34:21 *635:11 0.000542276
38 *34:21 *636:11 0.000331014
39 *34:21 *637:11 0.000811219
40 *34:21 *638:11 0.000562462
41 *34:21 *639:15 0.00052073
42 *34:35 *988:wbs_cyc_i 0.000675663
43 *34:35 *43:17 0.000139511
44 *34:35 *44:43 0.000371655
45 *34:35 *49:31 0.000243536
46 *34:35 *540:25 0.000624625
47 *34:37 *35:25 0.000205149
48 *34:37 *47:39 0
49 *988:io_in[5] *988:io_in[6] 0
50 *31:21 *34:21 2.30292e-05
51 *31:37 *34:37 0.00481724
52 *32:13 *34:13 3.93101e-05
53 *32:49 *34:35 0.000364561
54 *32:51 *34:37 0.000151052
55 *33:9 *34:9 0.128307
56 *33:13 *34:13 0.135162
57 *33:17 *34:17 0.0528432
58 *33:21 *34:21 0.100497
59 *33:35 *34:21 3.90495e-05
60 *33:35 *34:35 0.00240544
61 *33:37 *34:37 0.00303746
*RES
1 io_in[13] *34:7 2.47093 
2 *34:7 *34:9 1634.78 
3 *34:9 *34:11 2 
4 *34:11 *34:13 1221.41 
5 *34:13 *34:15 2 
6 *34:15 *34:17 595.275 
7 *34:17 *34:19 2 
8 *34:19 *34:21 912.975 
9 *34:21 *34:35 32.3572 
10 *34:35 *34:37 64.875 
11 *34:37 *988:io_in[6] 1.36387 
*END

*D_NET *35 0.936862
*CONN
*P io_in[14] I
*I *988:io_in[7] I *D soc_sys
*CAP
1 io_in[14] 0.000813776
2 *988:io_in[7] 0.000345356
3 *35:25 0.00164946
4 *35:23 0.0013041
5 *35:21 0.0375727
6 *35:19 0.0375727
7 *35:17 0.0158681
8 *35:15 0.0158681
9 *35:13 0.0163061
10 *35:11 0.0163061
11 *35:9 0.0660846
12 *35:7 0.0668984
13 *988:io_in[7] *988:io_in[8] 0
14 *35:9 *67:9 0.0345173
15 *35:9 *110:25 0.150579
16 *35:13 *36:9 0.000427082
17 *35:13 *39:9 0.00843249
18 *35:13 *740:9 0.000999895
19 *35:13 *758:9 0.000516281
20 *35:13 *766:9 0.000203796
21 *35:17 *964:9 0.0219573
22 *35:21 *989:wbs_adr_i[5] 0.00507427
23 *35:21 *989:wbs_sel_i[0] 0
24 *35:21 *43:17 0
25 *35:21 *110:13 0.10776
26 *35:21 *119:13 0
27 *35:21 *936:19 3.09608e-05
28 *35:25 *37:37 0.00211291
29 *35:25 *47:39 0
30 *35:25 *66:17 0.00158956
31 *988:io_in[6] *988:io_in[7] 0
32 *32:13 *35:13 0.134023
33 *32:51 *35:25 0.00451163
34 *34:13 *35:13 0.135051
35 *34:17 *35:17 0.0522803
36 *34:37 *35:25 0.000205149
*RES
1 io_in[14] *35:7 2.58747 
2 *35:7 *35:9 1833.94 
3 *35:9 *35:11 2 
4 *35:11 *35:13 1220.37 
5 *35:13 *35:15 2 
6 *35:15 *35:17 588.773 
7 *35:17 *35:19 0.5 
8 *35:19 *35:21 160.097 
9 *35:21 *35:23 0.5 
10 *35:23 *35:25 61.305 
11 *35:25 *988:io_in[7] 1.18907 
*END

*D_NET *36 0.80349
*CONN
*P io_in[15] I
*I *988:io_in[8] I *D soc_sys
*CAP
1 io_in[15] 0.10748
2 *988:io_in[8] 0.000230059
3 *36:29 0.0017895
4 *36:27 0.00155944
5 *36:25 0.0234441
6 *36:23 0.0240007
7 *36:13 0.00980052
8 *36:11 0.0092439
9 *36:9 0.0307138
10 *36:7 0.0307138
11 *36:5 0.10748
12 *988:io_in[8] *988:io_in[9] 0
13 *36:9 *38:21 0.05314
14 *36:9 *39:9 0.00325006
15 *36:9 *758:9 0.00240323
16 *36:9 *766:9 0.000185907
17 *36:9 *808:17 1.91597e-05
18 *36:13 *38:25 0.0532848
19 *36:13 *39:13 0.0533849
20 *36:13 *40:53 0.00156328
21 *36:13 *819:13 0.0029738
22 *36:13 *895:9 0.000118234
23 *36:13 *942:52 0.00152076
24 *36:23 *989:wbs_adr_i[0] 0.000202785
25 *36:23 *930:13 4.33071e-05
26 *36:25 *988:wbs_adr_i[10] 0.0111383
27 *36:25 *988:wbs_adr_i[2] 0.00357364
28 *36:25 *989:wbs_adr_i[0] 0.00265601
29 *36:25 *40:57 0.105406
30 *36:25 *47:37 0.00204086
31 *36:25 *67:21 0.00468217
32 *36:25 *542:15 0.00178954
33 *36:25 *561:15 0.0104382
34 *36:25 *612:15 0.00422719
35 *36:29 *37:37 0.00647049
36 *36:29 *38:33 0.00651283
37 *36:29 *39:21 0.00011478
38 *988:io_in[7] *988:io_in[8] 0
39 *31:13 *36:9 0.125435
40 *32:13 *36:9 1.91597e-05
41 *33:13 *36:9 3.1562e-06
42 *34:13 *36:9 8.73389e-06
43 *35:13 *36:9 0.000427082
*RES
1 io_in[15] *36:5 1956.54 
2 *36:5 *36:7 2 
3 *36:7 *36:9 1154.13 
4 *36:9 *36:11 2 
5 *36:11 *36:13 603.435 
6 *36:13 *36:23 13.5375 
7 *36:23 *36:25 156.717 
8 *36:25 *36:27 0.5 
9 *36:27 *36:29 79.155 
10 *36:29 *988:io_in[8] 1.01427 
*END

*D_NET *37 0.714122
*CONN
*P io_in[16] I
*I *988:io_in[9] I *D soc_sys
*CAP
1 io_in[16] 0.000152795
2 *988:io_in[9] 0.000269562
3 *37:37 0.0019571
4 *37:35 0.00168754
5 *37:33 0.02011
6 *37:31 0.02011
7 *37:29 0.0187913
8 *37:27 0.0187913
9 *37:25 0.0507258
10 *37:23 0.050966
11 *37:13 0.121687
12 *37:11 0.1216
13 *988:io_in[9] *988:io_in[10] 0
14 *37:11 io_out[15] 1.00909e-05
15 *37:25 *108:29 0
16 *37:25 *720:9 0.00927829
17 *37:25 *720:19 0.000256537
18 *37:25 *771:13 0.00343627
19 *37:25 *776:11 0.000407627
20 *37:29 *38:25 0.0171785
21 *37:29 *797:13 0.000854451
22 *37:29 *819:13 0.000279836
23 *37:29 *884:9 0.000777617
24 *37:29 *895:9 0.0231177
25 *37:29 *915:21 0.0136177
26 *37:29 *942:52 0.000476635
27 *37:33 *38:29 0.10315
28 *37:33 *67:21 2.20678e-05
29 *37:33 *108:21 0.10329
30 *37:33 *928:19 3.92474e-05
31 *37:37 *38:33 0.000149226
32 *37:37 *66:17 0.00211799
33 *988:io_in[8] *988:io_in[9] 0
34 *31:37 *37:37 0
35 *32:51 *37:37 0.00023131
36 *35:25 *37:37 0.00211291
37 *36:29 *37:37 0.00647049
*RES
1 io_in[16] *37:11 3.15963 
2 *37:11 *37:13 330.704 
3 *37:13 *37:23 4.02077 
4 *37:23 *37:25 907.11 
5 *37:25 *37:27 2 
6 *37:27 *37:29 596.422 
7 *37:29 *37:31 0.5 
8 *37:31 *37:33 158.29 
9 *37:33 *37:35 0.5 
10 *37:35 *37:37 78.135 
11 *37:37 *988:io_in[9] 1.07253 
*END

*D_NET *38 0.693379
*CONN
*P io_in[17] I
*I *988:io_in[10] I *D soc_sys
*CAP
1 io_in[17] 2.68909e-05
2 *988:io_in[10] 0.000203576
3 *38:33 0.00177453
4 *38:31 0.00157096
5 *38:29 0.0248645
6 *38:27 0.0248645
7 *38:25 0.0101452
8 *38:23 0.0101452
9 *38:21 0.0120588
10 *38:19 0.0120588
11 *38:17 0.107508
12 *38:15 0.107508
13 *38:13 0.00704814
14 *38:11 0.00708454
15 *38:9 0.00379652
16 *38:7 0.00378701
17 *38:13 *114:18 0.00598634
18 *38:21 *39:9 0.00286906
19 *38:21 *766:9 0.00215759
20 *38:21 *808:17 0.0253885
21 *38:25 *797:13 0.000718474
22 *38:25 *819:13 0.000637629
23 *38:25 *895:9 0.0231601
24 *38:25 *942:52 0.0013162
25 *38:29 *67:21 0.0557638
26 *38:29 *885:19 0.000173694
27 *38:29 *928:19 0.000655834
28 *38:33 *39:21 0.000540839
29 *38:33 *66:17 0.000104921
30 *38:33 *110:9 0.00604532
31 *988:io_in[9] *988:io_in[10] 0
32 *36:9 *38:21 0.05314
33 *36:13 *38:25 0.0532848
34 *36:29 *38:33 0.00651283
35 *37:29 *38:25 0.0171785
36 *37:33 *38:29 0.10315
37 *37:37 *38:33 0.000149226
*RES
1 io_in[17] *38:7 2.435 
2 *38:7 *38:9 64.7925 
3 *38:9 *38:11 0.615 
4 *38:11 *38:13 121.717 
5 *38:13 *38:15 2 
6 *38:15 *38:17 1956.46 
7 *38:17 *38:19 2 
8 *38:19 *38:21 480.69 
9 *38:21 *38:23 2 
10 *38:23 *38:25 601.013 
11 *38:25 *38:27 0.5 
12 *38:27 *38:29 158.057 
13 *38:29 *38:31 0.5 
14 *38:31 *38:33 81.705 
15 *38:33 *988:io_in[10] 0.956 
*END

*D_NET *39 0.702945
*CONN
*P io_in[18] I
*I *988:io_in[11] I *D soc_sys
*CAP
1 io_in[18] 0.10762
2 *988:io_in[11] 0.000130615
3 *39:21 0.00343571
4 *39:19 0.00330509
5 *39:17 0.0167372
6 *39:15 0.0167372
7 *39:13 0.0216906
8 *39:11 0.0216906
9 *39:9 0.0227053
10 *39:7 0.0227053
11 *39:5 0.10762
12 *988:io_in[11] *988:io_in[12] 0
13 *39:9 *984:qlev[0] 2.47677e-05
14 *39:9 *108:29 0.00767711
15 *39:9 *715:19 0.000195254
16 *39:9 *728:22 0.000533332
17 *39:9 *732:9 0.012442
18 *39:9 *740:9 0.0069428
19 *39:9 *758:9 0.0012282
20 *39:9 *766:9 0.000374282
21 *39:13 *40:53 0.00312245
22 *39:13 *819:13 0.00266254
23 *39:13 *895:9 4.52842e-05
24 *39:13 *915:21 0
25 *39:13 *942:52 0.00251461
26 *39:17 *989:wbs_adr_i[0] 0.000104651
27 *39:17 *989:wbs_adr_i[11] 0.000222987
28 *39:17 *989:wbs_adr_i[6] 0.000532965
29 *39:17 *989:wbs_adr_i[8] 1.95664e-05
30 *39:17 *40:57 0.105905
31 *39:17 *65:25 0.104763
32 *39:17 *917:19 0.000229213
33 *39:21 *988:io_in[0] 0.000565022
34 *39:21 *49:33 0
35 *39:21 *110:9 0.00651096
36 *39:21 *542:17 0.000126941
37 *31:13 *39:9 0.00439715
38 *32:13 *39:9 0.00777367
39 *33:13 *39:9 0.0100727
40 *34:13 *39:9 0.0109894
41 *35:13 *39:9 0.00843249
42 *36:9 *39:9 0.00325006
43 *36:13 *39:13 0.0533849
44 *36:29 *39:21 0.00011478
45 *38:21 *39:9 0.00286906
46 *38:33 *39:21 0.000540839
*RES
1 io_in[18] *39:5 1957.94 
2 *39:5 *39:7 0.5 
3 *39:7 *39:9 71.706 
4 *39:9 *39:11 0.5 
5 *39:11 *39:13 603.945 
6 *39:13 *39:15 0.5 
7 *39:15 *39:17 157.824 
8 *39:17 *39:19 0.5 
9 *39:19 *39:21 89.355 
10 *39:21 *988:io_in[11] 0.839467 
*END

*D_NET *40 0.628064
*CONN
*P io_in[19] I
*I *988:io_in[12] I *D soc_sys
*CAP
1 io_in[19] 0.00022611
2 *988:io_in[12] 0.00062893
3 *40:61 0.00209785
4 *40:59 0.00146892
5 *40:57 0.0170023
6 *40:55 0.0170023
7 *40:53 0.0398712
8 *40:51 0.0409839
9 *40:41 0.0227438
10 *40:39 0.0216311
11 *40:37 0.00444213
12 *40:35 0.00458997
13 *40:25 0.00561359
14 *40:23 0.00579671
15 *40:13 0.0953075
16 *40:11 0.0952027
17 *40:11 *76:26 0.000128252
18 *40:11 *114:18 0.000170787
19 *40:13 *759:13 0.000216599
20 *40:23 *984:EN_DEM 0
21 *40:23 *651:8 0
22 *40:25 *984:RESCAP[1] 0.00139166
23 *40:25 *827:35 0
24 *40:35 *827:33 0
25 *40:37 *737:17 0
26 *40:37 *761:14 0.00215442
27 *40:37 *827:17 0
28 *40:37 *827:21 0
29 *40:41 *797:13 0.00325512
30 *40:51 *844:9 0.000507274
31 *40:53 *988:sram_ack_i 0.000287211
32 *40:53 *989:wbs_adr_i[11] 0
33 *40:53 *989:wbs_adr_i[9] 0
34 *40:53 *650:18 0
35 *40:53 *804:13 0
36 *40:53 *817:13 0
37 *40:53 *819:13 0.00679477
38 *40:53 *821:19 0
39 *40:53 *941:13 0.000287211
40 *40:53 *942:52 0.00430234
41 *40:57 *989:wbs_adr_i[0] 0.000346791
42 *40:57 *989:wbs_adr_i[11] 0.000154607
43 *40:57 *47:37 8.54528e-05
44 *40:57 *67:21 0
45 *40:57 *108:21 0
46 *40:61 io_out[37] 0.00195662
47 *40:61 *47:39 0.000456643
48 *40:61 *108:17 0.00777299
49 *40:61 *119:9 0.0071899
50 *988:io_in[11] *988:io_in[12] 0
51 *36:13 *40:53 0.00156328
52 *36:25 *40:57 0.105406
53 *39:13 *40:53 0.00312245
54 *39:17 *40:57 0.105905
*RES
1 io_in[19] *40:11 3.68403 
2 *40:11 *40:13 259.041 
3 *40:13 *40:23 4.25383 
4 *40:23 *40:25 93.945 
5 *40:25 *40:35 6.64 
6 *40:35 *40:37 75.315 
7 *40:37 *40:39 2 
8 *40:39 *40:41 388.448 
9 *40:41 *40:51 17.5163 
10 *40:51 *40:53 105.035 
11 *40:53 *40:55 0.5 
12 *40:55 *40:57 158.436 
13 *40:57 *40:59 0.5 
14 *40:59 *40:61 91.905 
15 *40:61 *988:io_in[12] 1.83 
*END

*D_NET *42 0.575249
*CONN
*P io_in[20] I
*I *988:io_in[13] I *D soc_sys
*CAP
1 io_in[20] 0.00015964
2 *988:io_in[13] 0.000116767
3 *42:45 0.00323057
4 *42:43 0.00401977
5 *42:25 0.00797287
6 *42:23 0.00730977
7 *42:13 0.171268
8 *42:11 0.171025
9 *42:9 0.00983804
10 *42:7 0.00999768
11 *42:9 io_oeb[16] 0.0105525
12 *42:9 io_out[21] 0.0175578
13 *42:9 *43:11 0.00398404
14 *42:9 *76:26 0.0117159
15 *42:9 *78:35 0.00290455
16 *42:9 *118:18 0.0452992
17 *42:23 *541:57 0.000139903
18 *42:23 *625:9 0.000559135
19 *42:23 *627:23 0.000554639
20 *42:25 *988:wbs_sel_i[0] 0.000674084
21 *42:25 *988:wbs_sel_i[2] 0.00171384
22 *42:25 *988:wbs_sel_i[3] 0.000132356
23 *42:25 *988:wbs_stb_i 0.000654471
24 *42:25 *44:25 0.0326594
25 *42:25 *54:21 0.000120008
26 *42:25 *621:13 0.00348292
27 *42:25 *633:11 0.000378934
28 *42:25 *634:11 0.000327914
29 *42:25 *635:11 0.000493138
30 *42:25 *636:11 0.000285392
31 *42:25 *637:11 0.000561164
32 *42:25 *639:15 0.00111537
33 *42:43 *988:wbs_cyc_i 0.000118311
34 *42:43 *43:17 0.00352854
35 *42:43 *44:43 0.000121647
36 *42:43 *49:31 0.00352854
37 *42:43 *541:57 0.000109072
38 *42:45 *988:io_in[0] 0.000843521
39 *42:45 *49:33 0.00435137
40 *32:21 *42:25 0.0413387
41 *32:49 *42:43 0.000504775
*RES
1 io_in[20] *42:7 3.1025 
2 *42:7 *42:9 77.387 
3 *42:9 *42:11 0.5 
4 *42:11 *42:13 430.705 
5 *42:13 *42:23 5.0771 
6 *42:23 *42:25 374.775 
7 *42:25 *42:43 10.5616 
8 *42:43 *42:45 83.745 
9 *42:45 *988:io_in[13] 0.7584 
*END

*D_NET *43 0.48764
*CONN
*P io_in[21] I
*I *988:io_in[14] I *D soc_sys
*CAP
1 io_in[21] 0.00327534
2 *988:io_in[14] 0.000773159
3 *43:21 0.00377445
4 *43:19 0.00300129
5 *43:17 0.0142583
6 *43:15 0.0142583
7 *43:13 0.161524
8 *43:11 0.1648
9 *988:io_in[14] *988:io_in[15] 0
10 *43:11 io_oeb[16] 0.00258605
11 *43:11 io_out[21] 0.0120042
12 *43:11 *76:26 0.0189186
13 *43:13 *690:5 0.00179694
14 *43:17 *44:23 0.000125348
15 *43:17 *44:43 0
16 *43:17 *45:23 0.0208543
17 *43:17 *49:31 0.00767977
18 *43:17 *119:13 0.0144917
19 *43:17 *541:57 0.00901872
20 *43:17 *619:16 0.00829988
21 *43:17 *621:13 0
22 *43:17 *623:13 0
23 *43:17 *625:9 0.000706125
24 *43:17 *627:9 0.000433943
25 *43:17 *627:23 0.00217532
26 *43:17 *635:11 0.000318566
27 *43:17 *636:11 0.000941186
28 *43:17 *637:11 1.50352e-05
29 *43:17 *638:11 0.00166738
30 *43:17 *639:15 0
31 *43:21 io_oeb[37] 0.00401249
32 *43:21 *44:45 2.40271e-05
33 *43:21 *45:25 0.00778446
34 *32:49 *43:17 0.000469
35 *34:35 *43:17 0.000139511
36 *35:21 *43:17 0
37 *42:9 *43:11 0.00398404
38 *42:43 *43:17 0.00352854
*RES
1 io_in[21] *43:11 32.6576 
2 *43:11 *43:13 430.188 
3 *43:13 *43:15 0.5 
4 *43:15 *43:17 79.4263 
5 *43:17 *43:19 0.5 
6 *43:19 *43:21 87.315 
7 *43:21 *988:io_in[14] 2.06307 
*END

*D_NET *44 0.432326
*CONN
*P io_in[22] I
*I *988:io_in[15] I *D soc_sys
*CAP
1 io_in[22] 0.00104428
2 *988:io_in[15] 0.000710215
3 *44:45 0.00207257
4 *44:43 0.00324626
5 *44:25 0.0126764
6 *44:23 0.0111291
7 *44:13 0.159254
8 *44:11 0.159962
9 *988:io_in[15] *988:io_in[16] 0
10 *44:11 io_oeb[16] 0.000849961
11 *44:11 *76:26 0.00190867
12 *44:11 *118:18 0.00449792
13 *44:23 *988:wbs_adr_i[10] 0
14 *44:23 *621:13 0.000177143
15 *44:25 *988:wbs_sel_i[0] 0.00146242
16 *44:25 *988:wbs_sel_i[2] 0.00373959
17 *44:25 *988:wbs_sel_i[3] 0.000244031
18 *44:25 *988:wbs_stb_i 0.000219672
19 *44:25 *54:21 0.00054435
20 *44:25 *621:13 0.000760494
21 *44:25 *633:11 0.000698657
22 *44:25 *634:11 0.00060459
23 *44:25 *635:11 0.000909219
24 *44:25 *636:11 0.000240017
25 *44:25 *637:11 0.00103464
26 *44:25 *639:15 0.00243374
27 *44:43 *988:wb_rst_i 4.21127e-05
28 *44:43 *988:wbs_cyc_i 0.00382625
29 *44:43 *988:wbs_stb_i 0.00326403
30 *44:43 *54:21 1.89725e-05
31 *44:43 *108:21 2.99209e-05
32 *44:43 *608:23 5.87459e-05
33 *44:43 *619:16 4.3249e-05
34 *44:45 io_out[37] 0.00178572
35 *44:45 *45:25 0.0080473
36 *44:45 *108:17 0.00836157
37 *988:io_in[14] *988:io_in[15] 0
38 *31:21 *44:43 0.00026732
39 *32:21 *44:43 0.000152088
40 *32:49 *44:43 0.00100372
41 *33:35 *44:43 0.00170366
42 *34:35 *44:43 0.000371655
43 *42:25 *44:25 0.0326594
44 *42:43 *44:43 0.000121647
45 *43:17 *44:23 0.000125348
46 *43:17 *44:43 0
47 *43:21 *44:45 2.40271e-05
*RES
1 io_in[22] *44:11 10.2538 
2 *44:11 *44:13 430.705 
3 *44:13 *44:23 5.09903 
4 *44:23 *44:25 296.115 
5 *44:25 *44:43 12.8811 
6 *44:43 *44:45 93.435 
7 *44:45 *988:io_in[15] 1.94653 
*END

*D_NET *45 0.487066
*CONN
*P io_in[23] I
*I *988:io_in[16] I *D soc_sys
*CAP
1 io_in[23] 0.00156474
2 *988:io_in[16] 0.000726864
3 *45:25 0.00213801
4 *45:23 0.00472699
5 *45:17 0.206235
6 *45:15 0.204484
7 *988:io_in[16] *988:io_in[17] 0
8 *45:15 io_oeb[16] 0.000698163
9 *45:15 *114:18 0.00386766
10 *45:17 *853:31 0
11 *45:23 *119:13 0.020715
12 *45:23 *541:57 0.00259145
13 *45:25 io_out[37] 0.00212673
14 *45:25 *108:17 0.000157956
15 *988:io_in[15] *988:io_in[16] 0
16 *32:49 *45:23 0.000347928
17 *43:17 *45:23 0.0208543
18 *43:21 *45:25 0.00778446
19 *44:45 *45:25 0.0080473
*RES
1 io_in[23] *45:15 8.74977 
2 *45:15 *45:17 430.705 
3 *45:17 *45:23 32.0067 
4 *45:23 *45:25 92.925 
5 *45:25 *988:io_in[16] 2.0048 
*END

*D_NET *46 0.397675
*CONN
*P io_in[24] I
*I *988:io_in[17] I *D soc_sys
*CAP
1 io_in[24] 0.0011135
2 *988:io_in[17] 0.000849986
3 *46:19 0.0074
4 *46:17 0.00740551
5 *46:11 0.0934588
6 *46:9 0.0937168
7 *988:io_in[17] *988:io_in[18] 0
8 *46:11 *86:17 0.149962
9 *46:11 *129:19 0
10 *46:11 *130:19 0
11 *46:11 *131:6 0.00592772
12 *46:17 *86:15 0.000622043
13 *46:17 *126:23 0.000754218
14 *46:19 *988:io_in[28] 0.00187633
15 *46:19 *988:io_in[30] 0.000686806
16 *46:19 *78:9 0.00596788
17 *46:19 *92:15 0.00185095
18 *46:19 *92:17 0.00159675
19 *46:19 *97:9 0.0168977
20 *46:19 *108:17 0
21 *46:19 *126:17 0.00391741
22 *46:19 *136:9 0.00367144
23 *988:io_in[16] *988:io_in[17] 0
*RES
1 io_in[24] *46:9 3.34873 
2 *46:9 *46:11 356.285 
3 *46:11 *46:17 3.3978 
4 *46:17 *46:19 270.405 
5 *46:19 *988:io_in[17] 2.29613 
*END

*D_NET *47 0.446054
*CONN
*P io_in[25] I
*I *988:io_in[18] I *D soc_sys
*CAP
1 io_in[25] 0.0169463
2 *988:io_in[18] 0.000574264
3 *47:39 0.00437182
4 *47:37 0.00895874
5 *47:31 0.0290938
6 *47:29 0.0309151
7 *47:23 0.101224
8 *47:21 0.111188
9 *47:21 *80:18 0
10 *47:21 *85:14 0.00495457
11 *47:23 *85:14 0.0692733
12 *47:23 *682:5 0
13 *47:23 *877:5 0
14 *47:29 *49:23 0.016859
15 *47:29 *71:13 0
16 *47:31 *845:18 1.18824e-05
17 *47:31 *854:18 0.000219422
18 *47:37 *988:wbs_adr_i[10] 0.00248478
19 *47:37 *988:wbs_adr_i[2] 0.00821783
20 *47:37 *67:21 0.0234482
21 *47:37 *542:15 0.00419364
22 *47:39 io_out[37] 0.000593408
23 *47:39 *988:io_in[2] 0.00113426
24 *47:39 *66:17 0
25 *47:39 *119:9 0.00880922
26 *988:io_in[17] *988:io_in[18] 0
27 *31:37 *47:39 0
28 *33:37 *47:39 0
29 *34:37 *47:39 0
30 *35:25 *47:39 0
31 *36:25 *47:37 0.00204086
32 *40:57 *47:37 8.54528e-05
33 *40:61 *47:39 0.000456643
*RES
1 io_in[25] *47:21 45.4255 
2 *47:21 *47:23 1713.7 
3 *47:23 *47:29 26.4714 
4 *47:29 *47:31 65.0687 
5 *47:31 *47:37 36.9594 
6 *47:37 *47:39 107.715 
7 *47:39 *988:io_in[18] 1.71347 
*END

*D_NET *48 0.350863
*CONN
*P io_in[26] I
*I *988:io_in[19] I *D soc_sys
*CAP
1 io_in[26] 0.00469805
2 *988:io_in[19] 0.00618949
3 *48:41 0.0234591
4 *48:15 0.1113
5 *48:13 0.0987281
6 *988:io_in[19] *988:io_in[22] 0.000205264
7 *988:io_in[19] *988:io_in[29] 0.00176986
8 *988:io_in[19] *107:12 4.21886e-05
9 *988:io_in[19] *109:12 9.59476e-05
10 *988:io_in[19] *112:12 4.21886e-05
11 *988:io_in[19] *114:12 0.000100736
12 *988:io_in[19] *115:12 4.21886e-05
13 *988:io_in[19] *118:12 0.000276378
14 *988:io_in[19] *121:20 4.21886e-05
15 *988:io_in[19] *129:9 0.000205264
16 *988:io_in[19] *141:21 0.000295987
17 *988:io_in[19] *142:32 0.00023172
18 *48:15 *85:14 0.0916507
19 *48:41 *72:14 0.00285007
20 *48:41 *78:29 0.000426678
21 *48:41 *80:18 0.00119274
22 *48:41 *88:10 0.00102955
23 *48:41 *111:13 0.000912032
24 *48:41 *112:14 0.000917126
25 *48:41 *121:20 0.000316246
26 *48:41 *132:12 0.00107001
27 *48:41 *143:29 0.00277383
28 *48:41 *671:10 0
*RES
1 io_in[26] *48:13 11.7594 
2 *48:13 *48:15 289.532 
3 *48:15 *48:41 34.9392 
4 *48:41 *988:io_in[19] 18.9705 
*END

*D_NET *49 0.497073
*CONN
*P io_in[27] I
*I *988:io_in[20] I *D soc_sys
*CAP
1 io_in[27] 0.000126497
2 *988:io_in[20] 0.000157566
3 *49:33 0.00447059
4 *49:31 0.01032
5 *49:25 0.0294367
6 *49:23 0.0305939
7 *49:17 0.0202512
8 *49:15 0.0132506
9 *49:9 0.0209205
10 *49:7 0.0208835
11 *988:io_in[20] *988:io_in[21] 0
12 *49:9 io_oeb[31] 0.000234659
13 *49:9 io_oeb[32] 0.000234659
14 *49:9 io_out[30] 0.000234659
15 *49:9 io_out[31] 0.000234659
16 *49:9 *50:17 0.000234659
17 *49:9 *51:17 0.000234659
18 *49:9 *55:17 0.000234659
19 *49:9 *89:25 1.4641e-05
20 *49:9 *92:17 0.0181447
21 *49:9 *122:17 6.58726e-05
22 *49:9 *124:17 0.0813896
23 *49:9 *125:21 0.0953567
24 *49:15 io_oeb[32] 0.000242259
25 *49:17 *93:9 0.015991
26 *49:17 *124:9 0.0390626
27 *49:17 *125:9 0.00849699
28 *49:23 *71:13 0
29 *49:23 *113:13 0.0256303
30 *49:31 *988:wbs_cyc_i 0.00138587
31 *49:31 *988:wbs_sel_i[1] 0.00501302
32 *49:31 *988:wbs_sel_i[2] 0.00113825
33 *49:31 *988:wbs_sel_i[3] 0.000251242
34 *49:31 *54:21 0
35 *49:31 *540:25 0.00098115
36 *49:31 *541:57 0.00488016
37 *49:31 *608:23 0.00238276
38 *49:31 *619:16 0.00829988
39 *49:31 *633:11 0.00088283
40 *49:31 *634:11 0.000649608
41 *49:31 *635:11 0.000350233
42 *49:33 *988:io_in[0] 0.000810667
43 *49:33 *110:9 0
44 *32:49 *49:31 0.000550128
45 *33:21 *49:31 0.000117682
46 *34:21 *49:31 0.000269044
47 *34:35 *49:31 0.000243536
48 *39:21 *49:33 0
49 *42:43 *49:31 0.00352854
50 *42:45 *49:33 0.00435137
51 *43:17 *49:31 0.00767977
52 *47:29 *49:23 0.016859
*RES
1 io_in[27] *49:7 0.863533 
2 *49:7 *49:9 181.779 
3 *49:9 *49:15 1.41673 
4 *49:15 *49:17 437.175 
5 *49:17 *49:23 39.8145 
6 *49:23 *49:25 63.7767 
7 *49:25 *49:31 38.2995 
8 *49:31 *49:33 104.655 
9 *49:33 *988:io_in[20] 0.930667 
*END

*D_NET *50 0.214054
*CONN
*P io_in[28] I
*I *988:io_in[21] I *D soc_sys
*CAP
1 io_in[28] 0.0153943
2 *988:io_in[21] 0.000493323
3 *50:19 0.0552336
4 *50:17 0.0701346
5 *988:io_in[21] *988:io_in[22] 0
6 *50:17 *83:17 0.00412732
7 *50:17 *122:9 0.00287506
8 *50:17 *123:17 0
9 *50:19 *53:13 0.00127603
10 *50:19 *53:23 0
11 *50:19 *55:17 0.00399408
12 *50:19 *55:19 0
13 *50:19 *56:19 0
14 *50:19 *57:11 0.00683208
15 *50:19 *66:17 0
16 *50:19 *69:9 0
17 *50:19 *71:9 0
18 *50:19 *77:21 0.00077036
19 *50:19 *83:15 0.00131918
20 *50:19 *83:17 0.0452504
21 *50:19 *87:23 0.000240507
22 *50:19 *89:15 0.00127385
23 *50:19 *113:9 0
24 *50:19 *119:9 0
25 *50:19 *122:9 0
26 *50:19 *126:15 0.00303753
27 *50:19 *127:9 0.00156734
28 *50:19 *143:9 0
29 *988:io_in[20] *988:io_in[21] 0
30 *49:9 *50:17 0.000234659
*RES
1 io_in[28] *50:17 35.4669 
2 *50:17 *50:19 1391.9 
3 *50:19 *988:io_in[21] 1.53867 
*END

*D_NET *51 0.237402
*CONN
*P io_in[29] I
*I *988:io_in[22] I *D soc_sys
*CAP
1 io_in[29] 0.0129918
2 *988:io_in[22] 0.00251275
3 *51:25 0.00349238
4 *51:19 0.0472011
5 *51:17 0.0592132
6 *988:io_in[22] *988:io_in[23] 3.89907e-05
7 *988:io_in[22] *988:io_in[29] 0.00028583
8 *988:io_in[22] *110:9 0
9 *51:17 *53:13 0.000156173
10 *51:17 *83:17 0.00398353
11 *51:17 *84:9 0.00413397
12 *51:17 *89:25 0.00120643
13 *51:17 *122:9 0.00445435
14 *51:17 *123:9 0.00399033
15 *51:17 *123:17 0.00108783
16 *51:17 *124:17 0
17 *51:19 *53:23 0.0636076
18 *51:19 *73:43 0.00186269
19 *51:19 *86:9 0.0066011
20 *51:19 *103:21 0.000631816
21 *51:19 *129:11 0
22 *51:19 *129:19 0.00827891
23 *51:19 *130:11 0
24 *51:19 *130:19 0.0101873
25 *51:25 *988:io_in[29] 0.000302217
26 *51:25 *53:23 0.000620076
27 *51:25 *110:9 0.000121481
28 *988:io_in[19] *988:io_in[22] 0.000205264
29 *988:io_in[21] *988:io_in[22] 0
30 *17:11 *51:19 0
31 *49:9 *51:17 0.000234659
*RES
1 io_in[29] *51:17 36.194 
2 *51:17 *51:19 1128.73 
3 *51:19 *51:25 22.74 
4 *51:25 *988:io_in[22] 42.6139 
*END

*D_NET *53 0.246978
*CONN
*P io_in[30] I
*I *988:io_in[23] I *D soc_sys
*CAP
1 io_in[30] 0.00528001
2 *988:io_in[23] 0.000181263
3 *53:23 0.0178493
4 *53:21 0.0180669
5 *53:15 0.0211416
6 *53:13 0.0260228
7 *988:io_in[23] *988:io_in[24] 0
8 *53:13 *83:17 0.00132774
9 *53:13 *89:25 0
10 *53:13 *122:9 0.00124073
11 *53:15 *55:17 9.70509e-05
12 *53:15 *83:17 0.00677675
13 *53:15 *84:9 0.00705869
14 *53:15 *89:25 0.00393831
15 *53:15 *122:9 0.00758554
16 *53:15 *123:9 0.00921895
17 *53:21 *55:17 4.83733e-05
18 *53:23 *55:19 0.0515334
19 *53:23 *66:17 0.000206917
20 *53:23 *110:9 0.00370511
21 *988:io_in[22] *988:io_in[23] 3.89907e-05
22 *50:19 *53:13 0.00127603
23 *50:19 *53:23 0
24 *51:17 *53:13 0.000156173
25 *51:19 *53:23 0.0636076
26 *51:25 *53:23 0.000620076
*RES
1 io_in[30] *53:13 12.3066 
2 *53:13 *53:15 55.9639 
3 *53:15 *53:21 1.76633 
4 *53:21 *53:23 796.215 
5 *53:23 *988:io_in[23] 0.956 
*END

*D_NET *54 0.285038
*CONN
*P io_in[31] I
*I *988:io_in[24] I *D soc_sys
*CAP
1 io_in[31] 0.0164821
2 *988:io_in[24] 0.00784851
3 *54:21 0.0156426
4 *54:15 0.0950792
5 *54:13 0.103767
6 *988:io_in[24] io_out[37] 0.00244091
7 *988:io_in[24] *988:io_in[25] 0
8 *988:io_in[24] *988:io_in[2] 0.00304042
9 *54:15 *829:5 0.00302424
10 *54:15 *830:10 0
11 *54:21 *988:wbs_sel_i[0] 0.00690589
12 *54:21 *988:wbs_sel_i[2] 0.00265776
13 *54:21 *988:wbs_sel_i[3] 0.000158736
14 *54:21 *988:wbs_stb_i 4.94982e-05
15 *54:21 *988:wbs_we_i 0.00534476
16 *54:21 *108:21 0.00605294
17 *54:21 *630:19 0.00958559
18 *54:21 *633:11 0.000540995
19 *54:21 *634:11 0.000402854
20 *54:21 *635:11 0.000494061
21 *988:io_in[23] *988:io_in[24] 0
22 *1:13 *54:13 0.000866359
23 *31:21 *54:21 0.000114997
24 *31:35 *54:21 0.00368293
25 *32:21 *54:21 0.000114997
26 *33:35 *54:21 5.7289e-05
27 *42:25 *54:21 0.000120008
28 *44:25 *54:21 0.00054435
29 *44:43 *54:21 1.89725e-05
30 *49:31 *54:21 0
*RES
1 io_in[31] *54:13 41.5919 
2 *54:13 *54:15 188.153 
3 *54:15 *54:21 41.0089 
4 *54:21 *988:io_in[24] 22.2778 
*END

*D_NET *55 0.159318
*CONN
*P io_in[32] I
*I *988:io_in[25] I *D soc_sys
*CAP
1 io_in[32] 0.0153617
2 *988:io_in[25] 0.000223236
3 *55:19 0.0142074
4 *55:17 0.0293458
5 *988:io_in[25] *988:io_in[26] 0
6 *55:17 *83:17 0.00416388
7 *55:17 *89:25 0
8 *55:17 *93:9 0.00115356
9 *55:17 *122:9 0.00387778
10 *55:19 *56:19 0.0349255
11 *55:19 *66:17 0.000151052
12 *988:io_in[24] *988:io_in[25] 0
13 *49:9 *55:17 0.000234659
14 *50:19 *55:17 0.00399408
15 *50:19 *55:19 0
16 *53:15 *55:17 9.70509e-05
17 *53:21 *55:17 4.83733e-05
18 *53:23 *55:19 0.0515334
*RES
1 io_in[32] *55:17 36.3359 
2 *55:17 *55:19 595.785 
3 *55:19 *988:io_in[25] 1.01427 
*END

*D_NET *56 0.114316
*CONN
*P io_in[33] I
*I *988:io_in[26] I *D soc_sys
*CAP
1 io_in[33] 0.0106543
2 *988:io_in[26] 0.00026507
3 *56:19 0.0100632
4 *56:17 0.0204524
5 *988:io_in[26] *988:io_in[27] 0
6 *56:17 *57:9 0
7 *56:17 *83:17 0.0038567
8 *56:17 *92:17 0.000205264
9 *56:17 *93:9 0.00697279
10 *56:17 *122:9 0.00432105
11 *56:19 *66:17 0.0225996
12 *988:io_in[25] *988:io_in[26] 0
13 *50:19 *56:19 0
14 *55:19 *56:19 0.0349255
*RES
1 io_in[33] *56:17 35.0717 
2 *56:17 *56:19 404.025 
3 *56:19 *988:io_in[26] 1.07253 
*END

*D_NET *57 0.0803793
*CONN
*P io_in[34] I
*I *988:io_in[27] I *D soc_sys
*CAP
1 io_in[34] 0.000475848
2 *988:io_in[27] 0.000549286
3 *57:11 0.0288156
4 *57:9 0.0287422
5 *988:io_in[27] *988:io_in[28] 0
6 *57:11 io_oeb[34] 0.00396609
7 *57:11 io_out[35] 0
8 *57:11 io_out[36] 0.000780598
9 *57:11 io_out[37] 0.000214948
10 *57:11 *77:21 0.00030782
11 *57:11 *83:17 0.00210305
12 *57:11 *87:23 0.000402101
13 *57:11 *89:15 0.000259903
14 *57:11 *93:9 0.00123549
15 *57:11 *108:15 0.000868163
16 *57:11 *119:9 0.000521786
17 *57:11 *120:15 0.000703655
18 *57:11 *122:9 0.00244411
19 *57:11 *123:9 0.000832175
20 *57:11 *127:23 0.000324476
21 *988:io_in[26] *988:io_in[27] 0
22 *50:19 *57:11 0.00683208
23 *56:17 *57:9 0
*RES
1 io_in[34] *57:9 1.45887 
2 *57:9 *57:11 66.9636 
3 *57:11 *988:io_in[27] 1.5678 
*END

*D_NET *58 0.0508441
*CONN
*P io_in[35] I
*I *988:io_in[28] I *D soc_sys
*CAP
1 io_in[35] 0.00719887
2 *988:io_in[28] 0.00719887
3 *988:io_in[28] io_oeb[35] 0.00842415
4 *988:io_in[28] io_oeb[36] 0.000392405
5 *988:io_in[28] io_out[34] 0.00974936
6 *988:io_in[28] io_out[35] 0.00061349
7 *988:io_in[28] io_out[36] 0.00329787
8 *988:io_in[28] io_out[37] 0
9 *988:io_in[28] *988:io_in[29] 0.000234659
10 *988:io_in[28] *988:io_in[30] 0.000625436
11 *988:io_in[28] *78:9 0.000373804
12 *988:io_in[28] *93:9 0.0002657
13 *988:io_in[28] *97:9 0.00771338
14 *988:io_in[28] *98:9 0.000908768
15 *988:io_in[28] *108:15 0
16 *988:io_in[28] *113:9 0.00029306
17 *988:io_in[28] *136:9 0.00167795
18 *988:io_in[27] *988:io_in[28] 0
19 *46:19 *988:io_in[28] 0.00187633
*RES
1 io_in[35] *988:io_in[28] 36.188 
*END

*D_NET *59 0.0107044
*CONN
*P io_in[36] I
*I *988:io_in[29] I *D soc_sys
*CAP
1 io_in[36] 0.00377565
2 *988:io_in[29] 0.00377565
3 *988:io_in[29] *988:io_in[30] 6.35261e-05
4 *988:io_in[29] *60:20 8.58819e-05
5 *988:io_in[29] *110:9 0.000296825
6 *988:io_in[29] *119:7 0
7 *988:io_in[29] *141:21 0.000114254
8 *988:io_in[19] *988:io_in[29] 0.00176986
9 *988:io_in[22] *988:io_in[29] 0.00028583
10 *988:io_in[28] *988:io_in[29] 0.000234659
11 *51:25 *988:io_in[29] 0.000302217
*RES
1 io_in[36] *988:io_in[29] 11.0649 
*END

*D_NET *60 0.0214797
*CONN
*P io_in[37] I
*I *988:io_in[30] I *D soc_sys
*CAP
1 io_in[37] 0.00406259
2 *988:io_in[30] 0.00409128
3 *60:20 2.86932e-05
4 *988:io_in[30] io_oeb[36] 0.00247871
5 *988:io_in[30] io_oeb[37] 0.00913088
6 *988:io_in[30] io_out[36] 0.000141915
7 *988:io_in[30] *108:15 2.68717e-05
8 *988:io_in[30] *141:21 2.2955e-05
9 *60:20 *141:21 3.41218e-05
10 *988:io_in[28] *988:io_in[30] 0.000625436
11 *988:io_in[29] *988:io_in[30] 6.35261e-05
12 *988:io_in[29] *60:20 8.58819e-05
13 *46:19 *988:io_in[30] 0.000686806
*RES
1 io_in[37] *988:io_in[30] 20.4041 
2 *988:io_in[30] *60:20 0.135533 
*END

*D_NET *65 0.691435
*CONN
*P io_in[7] I
*I *988:io_in[0] I *D soc_sys
*CAP
1 io_in[7] 0.000198549
2 *988:io_in[0] 0.00374787
3 *65:25 0.0278236
4 *65:23 0.0240757
5 *65:21 0.0292536
6 *65:19 0.0292536
7 *65:17 0.0518991
8 *65:15 0.0518991
9 *65:13 0.0279513
10 *65:11 0.0281498
11 *65:13 *66:9 0.0178163
12 *65:13 *69:17 0.0103975
13 *65:13 *71:17 0.00929847
14 *65:13 *108:33 0.00946175
15 *65:13 *111:17 0.00930905
16 *65:17 *67:13 0.141235
17 *65:17 *110:21 3.526e-05
18 *65:17 *798:9 0
19 *65:21 *989:wbs_adr_i[11] 6.8232e-05
20 *65:21 *67:17 0.0537428
21 *65:21 *805:13 0
22 *65:21 *823:19 0.000992001
23 *65:21 *901:9 0.00492348
24 *65:21 *918:21 0.00194934
25 *65:25 *988:wbs_adr_i[0] 0.00242512
26 *65:25 *988:wbs_adr_i[15] 0.0254536
27 *65:25 *988:wbs_adr_i[3] 0.00619412
28 *65:25 *988:wbs_dat_i[5] 0.00300541
29 *65:25 *989:wbs_adr_i[8] 0.000340092
30 *65:25 *594:15 0.010954
31 *65:25 *615:15 0.00259991
32 *39:17 *65:25 0.104763
33 *39:21 *988:io_in[0] 0.000565022
34 *42:45 *988:io_in[0] 0.000843521
35 *49:33 *988:io_in[0] 0.000810667
*RES
1 io_in[7] *65:11 0.9142 
2 *65:11 *65:13 76.0076 
3 *65:13 *65:15 0.5 
4 *65:15 *65:17 211.896 
5 *65:17 *65:19 0.5 
6 *65:19 *65:21 100.297 
7 *65:21 *65:23 0.5 
8 *65:23 *65:25 155.727 
9 *65:25 *988:io_in[0] 10.5127 
*END

*D_NET *66 0.526154
*CONN
*P io_in[8] I
*I *988:io_in[1] I *D soc_sys
*CAP
1 io_in[8] 0.000112035
2 *988:io_in[1] 0.00030012
3 *66:17 0.00889032
4 *66:15 0.0085902
5 *66:13 0.147326
6 *66:11 0.147326
7 *66:9 0.0295617
8 *66:7 0.0296737
9 *988:io_in[1] *988:io_in[2] 0
10 *66:9 *69:17 0.0107759
11 *66:9 *108:33 0.057143
12 *66:13 *988:adc_chopclk 0
13 *66:13 *688:11 0.00408049
14 *66:13 *726:11 0.0182875
15 *66:13 *799:9 0
16 *66:17 *71:9 0.000240837
17 *66:17 *110:9 0
18 *66:17 *111:9 0.0185092
19 *66:17 *143:9 0.000750416
20 *35:25 *66:17 0.00158956
21 *37:37 *66:17 0.00211799
22 *38:33 *66:17 0.000104921
23 *47:39 *66:17 0
24 *50:19 *66:17 0
25 *53:23 *66:17 0.000206917
26 *55:19 *66:17 0.000151052
27 *56:19 *66:17 0.0225996
28 *65:13 *66:9 0.0178163
*RES
1 io_in[8] *66:7 0.722933 
2 *66:7 *66:9 846.195 
3 *66:9 *66:11 0.5 
4 *66:11 *66:13 367.992 
5 *66:13 *66:15 0.5 
6 *66:15 *66:17 338.235 
7 *66:17 *988:io_in[1] 1.1308 
*END

*D_NET *67 0.867443
*CONN
*P io_in[9] I
*I *988:io_in[2] I *D soc_sys
*CAP
1 io_in[9] 0.000956036
2 *988:io_in[2] 0.00196881
3 *67:21 0.0295085
4 *67:19 0.0275397
5 *67:17 0.0222992
6 *67:15 0.0222992
7 *67:13 0.0224205
8 *67:11 0.0224205
9 *67:9 0.0525861
10 *67:7 0.0535421
11 *988:io_in[2] io_out[37] 0.00545431
12 *988:io_in[2] *119:9 0.00101437
13 *67:9 *109:30 0.00211255
14 *67:9 *110:25 0.0195365
15 *67:13 *110:21 0.137756
16 *67:13 *715:9 0
17 *67:17 *989:wbs_adr_i[11] 0.00838797
18 *67:17 *804:13 0.0166066
19 *67:17 *823:19 6.83049e-06
20 *67:17 *899:9 0.00217648
21 *67:17 *917:21 0.00181939
22 *67:17 *930:13 0.000125189
23 *67:17 *931:13 0.000670597
24 *67:21 *988:wbs_adr_i[10] 0.000472987
25 *67:21 *989:wbs_adr_i[0] 0.000162573
26 *67:21 *108:21 0.000112847
27 *67:21 *561:15 0.0374208
28 *67:21 *612:15 0.00989643
29 *67:21 *885:19 0.00177909
30 *988:io_in[1] *988:io_in[2] 0
31 *988:io_in[24] *988:io_in[2] 0.00304042
32 *988:io_in[3] *988:io_in[2] 0
33 *31:9 *67:9 0.00211255
34 *32:9 *67:9 0.0120217
35 *33:9 *67:9 0.0167067
36 *34:9 *67:9 0.0179636
37 *35:9 *67:9 0.0345173
38 *36:25 *67:21 0.00468217
39 *37:33 *67:21 2.20678e-05
40 *38:29 *67:21 0.0557638
41 *40:57 *67:21 0
42 *47:37 *67:21 0.0234482
43 *47:39 *988:io_in[2] 0.00113426
44 *65:17 *67:13 0.141235
45 *65:21 *67:17 0.0537428
*RES
1 io_in[9] *67:7 2.6166 
2 *67:7 *67:9 143.278 
3 *67:9 *67:11 0.5 
4 *67:11 *67:13 209.681 
5 *67:13 *67:15 0.5 
6 *67:15 *67:17 99.6943 
7 *67:17 *67:19 0.5 
8 *67:19 *67:21 157.125 
9 *67:21 *988:io_in[2] 12.1581 
*END

*D_NET *69 0.866491
*CONN
*P io_oeb[10] O
*I *988:io_oeb[3] O *D soc_sys
*CAP
1 io_oeb[10] 6.26021e-05
2 *988:io_oeb[3] 0.000416268
3 *69:17 0.0194564
4 *69:15 0.0193938
5 *69:13 0.0494946
6 *69:11 0.0494946
7 *69:9 0.00350998
8 *69:7 0.00392624
9 *69:9 *71:9 0.0108969
10 *69:9 *83:15 0.00304485
11 *69:9 *111:9 0.000300283
12 *69:9 *127:9 0.00309756
13 *69:13 *71:13 0
14 *69:13 *111:13 0.247071
15 *69:13 *113:13 0.202346
16 *69:17 *70:22 0.0102792
17 *69:17 *71:17 0.120648
18 *69:17 *108:33 0.101642
19 *69:17 *111:17 0.000237126
20 *50:19 *69:9 0
21 *65:13 *69:17 0.0103975
22 *66:9 *69:17 0.0107759
*RES
1 *988:io_oeb[3] *69:7 1.3056 
2 *69:7 *69:9 132.195 
3 *69:9 *69:11 0.5 
4 *69:11 *69:13 368.283 
5 *69:13 *69:15 0.5 
6 *69:15 *69:17 1354.16 
7 *69:17 io_oeb[10] 0.6064 
*END

*D_NET *70 0.836624
*CONN
*P io_oeb[11] O
*I *988:io_oeb[4] O *D soc_sys
*CAP
1 io_oeb[11] 0.000159539
2 *988:io_oeb[4] 0.0124207
3 *70:22 0.0359946
4 *70:20 0.186967
5 *70:14 0.199627
6 *70:12 0.0609158
7 *70:12 *105:12 0.00903432
8 *70:12 *131:6 9.59476e-05
9 *70:14 *815:5 0.00262266
10 *70:14 *853:31 0
11 *70:14 *856:10 0.0482812
12 *70:20 io_out[8] 0.0516283
13 *70:20 *985:CurrAbsTrim[5] 0.00231968
14 *70:20 *985:trimTC[6] 0.00451046
15 *70:20 *72:24 0.000133333
16 *70:20 *77:27 0.0235015
17 *70:20 *105:18 0.0975256
18 *70:20 *109:24 0.00276476
19 *70:20 *115:18 0.0274905
20 *70:22 io_oeb[9] 0.013377
21 *70:22 *71:17 0.0132713
22 *70:22 *72:30 0.0138888
23 *70:22 *108:33 0.00638785
24 *70:22 *111:17 0.013427
25 *69:17 *70:22 0.0102792
*RES
1 *988:io_oeb[4] *70:12 4.02319 
2 *70:12 *70:14 174.889 
3 *70:14 *70:20 35.2743 
4 *70:20 *70:22 109.513 
5 *70:22 io_oeb[11] 0.9142 
*END

*D_NET *71 0.683178
*CONN
*P io_oeb[12] O
*I *988:io_oeb[5] O *D soc_sys
*CAP
1 io_oeb[12] 2.41895e-05
2 *988:io_oeb[5] 0.000397688
3 *71:17 0.0255684
4 *71:15 0.0255442
5 *71:13 0.143686
6 *71:11 0.143686
7 *71:9 0.00242235
8 *71:7 0.00282004
9 *71:9 *111:9 0.0108527
10 *71:13 *111:13 0
11 *71:13 *113:13 0
12 *71:13 *692:11 0.000167091
13 *71:17 *72:30 0.00961597
14 *71:17 *108:33 0.00776575
15 *71:17 *111:17 0.156273
16 *47:29 *71:13 0
17 *49:23 *71:13 0
18 *50:19 *71:9 0
19 *65:13 *71:17 0.00929847
20 *66:17 *71:9 0.000240837
21 *69:9 *71:9 0.0108969
22 *69:13 *71:13 0
23 *69:17 *71:17 0.120648
24 *70:22 *71:17 0.0132713
*RES
1 *988:io_oeb[5] *71:7 1.24733 
2 *71:7 *71:9 130.665 
3 *71:9 *71:11 0.5 
4 *71:11 *71:13 368.283 
5 *71:13 *71:15 0.5 
6 *71:15 *71:17 1748.39 
7 *71:17 io_oeb[12] 0.548133 
*END

*D_NET *72 0.708304
*CONN
*P io_oeb[13] O
*I *988:io_oeb[6] O *D soc_sys
*CAP
1 io_oeb[13] 8.49941e-05
2 *988:io_oeb[6] 0.00532574
3 *72:30 0.0411382
4 *72:28 0.0410532
5 *72:26 0.0708819
6 *72:24 0.0754035
7 *72:14 0.0611059
8 *72:12 0.0619101
9 *72:12 *74:12 0.00639978
10 *72:12 *131:6 0.000159283
11 *72:14 *112:14 0
12 *72:14 *132:14 0.0149737
13 *72:14 *759:5 0.00432414
14 *72:24 *985:CurrAbsTrim[5] 0.000177524
15 *72:24 *74:30 0.00041237
16 *72:24 *105:18 0.00383763
17 *72:24 *109:24 0.00851232
18 *72:24 *115:18 0.000457937
19 *72:26 *74:32 0.00379023
20 *72:26 *81:52 0.00736013
21 *72:26 *109:26 0.21112
22 *72:30 io_oeb[9] 0.0101511
23 *72:30 *108:33 0.0532364
24 *72:30 *111:17 0
25 *48:41 *72:14 0.00285007
26 *70:20 *72:24 0.000133333
27 *70:22 *72:30 0.0138888
28 *71:17 *72:30 0.00961597
*RES
1 *988:io_oeb[6] *72:12 2.45229 
2 *72:12 *72:14 172.994 
3 *72:14 *72:24 27.0155 
4 *72:24 *72:26 1975.23 
5 *72:26 *72:28 2 
6 *72:28 *72:30 1043.95 
7 *72:30 io_oeb[13] 0.722933 
*END

*D_NET *73 0.626324
*CONN
*P io_oeb[14] O
*I *988:io_oeb[7] O *D soc_sys
*CAP
1 io_oeb[14] 0.130419
2 *988:io_oeb[7] 0.0188876
3 *73:47 0.130419
4 *73:45 0.101057
5 *73:43 0.119945
6 *73:43 *76:20 1.92348e-06
7 *73:43 *78:29 0.000130601
8 *73:43 *80:16 0.000533923
9 *73:43 *91:20 0.000224968
10 *73:43 *103:21 0.00269584
11 *73:43 *104:20 0.00198196
12 *73:43 *130:11 0
13 *73:43 *131:6 5.46484e-05
14 *73:43 *143:29 8.44688e-05
15 *73:45 *114:14 0.118025
16 *51:19 *73:43 0.00186269
*RES
1 *988:io_oeb[7] *73:43 40.8675 
2 *73:43 *73:45 373.34 
3 *73:45 *73:47 0.5 
4 *73:47 io_oeb[14] 343.676 
*END

*D_NET *74 0.694632
*CONN
*P io_oeb[15] O
*I *988:io_oeb[8] O *D soc_sys
*CAP
1 io_oeb[15] 0.0696542
2 *988:io_oeb[8] 0.0044886
3 *74:34 0.0696542
4 *74:32 0.0643359
5 *74:30 0.0719105
6 *74:14 0.0534437
7 *74:12 0.0503578
8 *74:12 *75:12 0.00769257
9 *74:12 *131:6 7.14623e-05
10 *74:14 *115:14 0.054376
11 *74:14 *116:12 0
12 *74:14 *792:5 0.00328447
13 *74:30 io_out[8] 0.000155559
14 *74:30 *77:27 0.000900568
15 *74:30 *105:18 0.000195952
16 *74:30 *109:24 0.00192024
17 *74:30 *115:18 0.000981481
18 *74:32 io_out[8] 0.00112777
19 *74:32 *109:26 0.188884
20 *74:32 *116:16 0.0405952
21 *72:12 *74:12 0.00639978
22 *72:24 *74:30 0.00041237
23 *72:26 *74:32 0.00379023
*RES
1 *988:io_oeb[8] *74:12 2.48645 
2 *74:12 *74:14 172.735 
3 *74:14 *74:30 7.29668 
4 *74:30 *74:32 1785.48 
5 *74:32 *74:34 2 
6 *74:34 io_oeb[15] 1267.79 
*END

*D_NET *75 0.731763
*CONN
*P io_oeb[16] O
*I *988:io_oeb[9] O *D soc_sys
*CAP
1 io_oeb[16] 0.130991
2 *988:io_oeb[9] 0.00799855
3 *75:14 0.251674
4 *75:12 0.128682
5 io_oeb[16] io_oeb[22] 0.00309311
6 io_oeb[16] io_out[21] 0.00352149
7 io_oeb[16] io_out[22] 0.00485528
8 io_oeb[16] *76:26 0.028181
9 io_oeb[16] *78:35 0.0217505
10 io_oeb[16] *80:22 0.0168557
11 io_oeb[16] *114:18 0.037505
12 io_oeb[16] *118:18 0.0166214
13 *75:12 *131:6 9.59476e-05
14 *75:14 *82:22 0
15 *75:14 *104:22 0.0126607
16 *75:14 *116:12 0.0376198
17 *75:14 *793:5 0.00727774
18 *42:9 io_oeb[16] 0.0105525
19 *43:11 io_oeb[16] 0.00258605
20 *44:11 io_oeb[16] 0.000849961
21 *45:15 io_oeb[16] 0.000698163
22 *74:12 *75:12 0.00769257
*RES
1 *988:io_oeb[9] *75:12 2.68229 
2 *75:12 *75:14 386.777 
3 *75:14 io_oeb[16] 30.8458 
*END

*D_NET *76 0.533499
*CONN
*P io_oeb[17] O
*I *988:io_oeb[10] O *D soc_sys
*CAP
1 io_oeb[17] 0.000237032
2 *988:io_oeb[10] 0.00679677
3 *76:26 0.0763526
4 *76:24 0.0761156
5 *76:22 0.138617
6 *76:20 0.145414
7 *76:20 *78:29 0
8 *76:20 *80:16 0.000646192
9 *76:20 *81:46 0.000772458
10 *76:20 *87:23 0.000170972
11 *76:20 *88:10 0
12 *76:20 *91:20 0.000587452
13 *76:20 *94:14 9.57856e-05
14 *76:20 *127:25 0
15 *76:20 *131:6 0.000163843
16 *76:22 *87:25 0
17 *76:22 *855:5 0.00381481
18 *76:22 *866:5 0.00232715
19 *76:26 io_oeb[22] 0.00992626
20 *76:26 io_out[21] 0.00434867
21 *76:26 io_out[22] 0.00468404
22 *76:26 *78:35 0
23 *76:26 *80:22 0.000399893
24 *76:26 *114:18 0
25 *76:26 *118:18 0.00117357
26 io_oeb[16] *76:26 0.028181
27 *40:11 *76:26 0.000128252
28 *42:9 *76:26 0.0117159
29 *43:11 *76:26 0.0189186
30 *44:11 *76:26 0.00190867
31 *73:43 *76:20 1.92348e-06
*RES
1 *988:io_oeb[10] *76:20 10.5889 
2 *76:20 *76:22 376.268 
3 *76:22 *76:24 0.5 
4 *76:24 *76:26 241.816 
5 *76:26 io_oeb[17] 4.6325 
*END

*D_NET *77 0.617856
*CONN
*P io_oeb[18] O
*I *988:io_oeb[11] O *D soc_sys
*CAP
1 io_oeb[18] 0.0696706
2 *988:io_oeb[11] 0.0122527
3 *77:29 0.0696706
4 *77:27 0.0229498
5 *77:25 0.0229498
6 *77:23 0.044108
7 *77:21 0.0563607
8 *77:21 *78:7 0
9 *77:21 *81:46 0.00291091
10 *77:21 *82:20 0.00485233
11 *77:21 *84:7 2.20228e-05
12 *77:21 *122:9 0.00182189
13 *77:23 *109:14 0.0527688
14 *77:23 *143:31 0
15 *77:27 *115:18 0.126434
16 *77:27 *116:16 0.105603
17 *50:19 *77:21 0.00077036
18 *57:11 *77:21 0.00030782
19 *70:20 *77:27 0.0235015
20 *74:30 *77:27 0.000900568
*RES
1 *988:io_oeb[11] *77:21 25.7539 
2 *77:21 *77:23 167.912 
3 *77:23 *77:25 0.5 
4 *77:25 *77:27 187.278 
5 *77:27 *77:29 0.5 
6 *77:29 io_oeb[18] 1268.42 
*END

*D_NET *78 0.610906
*CONN
*P io_oeb[19] O
*I *988:io_oeb[12] O *D soc_sys
*CAP
1 io_oeb[19] 6.92638e-05
2 *988:io_oeb[12] 0.000917447
3 *78:35 0.0177726
4 *78:33 0.0177033
5 *78:31 0.0990274
6 *78:29 0.118386
7 *78:9 0.0203145
8 *78:7 0.0018731
9 *78:9 io_oeb[35] 0.000803037
10 *78:9 io_out[35] 0.000145607
11 *78:9 *98:9 0.000330072
12 *78:9 *126:17 0.00296785
13 *78:9 *136:9 0.0024241
14 *78:29 *88:10 0.00230602
15 *78:29 *91:20 0
16 *78:29 *120:15 0.00152291
17 *78:29 *125:7 0
18 *78:31 *118:14 0.120056
19 *78:31 *806:5 0.004962
20 *78:35 *80:22 0.06801
21 *78:35 *114:18 0.0957385
22 *78:35 *118:18 0.00402254
23 io_oeb[16] *78:35 0.0217505
24 *988:io_in[28] *78:9 0.000373804
25 *42:9 *78:35 0.00290455
26 *46:19 *78:9 0.00596788
27 *48:41 *78:29 0.000426678
28 *73:43 *78:29 0.000130601
29 *76:20 *78:29 0
30 *76:26 *78:35 0
31 *77:21 *78:7 0
*RES
1 *988:io_oeb[12] *78:7 2.23787 
2 *78:7 *78:9 66.915 
3 *78:9 *78:29 20.7846 
4 *78:29 *78:31 379.8 
5 *78:31 *78:33 0.5 
6 *78:33 *78:35 141.888 
7 *78:35 io_oeb[19] 1.5725 
*END

*D_NET *80 0.492447
*CONN
*P io_oeb[20] O
*I *988:io_oeb[13] O *D soc_sys
*CAP
1 io_oeb[20] 0.000103832
2 *988:io_oeb[13] 0.00416186
3 *80:22 0.0143229
4 *80:20 0.0142191
5 *80:18 0.111282
6 *80:16 0.115443
7 *80:16 *81:46 0.00121819
8 *80:16 *131:6 7.14623e-05
9 *80:18 *81:46 0
10 *80:18 *85:14 0.0698544
11 *80:18 *91:22 0
12 *80:22 io_out[22] 0.00495257
13 *80:22 io_out[23] 0.000261416
14 *80:22 *114:18 0.000755143
15 *80:22 *118:18 0.068163
16 io_oeb[16] *80:22 0.0168557
17 *47:21 *80:18 0
18 *48:41 *80:18 0.00119274
19 *73:43 *80:16 0.000533923
20 *76:20 *80:16 0.000646192
21 *76:26 *80:22 0.000399893
22 *78:35 *80:22 0.06801
*RES
1 *988:io_oeb[13] *80:16 1.81812 
2 *80:16 *80:18 384.882 
3 *80:18 *80:20 0.5 
4 *80:20 *80:22 116.775 
5 *80:22 io_oeb[20] 2.0825 
*END

*D_NET *81 0.396419
*CONN
*P io_oeb[21] O
*I *988:io_oeb[14] O *D soc_sys
*CAP
1 io_oeb[21] 0.0696585
2 *988:io_oeb[14] 0.0127144
3 *81:54 0.0696585
4 *81:52 0.0145266
5 *81:50 0.0145266
6 *81:48 0.0628663
7 *81:46 0.0755808
8 *81:46 *82:20 0.00493446
9 *81:46 *112:14 0.000627023
10 *81:46 *114:14 0
11 *81:46 *131:6 0.000123868
12 *81:48 *114:14 0
13 *81:48 *802:5 0.00492531
14 *81:52 *985:finetune 2.59868e-05
15 *81:52 *985:CurrAbsTrim[4] 1.75162e-05
16 *81:52 *985:mux1sel[0] 0.000104904
17 *81:52 *985:dft_sel 0.000417803
18 *81:52 *985:pd 0.000126649
19 *81:52 *985:trimTC[6] 0.000278893
20 *81:52 *985:trimTC[5] 2.71463e-05
21 *81:52 *985:trimTC[4] 1.45731e-05
22 *81:52 *985:trimTC[3] 3.14448e-05
23 *81:52 *985:trimTC[2] 8.37733e-06
24 *81:52 *985:trimTC[1] 4.2782e-05
25 *81:52 *985:inl_ctrl[1] 0.000334767
26 *81:52 *985:inl_ctrl[5] 1.18044e-05
27 *81:52 *985:inl_ctrl[2] 0.000531803
28 *81:52 *116:16 0.0420451
29 *19:15 *81:48 0.00999583
30 *72:26 *81:52 0.00736013
31 *76:20 *81:46 0.000772458
32 *77:21 *81:46 0.00291091
33 *80:16 *81:46 0.00121819
34 *80:18 *81:46 0
*RES
1 *988:io_oeb[14] *81:46 13.5036 
2 *81:46 *81:48 166.057 
3 *81:48 *81:50 0.5 
4 *81:50 *81:52 62.4707 
5 *81:52 *81:54 0.5 
6 *81:54 io_oeb[21] 1267.4 
*END

*D_NET *82 0.34895
*CONN
*P io_oeb[22] O
*I *988:io_oeb[15] O *D soc_sys
*CAP
1 io_oeb[22] 0.0033057
2 *988:io_oeb[15] 0.00751889
3 *82:22 0.127565
4 *82:20 0.131779
5 io_oeb[22] io_out[22] 0.0171889
6 *82:20 *131:6 0.000188557
7 *82:22 *104:22 0.0385982
8 *82:22 *105:14 0
9 *82:22 *141:23 0
10 io_oeb[16] io_oeb[22] 0.00309311
11 *75:14 *82:22 0
12 *76:26 io_oeb[22] 0.00992626
13 *77:21 *82:20 0.00485233
14 *81:46 *82:20 0.00493446
*RES
1 *988:io_oeb[15] *82:20 3.20092 
2 *82:20 *82:22 382.47 
3 *82:22 io_oeb[22] 29.5839 
*END

*D_NET *83 0.377921
*CONN
*P io_oeb[23] O
*I *988:io_oeb[16] O *D soc_sys
*CAP
1 io_oeb[23] 0.00195248
2 *988:io_oeb[16] 0.00134638
3 *83:17 0.0727886
4 *83:15 0.0721825
5 *83:15 io_oeb[34] 8.30842e-05
6 *83:15 io_oeb[35] 8.30842e-05
7 *83:15 *84:7 0
8 *83:17 io_oeb[34] 0.0019309
9 *83:17 *84:17 0.0104811
10 *83:17 *89:15 0.000731969
11 *83:17 *122:9 0.140387
12 *50:17 *83:17 0.00412732
13 *50:19 *83:15 0.00131918
14 *50:19 *83:17 0.0452504
15 *51:17 *83:17 0.00398353
16 *53:13 *83:17 0.00132774
17 *53:15 *83:17 0.00677675
18 *55:17 *83:17 0.00416388
19 *56:17 *83:17 0.0038567
20 *57:11 *83:17 0.00210305
21 *69:9 *83:15 0.00304485
*RES
1 *988:io_oeb[16] *83:15 38.0465 
2 *83:15 *83:17 2228.29 
3 *83:17 io_oeb[23] 9.48223 
*END

*D_NET *84 0.431349
*CONN
*P io_oeb[24] O
*I *988:io_oeb[17] O *D soc_sys
*CAP
1 io_oeb[24] 0.000274631
2 *988:io_oeb[17] 0.000678804
3 *84:17 0.0241226
4 *84:15 0.0239576
5 *84:9 0.0306909
6 *84:7 0.03126
7 *84:9 io_oeb[34] 0.00222977
8 *84:9 *89:25 0.00228173
9 *84:9 *93:9 0.00784023
10 *84:9 *122:9 0.139142
11 *84:9 *123:9 0.100001
12 *84:9 *123:17 0.00841033
13 *84:9 *127:23 0.000381431
14 *84:17 *122:9 0.000660752
15 *84:17 *122:17 0.00175957
16 *84:17 *123:17 0.0359613
17 *51:17 *84:9 0.00413397
18 *53:15 *84:9 0.00705869
19 *77:21 *84:7 2.20228e-05
20 *83:15 *84:7 0
21 *83:17 *84:17 0.0104811
*RES
1 *988:io_oeb[17] *84:7 1.83 
2 *84:7 *84:9 1557.14 
3 *84:9 *84:15 1.24193 
4 *84:15 *84:17 65.6089 
5 *84:17 io_oeb[24] 1.25113 
*END

*D_NET *85 0.370099
*CONN
*P io_oeb[25] O
*I *988:io_oeb[18] O *D soc_sys
*CAP
1 io_oeb[25] 0.00454931
2 *988:io_oeb[18] 0.00401435
3 *85:14 0.0592195
4 *85:12 0.0586845
5 *85:12 *88:10 0.00421985
6 *85:12 *131:6 0.000322244
7 *85:14 *682:5 0.00335589
8 *47:21 *85:14 0.00495457
9 *47:23 *85:14 0.0692733
10 *48:15 *85:14 0.0916507
11 *80:18 *85:14 0.0698544
*RES
1 *988:io_oeb[18] *85:12 2.64156 
2 *85:12 *85:14 319.076 
3 *85:14 io_oeb[25] 11.9925 
*END

*D_NET *86 0.358568
*CONN
*P io_oeb[26] O
*I *988:io_oeb[19] O *D soc_sys
*CAP
1 io_oeb[26] 0.0012107
2 *988:io_oeb[19] 0.000137275
3 *86:17 0.0381737
4 *86:15 0.0372697
5 *86:9 0.0029006
6 *86:7 0.00273121
7 *86:9 *129:11 0
8 *86:9 *130:11 0
9 *86:9 *130:19 0.000729309
10 *86:15 *126:23 2.85318e-05
11 *86:15 *129:17 0
12 *86:17 *126:25 0.118203
13 *46:11 *86:17 0.149962
14 *46:17 *86:15 0.000622043
15 *51:19 *86:9 0.0066011
*RES
1 *988:io_oeb[19] *86:7 0.839467 
2 *86:7 *86:9 74.055 
3 *86:9 *86:15 2.05767 
4 *86:15 *86:17 273.856 
5 *86:17 io_oeb[26] 3.37913 
*END

*D_NET *87 0.241018
*CONN
*P io_oeb[27] O
*I *988:io_oeb[20] O *D soc_sys
*CAP
1 io_oeb[27] 0.00354393
2 *988:io_oeb[20] 0.00446074
3 *87:25 0.109399
4 *87:23 0.110316
5 *87:23 io_oeb[35] 5.6308e-05
6 *87:23 *88:10 5.84044e-05
7 *87:23 *89:15 0.000374635
8 *87:23 *91:20 0.000173304
9 *87:23 *92:15 1.62118e-05
10 *87:23 *93:9 3.77439e-05
11 *87:23 *94:12 0.000876731
12 *87:23 *122:9 0.000928549
13 *87:23 *127:23 0.00106134
14 *87:25 *844:5 0.00890139
15 *50:19 *87:23 0.000240507
16 *57:11 *87:23 0.000402101
17 *76:20 *87:23 0.000170972
18 *76:22 *87:25 0
*RES
1 *988:io_oeb[20] *87:23 15.0156 
2 *87:23 *87:25 250.341 
3 *87:25 io_oeb[27] 9.2666 
*END

*D_NET *88 0.195865
*CONN
*P io_oeb[28] O
*I *988:io_oeb[21] O *D soc_sys
*CAP
1 io_oeb[28] 0.00596141
2 *988:io_oeb[21] 0.00328115
3 *88:12 0.0661367
4 *88:10 0.0634564
5 *88:10 *91:20 0.00103606
6 *88:12 *120:17 0.0481434
7 *88:12 *121:22 0
8 *88:12 *726:11 0.000236272
9 *48:41 *88:10 0.00102955
10 *76:20 *88:10 0
11 *78:29 *88:10 0.00230602
12 *85:12 *88:10 0.00421985
13 *87:23 *88:10 5.84044e-05
*RES
1 *988:io_oeb[21] *88:10 1.7642 
2 *88:10 *88:12 219.506 
3 *88:12 io_oeb[28] 14.6727 
*END

*D_NET *89 0.22919
*CONN
*P io_oeb[29] O
*I *988:io_oeb[22] O *D soc_sys
*CAP
1 io_oeb[29] 0.000174898
2 *988:io_oeb[22] 0.00134178
3 *89:25 0.0283939
4 *89:23 0.0282506
5 *89:17 0.00265472
6 *89:15 0.00396488
7 io_oeb[29] *123:15 5.71181e-06
8 *89:15 *98:7 0.000306544
9 *89:15 *122:9 0.000642723
10 *89:17 *93:9 0.00356818
11 *89:17 *125:9 0.00896185
12 *89:17 *126:17 0.00369634
13 *89:23 io_oeb[34] 1.42293e-05
14 *89:25 *92:17 0.0538872
15 *89:25 *93:9 0.0357997
16 *89:25 *123:9 0.00317479
17 *89:25 *124:9 0.00577058
18 *89:25 *124:17 0.0364681
19 *89:25 *125:9 0.00203221
20 *49:9 *89:25 1.4641e-05
21 *50:19 *89:15 0.00127385
22 *51:17 *89:25 0.00120643
23 *53:13 *89:25 0
24 *53:15 *89:25 0.00393831
25 *55:17 *89:25 0
26 *57:11 *89:15 0.000259903
27 *83:17 *89:15 0.000731969
28 *84:9 *89:25 0.00228173
29 *87:23 *89:15 0.000374635
*RES
1 *988:io_oeb[22] *89:15 28.2543 
2 *89:15 *89:17 100.575 
3 *89:17 *89:23 1.06713 
4 *89:23 *89:25 164.897 
5 *89:25 io_oeb[29] 0.8762 
*END

*D_NET *91 0.136145
*CONN
*P io_oeb[30] O
*I *988:io_oeb[23] O *D soc_sys
*CAP
1 io_oeb[30] 0.00510799
2 *988:io_oeb[23] 0.00487008
3 *91:22 0.0603377
4 *91:20 0.0600998
5 *91:20 *94:14 0
6 *91:20 *127:23 0.00198196
7 *91:20 *131:6 7.14623e-05
8 *91:22 *693:7 0.00165408
9 *73:43 *91:20 0.000224968
10 *76:20 *91:20 0.000587452
11 *78:29 *91:20 0
12 *80:18 *91:22 0
13 *87:23 *91:20 0.000173304
14 *88:10 *91:20 0.00103606
*RES
1 *988:io_oeb[23] *91:20 5.32015 
2 *91:20 *91:22 149.221 
3 *91:22 io_oeb[30] 12.9247 
*END

*D_NET *92 0.145163
*CONN
*P io_oeb[31] O
*I *988:io_oeb[24] O *D soc_sys
*CAP
1 io_oeb[31] 0.000200953
2 *988:io_oeb[24] 0.00125414
3 *92:17 0.0146873
4 *92:15 0.0157405
5 io_oeb[31] *124:15 2.38374e-05
6 *92:15 io_oeb[35] 0.000243014
7 *92:15 *93:7 0
8 *92:15 *126:17 0.00184363
9 *92:17 io_out[34] 0.00766303
10 *92:17 *93:9 0.00520532
11 *92:17 *125:19 0.00757255
12 *92:17 *125:21 0.0138985
13 *92:17 *126:17 0.000894648
14 *46:19 *92:15 0.00185095
15 *46:19 *92:17 0.00159675
16 *49:9 io_oeb[31] 0.000234659
17 *49:9 *92:17 0.0181447
18 *56:17 *92:17 0.000205264
19 *87:23 *92:15 1.62118e-05
20 *89:25 *92:17 0.0538872
*RES
1 *988:io_oeb[24] *92:15 23.81 
2 *92:15 *92:17 115.112 
3 *92:17 io_oeb[31] 1.01807 
*END

*D_NET *93 0.141895
*CONN
*P io_oeb[32] O
*I *988:io_oeb[25] O *D soc_sys
*CAP
1 io_oeb[32] 0.000276089
2 *988:io_oeb[25] 0.000835174
3 *93:9 0.0149506
4 *93:7 0.0155097
5 *93:9 io_oeb[34] 0.0100139
6 *93:9 io_oeb[35] 0.000535388
7 *93:9 io_out[34] 1.67877e-05
8 *93:9 *98:9 0.000209358
9 *93:9 *113:9 0.00116227
10 *93:9 *123:9 0.00632187
11 *93:9 *124:9 0.0113307
12 *93:9 *125:9 0.00218644
13 *988:io_in[28] *93:9 0.0002657
14 *49:9 io_oeb[32] 0.000234659
15 *49:15 io_oeb[32] 0.000242259
16 *49:17 *93:9 0.015991
17 *55:17 *93:9 0.00115356
18 *56:17 *93:9 0.00697279
19 *57:11 *93:9 0.00123549
20 *84:9 *93:9 0.00784023
21 *87:23 *93:9 3.77439e-05
22 *89:17 *93:9 0.00356818
23 *89:25 *93:9 0.0357997
24 *92:15 *93:7 0
25 *92:17 *93:9 0.00520532
*RES
1 *988:io_oeb[25] *93:7 2.03393 
2 *93:7 *93:9 85.0516 
3 *93:9 io_oeb[32] 1.25113 
*END

*D_NET *94 0.0586139
*CONN
*P io_oeb[33] O
*I *988:io_oeb[26] O *D soc_sys
*CAP
1 io_oeb[33] 0.00304173
2 *988:io_oeb[26] 0.00196593
3 *94:14 0.0221577
4 *94:12 0.0210819
5 *94:12 *131:6 0.000159283
6 *94:14 *127:25 0
7 *94:14 *811:5 0.00923498
8 *76:20 *94:14 9.57856e-05
9 *87:23 *94:12 0.000876731
10 *91:20 *94:14 0
*RES
1 *988:io_oeb[26] *94:12 1.50147 
2 *94:12 *94:14 51.2873 
3 *94:14 io_oeb[33] 7.5186 
*END

*D_NET *95 0.030537
*CONN
*P io_oeb[34] O
*I *988:io_oeb[27] O *D soc_sys
*CAP
1 io_oeb[34] 0.0041017
2 *988:io_oeb[27] 0.0041017
3 io_oeb[34] io_oeb[35] 0
4 io_oeb[34] *122:9 0.0020749
5 io_oeb[34] *123:9 0.00198645
6 io_oeb[34] *130:17 3.42936e-05
7 *57:11 io_oeb[34] 0.00396609
8 *83:15 io_oeb[34] 8.30842e-05
9 *83:17 io_oeb[34] 0.0019309
10 *84:9 io_oeb[34] 0.00222977
11 *89:23 io_oeb[34] 1.42293e-05
12 *93:9 io_oeb[34] 0.0100139
*RES
1 *988:io_oeb[27] io_oeb[34] 21.4111 
*END

*D_NET *96 0.024311
*CONN
*P io_oeb[35] O
*I *988:io_oeb[28] O *D soc_sys
*CAP
1 io_oeb[35] 0.00336232
2 *988:io_oeb[28] 0.00336232
3 io_oeb[35] io_out[35] 0.00406525
4 io_oeb[35] *97:7 0
5 io_oeb[35] *126:17 0.00185494
6 io_oeb[35] *127:23 0.0014932
7 io_oeb[35] *130:17 2.79383e-05
8 io_oeb[34] io_oeb[35] 0
9 *988:io_in[28] io_oeb[35] 0.00842415
10 *78:9 io_oeb[35] 0.000803037
11 *83:15 io_oeb[35] 8.30842e-05
12 *87:23 io_oeb[35] 5.6308e-05
13 *92:15 io_oeb[35] 0.000243014
14 *93:9 io_oeb[35] 0.000535388
*RES
1 *988:io_oeb[28] io_oeb[35] 18.2241 
*END

*D_NET *97 0.047028
*CONN
*P io_oeb[36] O
*I *988:io_oeb[29] O *D soc_sys
*CAP
1 io_oeb[36] 0.00222403
2 *988:io_oeb[29] 0.00103387
3 *97:9 0.00872803
4 *97:7 0.00753786
5 io_oeb[36] io_out[36] 2.20023e-05
6 *97:7 *98:7 0
7 io_oeb[35] *97:7 0
8 *988:io_in[28] io_oeb[36] 0.000392405
9 *988:io_in[28] *97:9 0.00771338
10 *988:io_in[30] io_oeb[36] 0.00247871
11 *46:19 *97:9 0.0168977
*RES
1 *988:io_oeb[29] *97:7 2.3544 
2 *97:7 *97:9 188.805 
3 *97:9 io_oeb[36] 10.4287 
*END

*D_NET *98 0.0782224
*CONN
*P io_oeb[37] O
*I *988:io_oeb[30] O *D soc_sys
*CAP
1 io_oeb[37] 0.00762511
2 *988:io_oeb[30] 0.000825143
3 *98:9 0.0110921
4 *98:7 0.00429209
5 io_oeb[37] io_out[36] 0.000103315
6 io_oeb[37] io_out[37] 0.00789359
7 *98:9 io_out[35] 0.000919237
8 *98:9 io_out[36] 0.000401705
9 *98:9 *108:17 0
10 *98:9 *113:9 0.00175811
11 *98:9 *119:9 0
12 *98:9 *125:9 0.0112011
13 *98:9 *126:17 0.00790016
14 *98:9 *127:23 0.000631426
15 *98:9 *136:9 0.00868133
16 *988:io_in[28] *98:9 0.000908768
17 *988:io_in[30] io_oeb[37] 0.00913088
18 *43:21 io_oeb[37] 0.00401249
19 *78:9 *98:9 0.000330072
20 *89:15 *98:7 0.000306544
21 *93:9 *98:9 0.000209358
22 *97:7 *98:7 0
*RES
1 *988:io_oeb[30] *98:7 2.12133 
2 *98:7 *98:9 191.865 
3 *98:9 io_oeb[37] 35.3149 
*END

*D_NET *103 0.407999
*CONN
*P io_oeb[7] O
*I *988:io_oeb[0] O *D soc_sys
*CAP
1 io_oeb[7] 0.127761
2 *988:io_oeb[0] 0.0136113
3 *103:25 0.127761
4 *103:23 0.0574323
5 *103:21 0.0710436
6 *103:21 io_out[35] 1.40868e-05
7 *103:21 io_out[36] 2.25816e-05
8 *103:21 *130:11 0
9 *103:21 *136:7 0
10 *103:21 *143:29 0.00682177
11 *103:23 *818:7 0.000204604
12 *51:19 *103:21 0.000631816
13 *73:43 *103:21 0.00269584
*RES
1 *988:io_oeb[0] *103:21 12.6222 
2 *103:21 *103:23 152.839 
3 *103:23 *103:25 0.5 
4 *103:25 io_oeb[7] 335.169 
*END

*D_NET *104 0.458062
*CONN
*P io_oeb[8] O
*I *988:io_oeb[1] O *D soc_sys
*CAP
1 io_oeb[8] 0.14075
2 *988:io_oeb[1] 0.00853316
3 *104:24 0.14075
4 *104:22 0.0462055
5 *104:20 0.0547386
6 *104:20 *105:12 0.00654835
7 *104:20 *131:6 0.000254348
8 *104:22 *116:12 0
9 *104:22 *141:23 0
10 *104:22 *794:5 0.00704143
11 *73:43 *104:20 0.00198196
12 *75:14 *104:22 0.0126607
13 *82:22 *104:22 0.0385982
*RES
1 *988:io_oeb[1] *104:20 4.70918 
2 *104:20 *104:22 184.363 
3 *104:22 *104:24 0.5 
4 *104:24 io_oeb[8] 349.153 
*END

*D_NET *105 0.726045
*CONN
*P io_oeb[9] O
*I *988:io_oeb[2] O *D soc_sys
*CAP
1 io_oeb[9] 0.0111208
2 *988:io_oeb[2] 0.00533653
3 *105:18 0.0897869
4 *105:16 0.0786661
5 *105:14 0.0462923
6 *105:12 0.0516288
7 io_oeb[9] *108:33 0.00571854
8 *105:12 *131:6 0.00013001
9 *105:14 *107:14 0.0122818
10 *105:14 *141:23 0.0307675
11 *105:14 *796:5 0.00609624
12 *105:18 io_out[8] 0.22894
13 *105:18 *985:CurrAbsTrim[5] 0.0118898
14 *105:18 *985:trimTC[6] 0.00344893
15 *105:18 *115:18 0.00327039
16 *70:12 *105:12 0.00903432
17 *70:20 *105:18 0.0975256
18 *70:22 io_oeb[9] 0.013377
19 *72:24 *105:18 0.00383763
20 *72:30 io_oeb[9] 0.0101511
21 *74:30 *105:18 0.000195952
22 *82:22 *105:14 0
23 *104:20 *105:12 0.00654835
*RES
1 *988:io_oeb[2] *105:12 2.95127 
2 *105:12 *105:14 175.405 
3 *105:14 *105:16 0.5 
4 *105:16 *105:18 347.657 
5 *105:18 io_oeb[9] 43.4954 
*END

*D_NET *107 0.517376
*CONN
*P io_out[10] O
*I *988:io_out[3] O *D soc_sys
*CAP
1 io_out[10] 0.140744
2 *988:io_out[3] 0.00689899
3 *107:16 0.140744
4 *107:14 0.067454
5 *107:12 0.074353
6 *107:12 *109:12 0.000730664
7 *107:12 *142:32 0.00754798
8 *107:14 *109:14 0
9 *107:14 *141:23 0
10 *107:14 *142:32 7.79437e-05
11 *107:14 *143:31 0.0665017
12 *988:io_in[19] *107:12 4.21886e-05
13 *105:14 *107:14 0.0122818
*RES
1 *988:io_out[3] *107:12 2.74163 
2 *107:12 *107:14 258.783 
3 *107:14 *107:16 0.5 
4 *107:16 io_out[10] 347.405 
*END

*D_NET *108 0.869336
*CONN
*P io_out[11] O
*I *988:io_out[4] O *D soc_sys
*CAP
1 io_out[11] 8.28768e-05
2 *988:io_out[4] 0.0011955
3 *108:33 0.0192527
4 *108:31 0.0191698
5 *108:29 0.0441873
6 *108:27 0.0441873
7 *108:25 0.021412
8 *108:23 0.021412
9 *108:21 0.0263884
10 *108:19 0.0263884
11 *108:17 0.00305084
12 *108:15 0.00424634
13 *108:15 io_out[36] 0.000877061
14 *108:15 io_out[37] 1.44071e-06
15 *108:15 *119:9 0.000295846
16 *108:17 io_out[37] 0.00247253
17 *108:17 *119:9 0.00278293
18 *108:17 *136:9 0
19 *108:21 wbs_dat_o[31] 0
20 *108:21 *988:wbs_we_i 0.00534706
21 *108:21 *989:wbs_dat_i[3] 0.00206695
22 *108:21 *989:wbs_dat_i[9] 0
23 *108:21 *618:15 0.00551847
24 *108:21 *629:13 0.0416584
25 *108:21 *630:19 0.00958789
26 *108:21 *631:15 0.000470873
27 *108:21 *637:11 0
28 *108:21 *639:15 0.000403457
29 *108:21 *894:19 0.000312718
30 *108:21 *928:19 0.000138705
31 *108:25 *945:21 0
32 *108:29 *720:9 0
33 *108:29 *732:9 0.00262127
34 io_oeb[9] *108:33 0.00571854
35 *988:io_in[28] *108:15 0
36 *988:io_in[30] *108:15 2.68717e-05
37 *31:13 *108:29 5.062e-06
38 *32:13 *108:29 1.33293e-05
39 *33:13 *108:29 0.135239
40 *33:17 *108:25 0.0528441
41 *37:25 *108:29 0
42 *37:33 *108:21 0.10329
43 *39:9 *108:29 0.00767711
44 *40:57 *108:21 0
45 *40:61 *108:17 0.00777299
46 *44:43 *108:21 2.99209e-05
47 *44:45 *108:17 0.00836157
48 *45:25 *108:17 0.000157956
49 *46:19 *108:17 0
50 *54:21 *108:21 0.00605294
51 *57:11 *108:15 0.000868163
52 *65:13 *108:33 0.00946175
53 *66:9 *108:33 0.057143
54 *67:21 *108:21 0.000112847
55 *69:17 *108:33 0.101642
56 *70:22 *108:33 0.00638785
57 *71:17 *108:33 0.00776575
58 *72:30 *108:33 0.0532364
59 *98:9 *108:17 0
*RES
1 *988:io_out[4] *108:15 5.72053 
2 *108:15 *108:17 140.865 
3 *108:17 *108:19 0.5 
4 *108:19 *108:21 160.621 
5 *108:21 *108:23 0.5 
6 *108:23 *108:25 598.208 
7 *108:25 *108:27 2 
8 *108:27 *108:29 1232.79 
9 *108:29 *108:31 2 
10 *108:31 *108:33 1286.45 
11 *108:33 io_out[11] 0.664667 
*END

*D_NET *109 0.816265
*CONN
*P io_out[12] O
*I *988:io_out[5] O *D soc_sys
*CAP
1 io_out[12] 0.000710123
2 *988:io_out[5] 0.00874228
3 *109:30 0.0304166
4 *109:28 0.0297065
5 *109:26 0.030114
6 *109:24 0.0362559
7 *109:14 0.0597468
8 *109:12 0.0623471
9 *109:12 *142:32 0.00778975
10 *109:14 *143:31 0
11 *109:14 *798:5 0.00553649
12 *109:24 *985:CurrAbsTrim[5] 0.00276218
13 *109:24 *837:5 9.65729e-05
14 *109:26 io_out[8] 0.00294762
15 *109:26 *116:16 0.0211305
16 *988:io_in[19] *109:12 9.59476e-05
17 *31:9 *109:30 0.0310036
18 *32:9 *109:30 0.0103773
19 *33:9 *109:30 0.00767257
20 *34:9 *109:30 0
21 *67:9 *109:30 0.00211255
22 *70:20 *109:24 0.00276476
23 *72:24 *109:24 0.00851232
24 *72:26 *109:26 0.21112
25 *74:30 *109:24 0.00192024
26 *74:32 *109:26 0.188884
27 *77:23 *109:14 0.0527688
28 *107:12 *109:12 0.000730664
29 *107:14 *109:14 0
*RES
1 *988:io_out[5] *109:12 3.01142 
2 *109:12 *109:14 190.134 
3 *109:14 *109:24 29.9508 
4 *109:24 *109:26 1908.99 
5 *109:26 *109:28 2 
6 *109:28 *109:30 795.323 
7 *109:30 io_out[12] 2.23787 
*END

*D_NET *110 0.922954
*CONN
*P io_out[13] O
*I *988:io_out[6] O *D soc_sys
*CAP
1 io_out[13] 0.000849934
2 *988:io_out[6] 0.000182265
3 *110:25 0.025655
4 *110:23 0.024805
5 *110:21 0.049543
6 *110:19 0.049543
7 *110:17 0.0170191
8 *110:15 0.0170191
9 *110:13 0.0385248
10 *110:11 0.0385248
11 *110:9 0.00488318
12 *110:7 0.00506544
13 *110:7 *111:7 0
14 *110:13 *989:wbs_adr_i[5] 0.000598949
15 *110:13 *926:19 0.00129722
16 *110:17 *927:13 0.0210317
17 *110:21 *715:9 0
18 *988:io_in[22] *110:9 0
19 *988:io_in[29] *110:9 0.000296825
20 *31:17 *110:17 0.0499044
21 *33:9 *110:25 1.07797e-05
22 *34:9 *110:25 0.146149
23 *35:9 *110:25 0.150579
24 *35:21 *110:13 0.10776
25 *38:33 *110:9 0.00604532
26 *39:21 *110:9 0.00651096
27 *49:33 *110:9 0
28 *51:25 *110:9 0.000121481
29 *53:23 *110:9 0.00370511
30 *65:17 *110:21 3.526e-05
31 *66:17 *110:9 0
32 *67:9 *110:25 0.0195365
33 *67:13 *110:21 0.137756
*RES
1 *988:io_out[6] *110:7 0.897733 
2 *110:7 *110:9 152.595 
3 *110:9 *110:11 0.5 
4 *110:11 *110:13 161.495 
5 *110:13 *110:15 0.5 
6 *110:15 *110:17 577.935 
7 *110:17 *110:19 0.5 
8 *110:19 *110:21 204.496 
9 *110:21 *110:23 0.5 
10 *110:23 *110:25 1694.83 
11 *110:25 io_out[13] 2.5292 
*END

*D_NET *111 0.815908
*CONN
*P io_out[14] O
*I *988:io_out[7] O *D soc_sys
*CAP
1 io_out[14] 0.000216737
2 *988:io_out[7] 0.000356518
3 *111:17 0.0794263
4 *111:15 0.0792096
5 *111:13 0.0882734
6 *111:11 0.0882734
7 *111:9 0.003993
8 *111:7 0.00434952
9 *111:9 *127:9 0.000981448
10 *111:9 *143:9 0.0046294
11 *111:13 *671:8 0
12 *111:13 *696:8 6.83077e-06
13 *111:13 *697:8 2.46166e-05
14 *111:13 *700:6 0
15 *111:13 *701:8 1.37473e-05
16 *111:13 *702:8 6.83077e-06
17 *111:13 *703:12 1.37473e-05
18 *111:13 *705:8 6.83077e-06
19 *111:13 *706:8 6.83077e-06
20 *111:13 *707:8 6.83077e-06
21 *111:13 *708:8 1.37473e-05
22 *111:13 *709:8 6.83077e-06
23 *111:13 *710:12 6.83077e-06
24 *111:13 *711:12 2.70087e-05
25 *111:13 *712:8 1.37473e-05
26 *111:13 *713:8 6.83077e-06
27 *111:13 *714:8 1.37473e-05
28 *111:13 *717:12 1.37473e-05
29 *111:13 *718:8 6.83077e-06
30 *111:13 *719:8 1.37473e-05
31 *111:13 *721:8 1.37473e-05
32 *111:13 *722:8 1.37499e-05
33 *111:13 *723:8 2.08678e-05
34 *111:13 *724:8 6.83077e-06
35 *111:13 *725:8 1.37473e-05
36 *111:13 *727:8 6.83077e-06
37 *111:13 *728:22 4.47945e-05
38 *111:13 *729:8 6.83077e-06
39 *111:13 *730:8 1.37473e-05
40 *111:13 *731:8 6.83077e-06
41 *111:13 *733:8 6.83077e-06
42 *111:13 *734:8 1.37473e-05
43 *111:13 *735:12 1.27594e-05
44 *111:13 *736:8 1.37473e-05
45 *111:13 *738:8 6.83077e-06
46 *111:13 *739:8 6.83077e-06
47 *111:13 *741:8 1.37473e-05
48 *111:13 *742:8 6.83077e-06
49 *111:13 *743:8 6.83077e-06
50 *111:13 *744:8 6.83077e-06
51 *111:13 *745:8 1.37473e-05
52 *111:13 *746:8 6.83077e-06
53 *111:13 *747:8 1.37473e-05
54 *111:13 *749:8 6.83077e-06
55 *111:13 *750:8 1.37473e-05
56 *111:13 *751:8 3.05452e-05
57 *111:13 *752:8 1.37473e-05
58 *111:13 *753:8 6.83077e-06
59 *111:13 *755:22 0.00576465
60 *111:13 *756:8 1.37473e-05
61 *111:13 *757:8 6.83077e-06
62 *111:13 *760:8 6.35723e-05
63 *111:13 *761:8 1.37473e-05
64 *111:13 *762:8 6.83077e-06
65 *111:13 *764:8 6.83077e-06
66 *111:13 *765:8 1.37473e-05
67 *111:13 *767:8 1.27594e-05
68 *111:13 *768:8 6.83077e-06
69 *111:13 *769:8 1.37473e-05
70 *111:13 *856:8 0.00272236
71 *111:13 *860:8 0.000103899
72 *111:13 *862:20 0
73 *111:13 *863:20 0
74 *48:41 *111:13 0.000912032
75 *65:13 *111:17 0.00930905
76 *66:17 *111:9 0.0185092
77 *69:9 *111:9 0.000300283
78 *69:13 *111:13 0.247071
79 *69:17 *111:17 0.000237126
80 *70:22 *111:17 0.013427
81 *71:9 *111:9 0.0108527
82 *71:13 *111:13 0
83 *71:17 *111:17 0.156273
84 *72:30 *111:17 0
85 *110:7 *111:7 0
*RES
1 *988:io_out[7] *111:7 1.18907 
2 *111:7 *111:9 214.305 
3 *111:9 *111:11 0.5 
4 *111:11 *111:13 368.283 
5 *111:13 *111:15 0.5 
6 *111:15 *111:17 2098.91 
7 *111:17 io_out[14] 4.01313 
*END

*D_NET *112 0.577117
*CONN
*P io_out[15] O
*I *986:lpwr I *D CF_BUF_HIZ
*I *986:rc I *D CF_BUF_HIZ
*I *986:clk_chop I *D CF_BUF_HIZ
*I *986:rail I *D CF_BUF_HIZ
*I *988:io_out[8] O *D soc_sys
*CAP
1 io_out[15] 0.0147349
2 *986:lpwr 0.011855
3 *986:rc 4.75075e-05
4 *986:clk_chop 7.89038e-05
5 *986:rail 0.000533225
6 *988:io_out[8] 0.00541026
7 *112:57 0.137313
8 *112:55 0.134354
9 *112:31 0.000643869
10 *112:18 0.0980489
11 *112:16 0.0980489
12 *112:14 0.0281468
13 *112:12 0.0335571
14 *112:12 *114:12 0.00269414
15 *112:14 *132:14 0
16 *112:14 *770:5 0.00256278
17 *112:18 *986:gain[0] 0.000880459
18 *112:18 *811:9 0
19 *112:18 *858:11 0
20 *112:18 *867:11 0.0066121
21 *986:vgnd_core *112:55 0
22 *986:vpwr_core *112:55 0
23 *988:io_in[19] *112:12 4.21886e-05
24 *37:11 io_out[15] 1.00909e-05
25 *48:41 *112:14 0.000917126
26 *72:14 *112:14 0
27 *81:46 *112:14 0.000627023
*RES
1 *988:io_out[8] *112:12 2.19308 
2 *112:12 *112:14 74.8879 
3 *112:14 *112:16 0.5 
4 *112:16 *112:18 257.344 
5 *112:18 *986:rail 0.5 
6 *986:rail *112:31 9.525 
7 *112:31 *986:clk_chop 0.57 
8 *986:clk_chop *986:rc 0.8625 
9 *112:31 *986:lpwr 1.4325 
10 *986:lpwr *112:55 31.7154 
11 *112:55 *112:57 326.397 
12 *112:57 io_out[15] 41.7287 
*END

*D_NET *113 0.685508
*CONN
*P io_out[16] O
*I *988:io_out[9] O *D soc_sys
*CAP
1 io_out[16] 0.00017605
2 *988:io_out[9] 0.000752474
3 *113:17 0.134967
4 *113:15 0.134791
5 *113:13 0.0708615
6 *113:11 0.0708615
7 *113:9 0.00363265
8 *113:7 0.00438512
9 *113:9 io_out[35] 0.000942441
10 *113:9 io_out[36] 0.000359245
11 *113:9 *119:9 0
12 *113:9 *122:9 0
13 *113:9 *123:9 0.000154795
14 *113:9 *124:9 0.0159094
15 *113:9 *125:9 0.015647
16 *113:9 *127:23 0.000557071
17 *113:13 *692:11 0.000321012
18 *988:io_in[28] *113:9 0.00029306
19 *49:23 *113:13 0.0256303
20 *50:19 *113:9 0
21 *69:13 *113:13 0.202346
22 *71:13 *113:13 0
23 *93:9 *113:9 0.00116227
24 *98:9 *113:9 0.00175811
*RES
1 *988:io_out[9] *113:7 2.0048 
2 *113:7 *113:9 209.205 
3 *113:9 *113:11 0.5 
4 *113:11 *113:13 302.646 
5 *113:13 *113:15 0.5 
6 *113:15 *113:17 366.966 
7 *113:17 io_out[16] 3.2179 
*END

*D_NET *114 0.644947
*CONN
*P io_out[17] O
*I *988:io_out[10] O *D soc_sys
*CAP
1 io_out[17] 0.000102355
2 *988:io_out[10] 0.00740911
3 *114:18 0.069015
4 *114:16 0.0689127
5 *114:14 0.109473
6 *114:12 0.116882
7 *114:12 *115:12 0.00299891
8 *114:12 *116:10 0.000119303
9 *114:12 *118:12 5.67524e-05
10 *114:14 *803:5 0.00513497
11 io_oeb[16] *114:18 0.037505
12 *988:io_in[19] *114:12 0.000100736
13 *38:13 *114:18 0.00598634
14 *40:11 *114:18 0.000170787
15 *45:15 *114:18 0.00386766
16 *73:45 *114:14 0.118025
17 *76:26 *114:18 0
18 *78:35 *114:18 0.0957385
19 *80:22 *114:18 0.000755143
20 *81:46 *114:14 0
21 *81:48 *114:14 0
22 *112:12 *114:12 0.00269414
*RES
1 *988:io_out[10] *114:12 3.2796 
2 *114:12 *114:14 402.281 
3 *114:14 *114:16 0.5 
4 *114:16 *114:18 236.222 
5 *114:18 io_out[17] 1.8575 
*END

*D_NET *115 0.656275
*CONN
*P io_out[18] O
*I *988:io_out[11] O *D soc_sys
*CAP
1 io_out[18] 0.0724858
2 *988:io_out[11] 0.00425767
3 *115:20 0.0724858
4 *115:18 0.0223227
5 *115:16 0.0223227
6 *115:14 0.0511613
7 *115:12 0.055419
8 *115:12 *116:10 0.00769084
9 *115:14 *116:12 0
10 *115:14 *791:7 0.00184309
11 *115:18 io_out[8] 0.128783
12 *115:18 *116:16 0.00145156
13 *988:io_in[19] *115:12 4.21886e-05
14 *70:20 *115:18 0.0274905
15 *72:24 *115:18 0.000457937
16 *74:14 *115:14 0.054376
17 *74:30 *115:18 0.000981481
18 *77:27 *115:18 0.126434
19 *105:18 *115:18 0.00327039
20 *114:12 *115:12 0.00299891
*RES
1 *988:io_out[11] *115:12 2.37593 
2 *115:12 *115:14 187.206 
3 *115:14 *115:16 0.5 
4 *115:16 *115:18 202.252 
5 *115:18 *115:20 0.5 
6 *115:20 io_out[18] 1268.93 
*END

*D_NET *116 0.5735
*CONN
*P io_out[19] O
*I *988:io_out[12] O *D soc_sys
*CAP
1 io_out[19] 0.0696422
2 *988:io_out[12] 0.00478867
3 *116:18 0.0696422
4 *116:16 0.0297294
5 *116:14 0.0297294
6 *116:12 0.0534359
7 *116:10 0.0582246
8 *116:10 *118:12 0.0020521
9 *74:14 *116:12 0
10 *74:32 *116:16 0.0405952
11 *75:14 *116:12 0.0376198
12 *77:27 *116:16 0.105603
13 *81:52 *116:16 0.0420451
14 *104:22 *116:12 0
15 *109:26 *116:16 0.0211305
16 *114:12 *116:10 0.000119303
17 *115:12 *116:10 0.00769084
18 *115:14 *116:12 0
19 *115:18 *116:16 0.00145156
*RES
1 *988:io_out[12] *116:10 2.34932 
2 *116:10 *116:12 186.947 
3 *116:12 *116:14 0.5 
4 *116:14 *116:16 160.184 
5 *116:16 *116:18 0.5 
6 *116:18 io_out[19] 1267.91 
*END

*D_NET *118 0.539298
*CONN
*P io_out[20] O
*I *988:io_out[13] O *D soc_sys
*CAP
1 io_out[20] 0.000131549
2 *988:io_out[13] 0.00926015
3 *118:18 0.0118426
4 *118:16 0.0117111
5 *118:14 0.106216
6 *118:12 0.115476
7 *118:12 *121:20 0.00168301
8 *118:18 io_out[21] 0.00116944
9 *118:18 io_out[22] 0.0195886
10 io_oeb[16] *118:18 0.0166214
11 *988:io_in[19] *118:12 0.000276378
12 *42:9 *118:18 0.0452992
13 *44:11 *118:18 0.00449792
14 *76:26 *118:18 0.00117357
15 *78:31 *118:14 0.120056
16 *78:35 *118:18 0.00402254
17 *80:22 *118:18 0.068163
18 *114:12 *118:12 5.67524e-05
19 *116:10 *118:12 0.0020521
*RES
1 *988:io_out[13] *118:12 3.97925 
2 *118:12 *118:14 399.438 
3 *118:14 *118:16 0.5 
4 *118:16 *118:18 111.298 
5 *118:18 io_out[20] 2.5925 
*END

*D_NET *119 0.476162
*CONN
*P io_out[21] O
*I *988:io_out[14] O *D soc_sys
*CAP
1 io_out[21] 0.00353729
2 *988:io_out[14] 0.000642414
3 *119:17 0.164724
4 *119:15 0.161187
5 *119:13 0.0170825
6 *119:11 0.0170825
7 *119:9 0.00535912
8 *119:7 0.00600153
9 *119:7 *120:15 0
10 *119:9 io_out[37] 0.00122699
11 *119:13 *541:57 0.00402079
12 *119:17 *876:5 0.000633896
13 io_oeb[16] io_out[21] 0.00352149
14 *988:io_in[29] *119:7 0
15 *988:io_in[2] *119:9 0.00101437
16 *32:49 *119:13 0.000241453
17 *35:21 *119:13 0
18 *40:61 *119:9 0.0071899
19 *42:9 io_out[21] 0.0175578
20 *43:11 io_out[21] 0.0120042
21 *43:17 *119:13 0.0144917
22 *45:23 *119:13 0.020715
23 *47:39 *119:9 0.00880922
24 *50:19 *119:9 0
25 *57:11 *119:9 0.000521786
26 *76:26 io_out[21] 0.00434867
27 *98:9 *119:9 0
28 *108:15 *119:9 0.000295846
29 *108:17 *119:9 0.00278293
30 *113:9 *119:9 0
31 *118:18 io_out[21] 0.00116944
*RES
1 *988:io_out[14] *119:7 1.77173 
2 *119:7 *119:9 181.155 
3 *119:9 *119:11 0.5 
4 *119:11 *119:13 67.8313 
5 *119:13 *119:15 0.5 
6 *119:15 *119:17 430.102 
7 *119:17 io_out[21] 33.1964 
*END

*D_NET *120 0.397767
*CONN
*P io_out[22] O
*I *988:io_out[15] O *D soc_sys
*CAP
1 io_out[22] 0.00537203
2 *988:io_out[15] 0.00717996
3 *120:17 0.131562
4 *120:15 0.13337
5 io_out[22] io_out[23] 0.000261416
6 *120:15 io_out[36] 0.000736864
7 *120:17 *121:22 0
8 *120:17 *737:5 0.0176455
9 io_oeb[16] io_out[22] 0.00485528
10 io_oeb[22] io_out[22] 0.0171889
11 *57:11 *120:15 0.000703655
12 *76:26 io_out[22] 0.00468404
13 *78:29 *120:15 0.00152291
14 *80:22 io_out[22] 0.00495257
15 *88:12 *120:17 0.0481434
16 *118:18 io_out[22] 0.0195886
17 *119:7 *120:15 0
*RES
1 *988:io_out[15] *120:15 5.6359 
2 *120:15 *120:17 396.768 
3 *120:17 io_out[22] 45.7382 
*END

*D_NET *121 0.3835
*CONN
*P io_out[23] O
*I *988:io_out[16] O *D soc_sys
*CAP
1 io_out[23] 0.000216578
2 *988:io_out[16] 0.00626982
3 *121:30 0.09635
4 *121:28 0.0970241
5 *121:22 0.0831748
6 *121:20 0.088554
7 *121:20 *132:12 0.000259238
8 *121:22 *715:5 0.00813588
9 *121:30 *656:17 0.000950952
10 io_out[22] io_out[23] 0.000261416
11 *988:io_in[19] *121:20 4.21886e-05
12 *48:41 *121:20 0.000316246
13 *80:22 io_out[23] 0.000261416
14 *88:12 *121:22 0
15 *118:12 *121:20 0.00168301
16 *120:17 *121:22 0
*RES
1 *988:io_out[16] *121:20 5.78658 
2 *121:20 *121:22 181.004 
3 *121:22 *121:28 3.36867 
4 *121:28 *121:30 213.735 
5 *121:30 io_out[23] 3.50923 
*END

*D_NET *122 0.439607
*CONN
*P io_out[24] O
*I *988:io_out[17] O *D soc_sys
*CAP
1 io_out[24] 0.000126497
2 *988:io_out[17] 0.000643321
3 *122:17 0.0251487
4 *122:15 0.0253895
5 *122:9 0.0269418
6 *122:7 0.0272177
7 *122:7 *123:7 0
8 *122:9 *123:9 0.0047161
9 *122:17 *123:17 0.0073361
10 *122:17 *124:17 0.00780543
11 io_oeb[34] *122:9 0.0020749
12 *49:9 *122:17 6.58726e-05
13 *50:17 *122:9 0.00287506
14 *50:19 *122:9 0
15 *51:17 *122:9 0.00445435
16 *53:13 *122:9 0.00124073
17 *53:15 *122:9 0.00758554
18 *55:17 *122:9 0.00387778
19 *56:17 *122:9 0.00432105
20 *57:11 *122:9 0.00244411
21 *77:21 *122:9 0.00182189
22 *83:17 *122:9 0.140387
23 *84:9 *122:9 0.139142
24 *84:17 *122:9 0.000660752
25 *84:17 *122:17 0.00175957
26 *87:23 *122:9 0.000928549
27 *89:15 *122:9 0.000642723
28 *113:9 *122:9 0
*RES
1 *988:io_out[17] *122:7 1.77173 
2 *122:7 *122:9 1697.9 
3 *122:9 *122:15 1.76633 
4 *122:15 *122:17 90.9087 
5 *122:17 io_out[24] 0.863533 
*END

*D_NET *123 0.417807
*CONN
*P io_out[25] O
*I *988:io_out[18] O *D soc_sys
*CAP
1 io_out[25] 0.000251229
2 *988:io_out[18] 0.000713571
3 *123:17 0.0256281
4 *123:15 0.0254995
5 *123:9 0.0253488
6 *123:7 0.0259397
7 *123:7 *124:7 0
8 *123:9 *124:9 0.0725602
9 *123:9 *127:23 0.000416506
10 *123:17 *124:17 0.0582511
11 io_oeb[29] *123:15 5.71181e-06
12 io_oeb[34] *123:9 0.00198645
13 *50:17 *123:17 0
14 *51:17 *123:9 0.00399033
15 *51:17 *123:17 0.00108783
16 *53:15 *123:9 0.00921895
17 *57:11 *123:9 0.000832175
18 *84:9 *123:9 0.100001
19 *84:9 *123:17 0.00841033
20 *84:17 *123:17 0.0359613
21 *89:25 *123:9 0.00317479
22 *93:9 *123:9 0.00632187
23 *113:9 *123:9 0.000154795
24 *122:7 *123:7 0
25 *122:9 *123:9 0.0047161
26 *122:17 *123:17 0.0073361
*RES
1 *988:io_out[18] *123:7 1.88827 
2 *123:7 *123:9 1210.84 
3 *123:9 *123:15 1.3002 
4 *123:15 *123:17 139.66 
5 *123:17 io_out[25] 1.1346 
*END

*D_NET *124 0.402313
*CONN
*P io_out[26] O
*I *988:io_out[19] O *D soc_sys
*CAP
1 io_out[26] 0.000197812
2 *988:io_out[19] 0.00074503
3 *124:17 0.0196813
4 *124:15 0.019643
5 *124:9 0.0155326
6 *124:7 0.0161181
7 *124:7 *125:7 0
8 *124:9 io_out[35] 0.000777578
9 *124:9 io_out[36] 0.000401705
10 *124:9 *125:9 2.13396e-05
11 *124:9 *127:23 0.000622912
12 io_oeb[31] *124:15 2.38374e-05
13 *49:9 *124:17 0.0813896
14 *49:17 *124:9 0.0390626
15 *51:17 *124:17 0
16 *89:25 *124:9 0.00577058
17 *89:25 *124:17 0.0364681
18 *93:9 *124:9 0.0113307
19 *113:9 *124:9 0.0159094
20 *122:17 *124:17 0.00780543
21 *123:7 *124:7 0
22 *123:9 *124:9 0.0725602
23 *123:17 *124:17 0.0582511
*RES
1 *988:io_out[19] *124:7 1.94653 
2 *124:7 *124:9 812.535 
3 *124:9 *124:15 1.35847 
4 *124:15 *124:17 173.338 
5 *124:17 io_out[26] 1.01807 
*END

*D_NET *125 0.282242
*CONN
*P io_out[27] O
*I *988:io_out[20] O *D soc_sys
*CAP
1 io_out[27] 3.98181e-05
2 *988:io_out[20] 0.000798246
3 *125:21 0.0484519
4 *125:19 0.0517851
5 *125:9 0.0081043
6 *125:7 0.00552954
7 *125:7 *126:15 0
8 *125:9 io_out[35] 0.00114274
9 *125:9 io_out[36] 0.000359245
10 *125:9 *126:17 2.13396e-05
11 *125:9 *127:23 0.000564685
12 *125:19 io_out[34] 7.07318e-05
13 *49:9 *125:21 0.0953567
14 *49:17 *125:9 0.00849699
15 *78:29 *125:7 0
16 *89:17 *125:9 0.00896185
17 *89:25 *125:9 0.00203221
18 *92:17 *125:19 0.00757255
19 *92:17 *125:21 0.0138985
20 *93:9 *125:9 0.00218644
21 *98:9 *125:9 0.0112011
22 *113:9 *125:9 0.015647
23 *124:7 *125:7 0
24 *124:9 *125:9 2.13396e-05
*RES
1 *988:io_out[20] *125:7 2.06307 
2 *125:7 *125:9 270.915 
3 *125:9 *125:19 15.4818 
4 *125:19 *125:21 217.634 
5 *125:21 io_out[27] 0.605133 
*END

*D_NET *126 0.261258
*CONN
*P io_out[28] O
*I *988:io_out[21] O *D soc_sys
*CAP
1 io_out[28] 0.00126593
2 *988:io_out[21] 0.00161024
3 *126:25 0.0526341
4 *126:23 0.0524016
5 *126:17 0.00306158
6 *126:15 0.00363844
7 *126:15 *127:7 0
8 *126:15 *127:9 0.00152696
9 *126:15 *143:9 0
10 io_oeb[35] *126:17 0.00185494
11 *46:17 *126:23 0.000754218
12 *46:19 *126:17 0.00391741
13 *50:19 *126:15 0.00303753
14 *78:9 *126:17 0.00296785
15 *86:15 *126:23 2.85318e-05
16 *86:17 *126:25 0.118203
17 *89:17 *126:17 0.00369634
18 *92:15 *126:17 0.00184363
19 *92:17 *126:17 0.000894648
20 *98:9 *126:17 0.00790016
21 *125:7 *126:15 0
22 *125:9 *126:17 2.13396e-05
*RES
1 *988:io_out[21] *126:15 37.4926 
2 *126:15 *126:17 130.155 
3 *126:17 *126:23 3.51433 
4 *126:23 *126:25 215.888 
5 *126:25 io_out[28] 3.40953 
*END

*D_NET *127 0.194761
*CONN
*P io_out[29] O
*I *988:io_out[22] O *D soc_sys
*CAP
1 io_out[29] 0.00282169
2 *988:io_out[22] 0.000442811
3 *127:25 0.0828226
4 *127:23 0.083681
5 *127:9 0.00536947
6 *127:7 0.00213217
7 *127:9 *143:9 0.000380992
8 *127:25 *800:5 0.0019019
9 io_oeb[35] *127:23 0.0014932
10 *50:19 *127:9 0.00156734
11 *57:11 *127:23 0.000324476
12 *69:9 *127:9 0.00309756
13 *76:20 *127:25 0
14 *84:9 *127:23 0.000381431
15 *87:23 *127:23 0.00106134
16 *91:20 *127:23 0.00198196
17 *94:14 *127:25 0
18 *98:9 *127:23 0.000631426
19 *111:9 *127:9 0.000981448
20 *113:9 *127:23 0.000557071
21 *123:9 *127:23 0.000416506
22 *124:9 *127:23 0.000622912
23 *125:9 *127:23 0.000564685
24 *126:15 *127:7 0
25 *126:15 *127:9 0.00152696
*RES
1 *988:io_out[22] *127:7 1.36387 
2 *127:7 *127:9 72.525 
3 *127:9 *127:23 6.97802 
4 *127:23 *127:25 193.407 
5 *127:25 io_out[29] 6.93593 
*END

*D_NET *129 0.18997
*CONN
*P io_out[30] O
*I *988:io_out[23] O *D soc_sys
*CAP
1 io_out[30] 0.000946923
2 *988:io_out[23] 0.000154121
3 *129:19 0.0456649
4 *129:17 0.0448631
5 *129:11 0.0063838
6 *129:9 0.00639277
7 *129:9 *130:9 0
8 *129:11 *130:11 0.00916862
9 *129:11 *131:6 0.0033995
10 *129:19 *130:19 0.0642771
11 *988:io_in[19] *129:9 0.000205264
12 *46:11 *129:19 0
13 *49:9 io_out[30] 0.000234659
14 *51:19 *129:11 0
15 *51:19 *129:19 0.00827891
16 *86:9 *129:11 0
17 *86:15 *129:17 0
*RES
1 *988:io_out[23] *129:9 0.930667 
2 *129:9 *129:11 151.065 
3 *129:11 *129:17 1.3002 
4 *129:17 *129:19 150.599 
5 *129:19 io_out[30] 2.533 
*END

*D_NET *130 0.167458
*CONN
*P io_out[31] O
*I *988:io_out[24] O *D soc_sys
*CAP
1 io_out[31] 0.0010352
2 *988:io_out[24] 0.00019679
3 *130:19 0.0222009
4 *130:17 0.0211999
5 *130:11 0.00371274
6 *130:9 0.00387538
7 *130:11 *131:6 0.00141817
8 *130:19 *131:6 0.02916
9 io_oeb[34] *130:17 3.42936e-05
10 io_oeb[35] *130:17 2.79383e-05
11 *46:11 *130:19 0
12 *49:9 io_out[31] 0.000234659
13 *51:19 *130:11 0
14 *51:19 *130:19 0.0101873
15 *73:43 *130:11 0
16 *86:9 *130:11 0
17 *86:9 *130:19 0.000729309
18 *103:21 *130:11 0
19 *129:9 *130:9 0
20 *129:11 *130:11 0.00916862
21 *129:19 *130:19 0.0642771
*RES
1 *988:io_out[24] *130:9 0.930667 
2 *130:9 *130:11 103.635 
3 *130:11 *130:17 1.1254 
4 *130:17 *130:19 125.017 
5 *130:19 io_out[31] 2.64953 
*END

*D_NET *131 0.0989018
*CONN
*P io_out[32] O
*I *988:io_out[25] O *D soc_sys
*CAP
1 io_out[32] 0.00103572
2 *988:io_out[25] 0
3 *131:6 0.028452
4 *131:4 0.0274163
5 *131:6 *132:12 0.00013001
6 *46:11 *131:6 0.00592772
7 *70:12 *131:6 9.59476e-05
8 *72:12 *131:6 0.000159283
9 *73:43 *131:6 5.46484e-05
10 *74:12 *131:6 7.14623e-05
11 *75:12 *131:6 9.59476e-05
12 *76:20 *131:6 0.000163843
13 *80:16 *131:6 7.14623e-05
14 *81:46 *131:6 0.000123868
15 *82:20 *131:6 0.000188557
16 *85:12 *131:6 0.000322244
17 *91:20 *131:6 7.14623e-05
18 *94:12 *131:6 0.000159283
19 *104:20 *131:6 0.000254348
20 *105:12 *131:6 0.00013001
21 *129:11 *131:6 0.0033995
22 *130:11 *131:6 0.00141817
23 *130:19 *131:6 0.02916
*RES
1 *988:io_out[25] *131:4 0.5 
2 *131:4 *131:6 109.6 
3 *131:6 io_out[32] 2.6242 
*END

*D_NET *132 0.104602
*CONN
*P io_out[33] O
*I *988:io_out[26] O *D soc_sys
*CAP
1 io_out[33] 0.0069664
2 *988:io_out[26] 0.00551166
3 *132:14 0.0372342
4 *132:12 0.0357795
5 *132:12 *143:29 0.0026773
6 *48:41 *132:12 0.00107001
7 *72:14 *132:14 0.0149737
8 *112:14 *132:14 0
9 *121:20 *132:12 0.000259238
10 *131:6 *132:12 0.00013001
*RES
1 *988:io_out[26] *132:12 2.32958 
2 *132:12 *132:14 76.4383 
3 *132:14 io_out[33] 16.4207 
*END

*D_NET *133 0.0393689
*CONN
*P io_out[34] O
*I *988:io_out[27] O *D soc_sys
*CAP
1 io_out[34] 0.0109345
2 *988:io_out[27] 0.0109345
3 io_out[34] io_out[35] 0
4 *988:io_in[28] io_out[34] 0.00974936
5 *92:17 io_out[34] 0.00766303
6 *93:9 io_out[34] 1.67877e-05
7 *125:19 io_out[34] 7.07318e-05
*RES
1 *988:io_out[27] io_out[34] 45.6069 
*END

*D_NET *134 0.016075
*CONN
*P io_out[35] O
*I *988:io_out[28] O *D soc_sys
*CAP
1 io_out[35] 0.00350972
2 *988:io_out[28] 0.00350972
3 io_out[35] io_out[36] 0.000311269
4 io_out[35] *136:9 0.00012383
5 io_oeb[35] io_out[35] 0.00406525
6 io_out[34] io_out[35] 0
7 *988:io_in[28] io_out[35] 0.00061349
8 *57:11 io_out[35] 0
9 *78:9 io_out[35] 0.000145607
10 *98:9 io_out[35] 0.000919237
11 *103:21 io_out[35] 1.40868e-05
12 *113:9 io_out[35] 0.000942441
13 *124:9 io_out[35] 0.000777578
14 *125:9 io_out[35] 0.00114274
*RES
1 *988:io_out[28] io_out[35] 11.9364 
*END

*D_NET *135 0.017649
*CONN
*P io_out[36] O
*I *988:io_out[29] O *D soc_sys
*CAP
1 io_out[36] 0.00482869
2 *988:io_out[29] 0.00482869
3 io_out[36] io_out[37] 0.000176207
4 io_out[36] *136:7 0
5 io_oeb[36] io_out[36] 2.20023e-05
6 io_oeb[37] io_out[36] 0.000103315
7 io_out[35] io_out[36] 0.000311269
8 *988:io_in[28] io_out[36] 0.00329787
9 *988:io_in[30] io_out[36] 0.000141915
10 *57:11 io_out[36] 0.000780598
11 *98:9 io_out[36] 0.000401705
12 *103:21 io_out[36] 2.25816e-05
13 *108:15 io_out[36] 0.000877061
14 *113:9 io_out[36] 0.000359245
15 *120:15 io_out[36] 0.000736864
16 *124:9 io_out[36] 0.000401705
17 *125:9 io_out[36] 0.000359245
*RES
1 *988:io_out[29] io_out[36] 19.2577 
*END

*D_NET *136 0.0583161
*CONN
*P io_out[37] O
*I *988:io_out[30] O *D soc_sys
*CAP
1 io_out[37] 0.00527361
2 *988:io_out[30] 0.000889628
3 *136:9 0.0068074
4 *136:7 0.00242342
5 io_oeb[37] io_out[37] 0.00789359
6 io_out[35] *136:9 0.00012383
7 io_out[36] io_out[37] 0.000176207
8 io_out[36] *136:7 0
9 *988:io_in[24] io_out[37] 0.00244091
10 *988:io_in[28] io_out[37] 0
11 *988:io_in[28] *136:9 0.00167795
12 *988:io_in[2] io_out[37] 0.00545431
13 *40:61 io_out[37] 0.00195662
14 *44:45 io_out[37] 0.00178572
15 *45:25 io_out[37] 0.00212673
16 *46:19 *136:9 0.00367144
17 *47:39 io_out[37] 0.000593408
18 *57:11 io_out[37] 0.000214948
19 *78:9 *136:9 0.0024241
20 *98:9 *136:9 0.00868133
21 *103:21 *136:7 0
22 *108:15 io_out[37] 1.44071e-06
23 *108:17 io_out[37] 0.00247253
24 *108:17 *136:9 0
25 *119:9 io_out[37] 0.00122699
*RES
1 *988:io_out[30] *136:7 2.1796 
2 *136:7 *136:9 97.515 
3 *136:9 io_out[37] 27.5123 
*END

*D_NET *141 0.414904
*CONN
*P io_out[7] O
*I *988:io_out[0] O *D soc_sys
*CAP
1 io_out[7] 0.133048
2 *988:io_out[0] 0.0089506
3 *141:25 0.133048
4 *141:23 0.0469524
5 *141:21 0.055903
6 *141:21 *142:32 0.00198196
7 *141:23 *142:32 0
8 *141:23 *795:5 0.00378551
9 *988:io_in[19] *141:21 0.000295987
10 *988:io_in[29] *141:21 0.000114254
11 *988:io_in[30] *141:21 2.2955e-05
12 *60:20 *141:21 3.41218e-05
13 *82:22 *141:23 0
14 *104:22 *141:23 0
15 *105:14 *141:23 0.0307675
16 *107:14 *141:23 0
*RES
1 *988:io_out[0] *141:21 3.56898 
2 *141:21 *141:23 159.557 
3 *141:23 *141:25 0.5 
4 *141:25 io_out[7] 348.221 
*END

*D_NET *142 0.706588
*CONN
*P io_out[8] O
*I *988:io_out[1] O *D soc_sys
*CAP
1 io_out[8] 0.0548803
2 *988:io_out[1] 0.0100451
3 *142:36 0.0548803
4 *142:34 0.0713362
5 *142:32 0.0813813
6 *142:34 *810:5 0.00285273
7 *988:io_in[19] *142:32 0.00023172
8 *70:20 io_out[8] 0.0516283
9 *74:30 io_out[8] 0.000155559
10 *74:32 io_out[8] 0.00112777
11 *105:18 io_out[8] 0.22894
12 *107:12 *142:32 0.00754798
13 *107:14 *142:32 7.79437e-05
14 *109:12 *142:32 0.00778975
15 *109:26 io_out[8] 0.00294762
16 *115:18 io_out[8] 0.128783
17 *141:21 *142:32 0.00198196
18 *141:23 *142:32 0
*RES
1 *988:io_out[1] *142:32 9.01737 
2 *142:32 *142:34 191.426 
3 *142:34 *142:36 0.5 
4 *142:36 io_out[8] 339.481 
*END

*D_NET *143 0.48622
*CONN
*P io_out[9] O
*I *988:io_out[2] O *D soc_sys
*CAP
1 io_out[9] 0.131357
2 *988:io_out[2] 0.000395444
3 *143:33 0.131357
4 *143:31 0.0563512
5 *143:29 0.0644169
6 *143:9 0.0105413
7 *143:7 0.00287102
8 *143:31 *797:5 0.00431088
9 *48:41 *143:29 0.00277383
10 *50:19 *143:9 0
11 *66:17 *143:9 0.000750416
12 *73:43 *143:29 8.44688e-05
13 *77:23 *143:31 0
14 *103:21 *143:29 0.00682177
15 *107:14 *143:31 0.0665017
16 *109:14 *143:31 0
17 *111:9 *143:9 0.0046294
18 *126:15 *143:9 0
19 *127:9 *143:9 0.000380992
20 *132:12 *143:29 0.0026773
*RES
1 *988:io_out[2] *143:7 1.24733 
2 *143:7 *143:9 68.955 
3 *143:9 *143:29 6.29895 
4 *143:29 *143:31 211.323 
5 *143:31 *143:33 0.5 
6 *143:33 io_out[9] 347.172 
*END

*D_NET *529 0.263081
*CONN
*P user_irq[0] O
*I *988:user_irq[0] O *D soc_sys
*CAP
1 user_irq[0] 8.25826e-05
2 *988:user_irq[0] 8.32034e-05
3 *529:13 0.0525594
4 *529:11 0.0524768
5 *529:9 0.00492028
6 *529:7 0.00500348
7 *529:13 *530:13 0.147955
*RES
1 *988:user_irq[0] *529:7 1.2675 
2 *529:7 *529:9 85.275 
3 *529:9 *529:11 0.5 
4 *529:11 *529:13 220.286 
5 *529:13 user_irq[0] 1.8575 
*END

*D_NET *530 0.348975
*CONN
*P user_irq[1] O
*I *988:user_irq[1] O *D soc_sys
*CAP
1 user_irq[1] 8.14153e-05
2 *988:user_irq[1] 8.01491e-05
3 *530:13 0.0219737
4 *530:11 0.0218923
5 *530:9 0.00470968
6 *530:7 0.00478983
7 *530:13 *531:13 0.147493
8 *529:13 *530:13 0.147955
*RES
1 *988:user_irq[1] *530:7 1.2675 
2 *530:7 *530:9 84.765 
3 *530:9 *530:11 0.5 
4 *530:11 *530:13 219.587 
5 *530:13 user_irq[1] 1.9325 
*END

*D_NET *531 0.261431
*CONN
*P user_irq[2] O
*I *988:user_irq[2] O *D soc_sys
*CAP
1 user_irq[2] 5.99008e-05
2 *988:user_irq[2] 8.01491e-05
3 *531:13 0.0522075
4 *531:11 0.0521476
5 *531:9 0.00468159
6 *531:7 0.00476174
7 *530:13 *531:13 0.147493
*RES
1 *988:user_irq[2] *531:7 1.2675 
2 *531:7 *531:9 84.255 
3 *531:9 *531:11 0.5 
4 *531:11 *531:13 219.062 
5 *531:13 user_irq[2] 1.5875 
*END

*D_NET *540 0.39208
*CONN
*P wb_clk_i I
*I *988:wb_clk_i I *D soc_sys
*I *989:wb_clk_i I *D CF_SRAM_1024x32_wb_wrapper
*I *984:clk I *D CF_ADC_DSM20
*CAP
1 wb_clk_i 0.002028
2 *988:wb_clk_i 5.82747e-05
3 *989:wb_clk_i 8.30497e-05
4 *984:clk 0.0117441
5 *540:52 0.00395706
6 *540:37 0.0639886
7 *540:35 0.0523224
8 *540:25 0.0381486
9 *540:23 0.0342188
10 *540:19 0.000129255
11 *540:15 0.00458613
12 *540:13 0.00656525
13 *984:clk *664:20 0.00964535
14 *984:clk *666:20 0
15 *989:wb_clk_i *989:wb_rst_i 0
16 *989:wb_clk_i *959:29 1.88656e-05
17 *540:15 *576:13 0
18 *540:25 wbs_dat_o[31] 0.00224466
19 *540:25 *988:wbs_cyc_i 0.000557667
20 *540:25 *988:wbs_sel_i[1] 0.00179829
21 *540:25 *988:wbs_sel_i[3] 0.000134556
22 *540:25 *989:wbs_dat_i[9] 0.000212004
23 *540:25 *621:13 0.000112768
24 *540:25 *623:13 0.000535555
25 *540:25 *625:9 0.000561164
26 *540:25 *627:9 0.00724968
27 *540:25 *627:23 0.00103507
28 *540:25 *633:11 0.00037411
29 *540:25 *634:11 0.000330114
30 *540:25 *635:11 0.00050166
31 *540:25 *636:11 0.000557667
32 *540:25 *638:11 0.00110541
33 *540:25 *639:15 0.000477652
34 *540:35 *989:wbs_sel_i[0] 1.09082e-05
35 *540:35 *916:21 0.000168426
36 *540:35 *947:13 0.000166112
37 *540:35 *961:19 4.2145e-05
38 *540:37 *989:wbs_dat_i[15] 0.00723733
39 *540:37 *770:13 0
40 *540:37 *816:13 0.0124466
41 *540:37 *888:9 0.0028033
42 *540:37 *893:9 0.00169379
43 *540:37 *916:21 0.00270556
44 *540:37 *947:11 0.000116216
45 *540:37 *947:13 0.000591692
46 *540:37 *952:9 0.00239672
47 *540:37 *960:9 0.00169379
48 *540:52 *989:wbs_adr_i[5] 0.00192666
49 *540:52 *541:59 0
50 *540:52 *964:21 0.0101511
51 *31:21 *540:25 0.000278184
52 *31:21 *540:52 0.000138165
53 *32:49 *540:15 0
54 *34:21 *540:25 0.100626
55 *34:35 *540:25 0.000624625
56 *49:31 *540:25 0.00098115
*RES
1 wb_clk_i *540:13 38.41 
2 *540:13 *540:15 80.8125 
3 *540:15 *540:19 0.6825 
4 *540:19 *540:23 2.36 
5 *540:23 *540:25 929.28 
6 *540:25 *540:35 5.08463 
7 *540:35 *540:37 153.183 
8 *540:37 *984:clk 39.3407 
9 *540:25 *540:52 99.12 
10 *540:52 *989:wb_clk_i 3.245 
11 *540:19 *988:wb_clk_i 0.69 
*END

*D_NET *541 0.276594
*CONN
*P wb_rst_i I
*I *989:wb_rst_i I *D CF_SRAM_1024x32_wb_wrapper
*I *988:wb_rst_i I *D soc_sys
*CAP
1 wb_rst_i 0.00827959
2 *989:wb_rst_i 0.00015809
3 *988:wb_rst_i 0.000239043
4 *541:59 0.00402345
5 *541:57 0.0844148
6 *541:17 0.0890681
7 *988:wb_rst_i *988:wbs_stb_i 4.21127e-05
8 *989:wb_rst_i *880:15 0
9 *541:17 *576:13 0
10 *541:17 *608:23 6.67917e-06
11 *541:17 *640:9 0.000858201
12 *541:17 *640:13 0.00147419
13 *541:57 wbs_dat_o[31] 0.00322906
14 *541:57 *988:wbs_cyc_i 0.000234905
15 *541:57 *988:wbs_sel_i[1] 0.00196981
16 *541:57 *988:wbs_sel_i[2] 0.00199922
17 *541:57 *988:wbs_sel_i[3] 0.000107174
18 *541:57 *989:wbs_dat_i[2] 0.000180322
19 *541:57 *989:wbs_sel_i[0] 0.000320471
20 *541:57 *608:23 0.00121061
21 *541:57 *619:16 0.00171031
22 *541:57 *621:13 0.00792132
23 *541:57 *623:13 0.00836534
24 *541:57 *625:9 0.00877983
25 *541:57 *627:9 0.00792723
26 *541:57 *627:23 0.00114071
27 *541:57 *628:15 0.00179829
28 *541:57 *631:15 0.00287618
29 *541:57 *633:11 0.000495175
30 *541:57 *634:11 0.000278881
31 *541:57 *635:11 0.000427346
32 *541:57 *636:11 0.000789756
33 *541:57 *637:11 0.00082054
34 *541:57 *638:11 0.00120897
35 *541:57 *639:15 0.00131
36 *541:57 *947:13 4.06207e-05
37 *541:57 *963:19 0.000239656
38 *541:57 *964:19 4.32417e-05
39 *541:59 *926:9 7.28681e-05
40 *541:59 *928:9 0
41 *541:59 *936:19 0.00196891
42 *541:59 *960:21 0.00922093
43 *541:59 *963:21 0.000253553
44 *541:59 *964:21 1.76909e-05
45 *541:59 *980:31 0.000118081
46 *989:wb_clk_i *989:wb_rst_i 0
47 *31:21 *541:59 1.55649e-05
48 *32:21 *541:59 0.000134938
49 *42:23 *541:57 0.000139903
50 *42:43 *541:57 0.000109072
51 *43:17 *541:57 0.00901872
52 *44:43 *988:wb_rst_i 4.21127e-05
53 *45:23 *541:57 0.00259145
54 *49:31 *541:57 0.00488016
55 *119:13 *541:57 0.00402079
56 *540:52 *541:59 0
*RES
1 wb_rst_i *541:17 22.4517 
2 *541:17 *988:wb_rst_i 3.90963 
3 *541:17 *541:57 21.0623 
4 *541:57 *541:59 100.155 
5 *541:59 *989:wb_rst_i 3.965 
*END

*D_NET *542 0.017974
*CONN
*P wbs_ack_o O
*I *988:wbs_ack_o O *D soc_sys
*CAP
1 wbs_ack_o 0.00146363
2 *988:wbs_ack_o 0.00155838
3 *542:17 0.00437358
4 *542:15 0.00446833
5 *36:25 *542:15 0.00178954
6 *39:21 *542:17 0.000126941
7 *47:37 *542:15 0.00419364
*RES
1 *988:wbs_ack_o *542:15 14.9398 
2 *542:15 *542:17 53.535 
3 *542:17 wbs_ack_o 26.9625 
*END

*D_NET *543 0.0175585
*CONN
*P wbs_adr_i[0] I
*I *988:wbs_adr_i[0] I *D soc_sys
*CAP
1 wbs_adr_i[0] 0.00144135
2 *988:wbs_adr_i[0] 0.00344037
3 *543:13 0.00612535
4 *543:9 0.00412633
5 *988:wbs_adr_i[0] *988:wbs_dat_i[0] 0
6 *988:wbs_adr_i[0] *568:13 0
7 *65:25 *988:wbs_adr_i[0] 0.00242512
*RES
1 wbs_adr_i[0] *543:9 26.2425 
2 *543:9 *543:13 49.445 
3 *543:13 *988:wbs_adr_i[0] 21.3605 
*END

*D_NET *544 0.046006
*CONN
*P wbs_adr_i[10] I
*I *988:wbs_adr_i[10] I *D soc_sys
*CAP
1 wbs_adr_i[10] 0.00148637
2 *988:wbs_adr_i[10] 0.00451184
3 *544:11 0.00752005
4 *544:9 0.00449458
5 *988:wbs_adr_i[10] *612:15 0.013897
6 *36:25 *988:wbs_adr_i[10] 0.0111383
7 *44:23 *988:wbs_adr_i[10] 0
8 *47:37 *988:wbs_adr_i[10] 0.00248478
9 *67:21 *988:wbs_adr_i[10] 0.000472987
*RES
1 wbs_adr_i[10] *544:9 26.2425 
2 *544:9 *544:11 53.025 
3 *544:11 *988:wbs_adr_i[10] 37.8825 
*END

*D_NET *545 0.0459922
*CONN
*P wbs_adr_i[11] I
*I *988:wbs_adr_i[11] I *D soc_sys
*CAP
1 wbs_adr_i[11] 0.00747314
2 *988:wbs_adr_i[11] 8.01491e-05
3 *545:15 0.00430236
4 *545:13 0.0116953
5 *545:13 wbs_dat_o[11] 0.0191005
6 *545:13 *551:13 0.00256235
7 *545:13 *604:13 0
8 *545:13 *643:15 0.00077843
9 *545:15 *592:9 0
*RES
1 wbs_adr_i[11] *545:13 43.924 
2 *545:13 *545:15 73.035 
3 *545:15 *988:wbs_adr_i[11] 1.2675 
*END

*D_NET *546 0.0461842
*CONN
*P wbs_adr_i[12] I
*I *988:wbs_adr_i[12] I *D soc_sys
*CAP
1 wbs_adr_i[12] 0.00103036
2 *988:wbs_adr_i[12] 8.31983e-05
3 *546:15 0.00400782
4 *546:13 0.013106
5 *546:9 0.0102117
6 *546:9 *634:13 0
7 *546:13 wbs_dat_o[11] 0
8 *546:13 *547:13 0
9 *546:13 *613:15 0.0177451
10 *546:15 *594:9 0
11 *546:15 *594:13 0
*RES
1 wbs_adr_i[12] *546:9 18.1775 
2 *546:9 *546:13 32.8177 
3 *546:13 *546:15 67.425 
4 *546:15 *988:wbs_adr_i[12] 1.2675 
*END

*D_NET *547 0.0472516
*CONN
*P wbs_adr_i[13] I
*I *988:wbs_adr_i[13] I *D soc_sys
*CAP
1 wbs_adr_i[13] 0.00134927
2 *988:wbs_adr_i[13] 9.27753e-05
3 *547:15 0.00367445
4 *547:13 0.0125688
5 *547:9 0.0103364
6 *547:13 *606:13 0.00373204
7 *547:13 *613:15 0
8 *547:13 *616:15 0.0153634
9 *547:15 *563:13 0
10 *547:15 *596:9 0.000134522
11 *547:15 *596:13 0
12 *546:13 *547:13 0
*RES
1 wbs_adr_i[13] *547:9 23.9675 
2 *547:9 *547:13 34.5075 
3 *547:13 *547:15 62.325 
4 *547:15 *988:wbs_adr_i[13] 1.2675 
*END

*D_NET *548 0.0459246
*CONN
*P wbs_adr_i[14] I
*I *988:wbs_adr_i[14] I *D soc_sys
*CAP
1 wbs_adr_i[14] 0.0016348
2 *988:wbs_adr_i[14] 8.66605e-05
3 *548:15 0.00339407
4 *548:13 0.0146402
5 *548:9 0.0129675
6 *548:9 wbs_dat_o[13] 0
7 *548:13 *580:13 0
8 *548:13 *592:11 0
9 *548:13 *593:11 0.00691856
10 *548:13 *605:13 0.00628278
11 *548:13 *606:13 0
12 *548:13 *616:15 0
13 *548:15 *599:7 0
*RES
1 wbs_adr_i[14] *548:9 28.8875 
2 *548:9 *548:13 36.6051 
3 *548:13 *548:15 56.715 
4 *548:15 *988:wbs_adr_i[14] 1.2675 
*END

*D_NET *549 0.0698162
*CONN
*P wbs_adr_i[15] I
*I *988:wbs_adr_i[15] I *D soc_sys
*CAP
1 wbs_adr_i[15] 0.0011472
2 *988:wbs_adr_i[15] 0.00516585
3 *549:11 0.00695827
4 *549:9 0.00293963
5 *988:wbs_adr_i[15] *615:15 0.0228729
6 *549:9 wbs_dat_o[14] 0
7 *549:9 *636:13 0.00086045
8 *549:11 *636:13 0.00441826
9 *65:25 *988:wbs_adr_i[15] 0.0254536
*RES
1 wbs_adr_i[15] *549:9 26.2425 
2 *549:9 *549:11 49.965 
3 *549:11 *988:wbs_adr_i[15] 49.8573 
*END

*D_NET *550 0.0720411
*CONN
*P wbs_adr_i[16] I
*I *988:wbs_adr_i[16] I *D soc_sys
*CAP
1 wbs_adr_i[16] 0.00528945
2 *988:wbs_adr_i[16] 8.93958e-05
3 *550:15 0.0046851
4 *550:13 0.00988515
5 *550:13 *988:wbs_adr_i[21] 0.00445705
6 *550:13 *551:13 0
7 *550:13 *552:13 0.000455972
8 *550:13 *553:13 0.000234816
9 *550:13 *555:13 0.0203928
10 *550:13 *582:13 0.0246101
11 *550:13 *584:13 0.000228222
12 *550:13 *586:13 0.000573681
13 *550:13 *604:13 0.000299514
14 *550:13 *624:13 0.000563298
15 *550:13 *637:13 0.000276522
*RES
1 wbs_adr_i[16] *550:13 47.4572 
2 *550:13 *550:15 78.645 
3 *550:15 *988:wbs_adr_i[16] 1.2675 
*END

*D_NET *551 0.0582052
*CONN
*P wbs_adr_i[17] I
*I *988:wbs_adr_i[17] I *D soc_sys
*CAP
1 wbs_adr_i[17] 0.000592019
2 *988:wbs_adr_i[17] 8.93958e-05
3 *551:15 0.0044501
4 *551:13 0.0117876
5 *551:9 0.00801888
6 *551:9 *638:13 0
7 *551:13 wbs_dat_o[11] 0
8 *551:13 *560:11 0.00352898
9 *551:13 *584:13 0.0271759
10 *545:13 *551:13 0.00256235
11 *550:13 *551:13 0
*RES
1 wbs_adr_i[17] *551:9 10.7075 
2 *551:9 *551:13 41.616 
3 *551:13 *551:15 75.585 
4 *551:15 *988:wbs_adr_i[17] 1.2675 
*END

*D_NET *552 0.0751652
*CONN
*P wbs_adr_i[18] I
*I *988:wbs_adr_i[18] I *D soc_sys
*CAP
1 wbs_adr_i[18] 0.000365431
2 *988:wbs_adr_i[18] 8.93958e-05
3 *552:15 0.00450027
4 *552:13 0.0093348
5 *552:9 0.00528935
6 *552:9 *639:17 0.000639651
7 *552:13 *553:13 0.0274185
8 *552:13 *560:11 0
9 *552:13 *584:13 0.0270718
10 *550:13 *552:13 0.000455972
*RES
1 wbs_adr_i[18] *552:9 9.3425 
2 *552:9 *552:13 43.4223 
3 *552:13 *552:15 76.605 
4 *552:15 *988:wbs_adr_i[18] 1.2675 
*END

*D_NET *553 0.0947752
*CONN
*P wbs_adr_i[19] I
*I *988:wbs_adr_i[19] I *D soc_sys
*CAP
1 wbs_adr_i[19] 0.000488751
2 *988:wbs_adr_i[19] 8.93958e-05
3 *553:15 0.00452397
4 *553:13 0.0101911
5 *553:9 0.00624525
6 *553:9 *585:13 0
7 *553:13 *988:wbs_adr_i[21] 0.00566528
8 *553:13 *557:11 0.00570042
9 *553:13 *558:11 0.0046588
10 *553:13 *560:11 0
11 *553:13 *586:13 0.029559
12 *550:13 *553:13 0.000234816
13 *552:13 *553:13 0.0274185
*RES
1 wbs_adr_i[19] *553:9 8.8325 
2 *553:9 *553:13 45.2285 
3 *553:13 *553:15 77.115 
4 *553:15 *988:wbs_adr_i[19] 1.2675 
*END

*D_NET *554 0.0187452
*CONN
*P wbs_adr_i[1] I
*I *988:wbs_adr_i[1] I *D soc_sys
*CAP
1 wbs_adr_i[1] 0.0062685
2 *988:wbs_adr_i[1] 8.63111e-05
3 *554:15 0.00291253
4 *554:13 0.00909472
5 *554:13 *640:9 0
6 *554:15 *602:15 0.000383116
*RES
1 wbs_adr_i[1] *554:13 45.261 
2 *554:13 *554:15 52.125 
3 *554:15 *988:wbs_adr_i[1] 1.2675 
*END

*D_NET *555 0.0894427
*CONN
*P wbs_adr_i[20] I
*I *988:wbs_adr_i[20] I *D soc_sys
*CAP
1 wbs_adr_i[20] 0.000451586
2 *988:wbs_adr_i[20] 8.93958e-05
3 *555:15 0.0045864
4 *555:13 0.010845
5 *555:9 0.00679956
6 *555:13 *988:wbs_adr_i[21] 0.00709419
7 *555:13 *560:11 0
8 *555:13 *566:11 0.0072093
9 *555:13 *586:13 0.029465
10 *555:13 *624:13 0.00250952
11 *550:13 *555:13 0.0203928
*RES
1 wbs_adr_i[20] *555:9 8.1575 
2 *555:9 *555:13 46.9183 
3 *555:13 *555:15 78.135 
4 *555:15 *988:wbs_adr_i[20] 1.2675 
*END

*D_NET *556 0.0926625
*CONN
*P wbs_adr_i[21] I
*I *988:wbs_adr_i[21] I *D soc_sys
*CAP
1 wbs_adr_i[21] 0.024528
2 *988:wbs_adr_i[21] 0.024528
3 *988:wbs_adr_i[21] wbs_dat_o[18] 0.00394836
4 *988:wbs_adr_i[21] wbs_dat_o[31] 0.00444908
5 *988:wbs_adr_i[21] *577:11 4.3249e-05
6 *988:wbs_adr_i[21] *578:13 0.00134918
7 *988:wbs_adr_i[21] *582:13 0.00403444
8 *988:wbs_adr_i[21] *586:13 0.00641967
9 *988:wbs_adr_i[21] *620:15 1.19249e-05
10 *988:wbs_adr_i[21] *621:13 1.91843e-05
11 *988:wbs_adr_i[21] *624:13 0.00607274
12 *988:wbs_adr_i[21] *629:13 4.21127e-05
13 *550:13 *988:wbs_adr_i[21] 0.00445705
14 *553:13 *988:wbs_adr_i[21] 0.00566528
15 *555:13 *988:wbs_adr_i[21] 0.00709419
*RES
1 wbs_adr_i[21] *988:wbs_adr_i[21] 25.964 
*END

*D_NET *557 0.0689444
*CONN
*P wbs_adr_i[22] I
*I *988:wbs_adr_i[22] I *D soc_sys
*CAP
1 wbs_adr_i[22] 0.00053638
2 *988:wbs_adr_i[22] 8.93958e-05
3 *557:15 0.00446509
4 *557:13 0.0043757
5 *557:11 0.0110376
6 *557:9 0.0115739
7 *557:11 *558:11 0.0311659
8 *553:13 *557:11 0.00570042
*RES
1 wbs_adr_i[22] *557:9 10.715 
2 *557:9 *557:11 296.115 
3 *557:11 *557:13 2 
4 *557:13 *557:15 76.7325 
5 *557:15 *988:wbs_adr_i[22] 1.2675 
*END

*D_NET *558 0.0884033
*CONN
*P wbs_adr_i[23] I
*I *988:wbs_adr_i[23] I *D soc_sys
*CAP
1 wbs_adr_i[23] 0.000548471
2 *988:wbs_adr_i[23] 8.93958e-05
3 *558:15 0.00447914
4 *558:13 0.00438974
5 *558:11 0.00508323
6 *558:9 0.0056317
7 *558:9 *591:9 0
8 *558:11 *559:11 0.0323569
9 *553:13 *558:11 0.0046588
10 *557:11 *558:11 0.0311659
*RES
1 wbs_adr_i[23] *558:9 10.805 
2 *558:9 *558:11 306.12 
3 *558:11 *558:13 2 
4 *558:13 *558:15 76.9875 
5 *558:15 *988:wbs_adr_i[23] 1.2675 
*END

*D_NET *559 0.0906596
*CONN
*P wbs_adr_i[24] I
*I *988:wbs_adr_i[24] I *D soc_sys
*CAP
1 wbs_adr_i[24] 0.000531187
2 *988:wbs_adr_i[24] 9.04758e-05
3 *559:15 0.00463093
4 *559:13 0.00454045
5 *559:11 0.00580792
6 *559:9 0.0063391
7 *559:11 *562:11 0.0305701
8 *559:11 *586:13 0.00579255
9 *558:11 *559:11 0.0323569
*RES
1 wbs_adr_i[24] *559:9 10.55 
2 *559:9 *559:11 316.815 
3 *559:11 *559:13 2 
4 *559:13 *559:15 77.2425 
5 *559:15 *988:wbs_adr_i[24] 1.2675 
*END

*D_NET *560 0.0550794
*CONN
*P wbs_adr_i[25] I
*I *988:wbs_adr_i[25] I *D soc_sys
*CAP
1 wbs_adr_i[25] 0.000786319
2 *988:wbs_adr_i[25] 8.93958e-05
3 *560:15 0.00423767
4 *560:13 0.00414828
5 *560:11 0.0201856
6 *560:9 0.0209719
7 *560:9 *578:15 0
8 *560:11 wbs_dat_o[11] 0.0011312
9 *560:11 *584:13 0
10 *560:11 *586:13 0
11 *551:13 *560:11 0.00352898
12 *552:13 *560:11 0
13 *553:13 *560:11 0
14 *555:13 *560:11 0
*RES
1 wbs_adr_i[25] *560:9 12.9125 
2 *560:9 *560:11 55.3331 
3 *560:11 *560:13 0.5 
4 *560:13 *560:15 73.035 
5 *560:15 *988:wbs_adr_i[25] 1.2675 
*END

*D_NET *561 0.0814523
*CONN
*P wbs_adr_i[26] I
*I *988:wbs_adr_i[26] I *D soc_sys
*CAP
1 wbs_adr_i[26] 0.00159665
2 *988:wbs_adr_i[26] 0.000387671
3 *561:15 0.00950218
4 *561:13 0.00911451
5 *561:11 0.00309472
6 *561:9 0.00469138
7 *988:wbs_adr_i[26] *631:17 0.000157603
8 *561:9 *610:9 0
9 *561:11 *610:9 0
10 *561:15 *612:15 0.00504863
11 *36:25 *561:15 0.0104382
12 *67:21 *561:15 0.0374208
*RES
1 wbs_adr_i[26] *561:9 26.7525 
2 *561:9 *561:11 54.045 
3 *561:11 *561:13 0.5 
4 *561:13 *561:15 57.3141 
5 *561:15 *988:wbs_adr_i[26] 7.4825 
*END

*D_NET *562 0.0936134
*CONN
*P wbs_adr_i[27] I
*I *988:wbs_adr_i[27] I *D soc_sys
*CAP
1 wbs_adr_i[27] 0.000513894
2 *988:wbs_adr_i[27] 8.93958e-05
3 *562:15 0.00447453
4 *562:13 0.00438513
5 *562:11 0.00728067
6 *562:9 0.00779457
7 *562:9 *595:9 0
8 *562:11 *566:11 0.0340491
9 *562:11 *586:13 0.00445601
10 *559:11 *562:11 0.0305701
*RES
1 wbs_adr_i[27] *562:9 10.295 
2 *562:9 *562:11 348.21 
3 *562:11 *562:13 2 
4 *562:13 *562:15 77.4975 
5 *562:15 *988:wbs_adr_i[27] 1.2675 
*END

*D_NET *563 0.0585931
*CONN
*P wbs_adr_i[28] I
*I *988:wbs_adr_i[28] I *D soc_sys
*CAP
1 wbs_adr_i[28] 0.00156178
2 *988:wbs_adr_i[28] 0.00104094
3 *563:15 0.0252505
4 *563:13 0.0266938
5 *563:9 0.00404604
6 *563:9 wbs_dat_o[27] 0
7 *563:9 *627:25 0
8 *563:15 *583:21 0
9 *563:15 *594:15 0
10 *563:15 *596:15 0
11 *547:15 *563:13 0
*RES
1 wbs_adr_i[28] *563:9 26.2425 
2 *563:9 *563:13 44.345 
3 *563:13 *563:15 60.8684 
4 *563:15 *988:wbs_adr_i[28] 17.6825 
*END

*D_NET *564 0.0596394
*CONN
*P wbs_adr_i[29] I
*I *988:wbs_adr_i[29] I *D soc_sys
*CAP
1 wbs_adr_i[29] 0.00110429
2 *988:wbs_adr_i[29] 8.31983e-05
3 *564:15 0.00388478
4 *564:13 0.00380159
5 *564:11 0.0232149
6 *564:9 0.0243192
7 *564:9 *597:7 0
8 *564:11 *567:11 0
9 *564:11 *613:15 0.00323157
*RES
1 wbs_adr_i[29] *564:9 18.5225 
2 *564:9 *564:11 62.4416 
3 *564:11 *564:13 0.5 
4 *564:13 *564:15 67.425 
5 *564:15 *988:wbs_adr_i[29] 1.2675 
*END

*D_NET *565 0.0265879
*CONN
*P wbs_adr_i[2] I
*I *988:wbs_adr_i[2] I *D soc_sys
*CAP
1 wbs_adr_i[2] 0.000424004
2 *988:wbs_adr_i[2] 0.00235185
3 *565:13 0.00646962
4 *565:11 0.00454177
5 *565:13 *598:13 0.00100923
6 *565:13 *630:19 0
7 *36:25 *988:wbs_adr_i[2] 0.00357364
8 *47:37 *988:wbs_adr_i[2] 0.00821783
*RES
1 wbs_adr_i[2] *565:11 3.22797 
2 *565:11 *565:13 78.135 
3 *565:13 *988:wbs_adr_i[2] 21.0578 
*END

*D_NET *566 0.0815673
*CONN
*P wbs_adr_i[30] I
*I *988:wbs_adr_i[30] I *D soc_sys
*CAP
1 wbs_adr_i[30] 0.000503096
2 *988:wbs_adr_i[30] 8.31983e-05
3 *566:15 0.00443599
4 *566:13 0.0043528
5 *566:11 0.0152154
6 *566:9 0.0157185
7 *566:9 *599:7 0
8 *555:13 *566:11 0.0072093
9 *562:11 *566:11 0.0340491
*RES
1 wbs_adr_i[30] *566:9 10.04 
2 *566:9 *566:11 379.605 
3 *566:11 *566:13 2 
4 *566:13 *566:15 77.7525 
5 *566:15 *988:wbs_adr_i[30] 1.2675 
*END

*D_NET *567 0.0668637
*CONN
*P wbs_adr_i[31] I
*I *988:wbs_adr_i[31] I *D soc_sys
*CAP
1 wbs_adr_i[31] 0.00140895
2 *988:wbs_adr_i[31] 8.31983e-05
3 *567:15 0.00357077
4 *567:13 0.00348757
5 *567:11 0.0244014
6 *567:9 0.0258104
7 *567:9 *600:9 0
8 *567:9 *613:9 0
9 *567:11 *593:11 0
10 *567:11 *613:15 0
11 *567:11 *616:15 0.00810145
12 *564:11 *567:11 0
*RES
1 wbs_adr_i[31] *567:9 23.6225 
2 *567:9 *567:11 65.9959 
3 *567:11 *567:13 0.5 
4 *567:13 *567:15 62.325 
5 *567:15 *988:wbs_adr_i[31] 1.2675 
*END

*D_NET *568 0.0282888
*CONN
*P wbs_adr_i[3] I
*I *988:wbs_adr_i[3] I *D soc_sys
*CAP
1 wbs_adr_i[3] 0.00148465
2 *988:wbs_adr_i[3] 0.00349869
3 *568:13 0.00622506
4 *568:9 0.00421101
5 *988:wbs_adr_i[3] *988:wbs_dat_i[5] 0.00667521
6 *988:wbs_adr_i[3] *633:13 0
7 *988:wbs_adr_i[0] *568:13 0
8 *65:25 *988:wbs_adr_i[3] 0.00619412
*RES
1 wbs_adr_i[3] *568:9 26.7525 
2 *568:9 *568:13 49.955 
3 *568:13 *988:wbs_adr_i[3] 27.959 
*END

*D_NET *569 0.0267262
*CONN
*P wbs_adr_i[4] I
*I *988:wbs_adr_i[4] I *D soc_sys
*CAP
1 wbs_adr_i[4] 0.00149049
2 *988:wbs_adr_i[4] 0.0074091
3 *569:13 0.00982756
4 *569:9 0.00390895
5 *988:wbs_adr_i[4] *988:wbs_adr_i[6] 0
6 *988:wbs_adr_i[4] *988:wbs_dat_i[5] 0
7 *988:wbs_adr_i[4] *988:wbs_dat_i[9] 0.00409014
8 *988:wbs_adr_i[4] *634:13 0
9 *569:9 *642:15 0
10 *569:9 *643:13 0
*RES
1 wbs_adr_i[4] *569:9 26.7525 
2 *569:9 *569:13 44.345 
3 *569:13 *988:wbs_adr_i[4] 35.958 
*END

*D_NET *570 0.0257707
*CONN
*P wbs_adr_i[5] I
*I *988:wbs_adr_i[5] I *D soc_sys
*CAP
1 wbs_adr_i[5] 0.00184123
2 *988:wbs_adr_i[5] 8.31983e-05
3 *570:15 0.0031413
4 *570:13 0.0105911
5 *570:9 0.00937426
6 *570:9 *602:15 0
7 *570:9 *603:9 0
8 *570:13 *574:17 0
9 *570:13 *580:13 0.000739597
10 *570:13 *605:13 0
11 *570:15 wbs_dat_o[13] 0
12 *570:15 *612:19 0
*RES
1 wbs_adr_i[5] *570:9 33.4775 
2 *570:9 *570:13 20.4069 
3 *570:13 *570:15 52.125 
4 *570:15 *988:wbs_adr_i[5] 1.2675 
*END

*D_NET *571 0.0268192
*CONN
*P wbs_adr_i[6] I
*I *988:wbs_adr_i[6] I *D soc_sys
*CAP
1 wbs_adr_i[6] 0.00148855
2 *988:wbs_adr_i[6] 0.00977485
3 *571:13 0.0119211
4 *571:9 0.00363476
5 *988:wbs_adr_i[6] *572:13 0
6 *988:wbs_adr_i[6] *611:15 0
7 *988:wbs_adr_i[4] *988:wbs_adr_i[6] 0
*RES
1 wbs_adr_i[6] *571:9 26.7525 
2 *571:9 *571:13 39.245 
3 *571:13 *988:wbs_adr_i[6] 44.6122 
*END

*D_NET *572 0.0289347
*CONN
*P wbs_adr_i[7] I
*I *988:wbs_adr_i[7] I *D soc_sys
*CAP
1 wbs_adr_i[7] 4.08978e-05
2 *988:wbs_adr_i[7] 0.00168402
3 *572:13 0.0111449
4 *572:7 0.0127425
5 *572:5 0.0033225
6 *572:7 wbs_dat_o[6] 0
7 *572:13 *573:17 0
8 *572:13 *614:15 0
9 *988:wbs_adr_i[6] *572:13 0
*RES
1 wbs_adr_i[7] *572:5 0.7425 
2 *572:5 *572:7 58.755 
3 *572:7 *572:13 24.6943 
4 *572:13 *988:wbs_adr_i[7] 27.3825 
*END

*D_NET *573 0.0337716
*CONN
*P wbs_adr_i[8] I
*I *988:wbs_adr_i[8] I *D soc_sys
*CAP
1 wbs_adr_i[8] 0.000154749
2 *988:wbs_adr_i[8] 0.00193506
3 *573:17 0.011345
4 *573:11 0.0114589
5 *573:9 0.00220378
6 *573:11 *598:15 0.0037189
7 *573:17 *581:13 0
8 *573:17 *614:15 0.00295528
9 *572:13 *573:17 0
*RES
1 wbs_adr_i[8] *573:9 2.8275 
2 *573:9 *573:11 52.125 
3 *573:11 *573:17 26.4423 
4 *573:17 *988:wbs_adr_i[8] 32.4825 
*END

*D_NET *574 0.0318287
*CONN
*P wbs_adr_i[9] I
*I *988:wbs_adr_i[9] I *D soc_sys
*CAP
1 wbs_adr_i[9] 0.00220978
2 *988:wbs_adr_i[9] 0.00282697
3 *574:17 0.0137046
4 *574:13 0.0130874
5 *988:wbs_adr_i[9] *588:13 0
6 *988:wbs_adr_i[9] *589:9 0
7 *574:13 *607:9 0
8 *574:17 *580:13 0
9 *574:17 *602:19 0
10 *570:13 *574:17 0
*RES
1 wbs_adr_i[9] *574:13 39.6425 
2 *574:13 *574:17 27.5737 
3 *574:17 *988:wbs_adr_i[9] 48.2925 
*END

*D_NET *575 0.0214632
*CONN
*P wbs_cyc_i I
*I *988:wbs_cyc_i I *D soc_sys
*CAP
1 wbs_cyc_i 0.00144135
2 *988:wbs_cyc_i 0.00120989
3 *575:11 0.0045747
4 *575:9 0.00480616
5 *988:wbs_cyc_i *608:23 0.00217152
6 *988:wbs_cyc_i *619:16 4.00045e-05
7 *33:21 *988:wbs_cyc_i 0.00026732
8 *34:21 *988:wbs_cyc_i 0.000153576
9 *34:35 *988:wbs_cyc_i 0.000675663
10 *42:43 *988:wbs_cyc_i 0.000118311
11 *44:43 *988:wbs_cyc_i 0.00382625
12 *49:31 *988:wbs_cyc_i 0.00138587
13 *540:25 *988:wbs_cyc_i 0.000557667
14 *541:57 *988:wbs_cyc_i 0.000234905
*RES
1 wbs_cyc_i *575:9 26.2425 
2 *575:9 *575:11 59.655 
3 *575:11 *988:wbs_cyc_i 8.73943 
*END

*D_NET *576 0.0187285
*CONN
*P wbs_dat_i[0] I
*I *988:wbs_dat_i[0] I *D soc_sys
*CAP
1 wbs_dat_i[0] 0.00168389
2 *988:wbs_dat_i[0] 0.00347414
3 *576:15 0.00590366
4 *576:13 0.00411341
5 *576:13 wbs_dat_o[0] 0
6 *576:13 *587:19 0
7 *576:15 wbs_dat_o[1] 0.00188149
8 *576:15 *619:18 0.00167194
9 *988:wbs_adr_i[0] *988:wbs_dat_i[0] 0
10 *540:15 *576:13 0
11 *541:17 *576:13 0
*RES
1 wbs_dat_i[0] *576:13 9.52497 
2 *576:13 *576:15 64.875 
3 *576:15 *988:wbs_dat_i[0] 23.9889 
*END

*D_NET *577 0.0439921
*CONN
*P wbs_dat_i[10] I
*I *988:wbs_dat_i[10] I *D soc_sys
*CAP
1 wbs_dat_i[10] 0.00768715
2 *988:wbs_dat_i[10] 8.01491e-05
3 *577:13 0.00503935
4 *577:11 0.0126463
5 *577:11 wbs_dat_o[18] 0
6 *577:11 wbs_dat_o[5] 0.00462379
7 *577:11 wbs_dat_o[7] 0.00874545
8 *577:11 wbs_dat_o[9] 0.00171993
9 *577:11 *578:13 0
10 *577:11 *585:11 0.000685344
11 *577:11 *588:11 0.000631213
12 *577:11 *590:11 0.000250441
13 *577:11 *620:15 0.000744144
14 *577:11 *622:13 0.00109555
15 *577:13 wbs_dat_o[23] 0
16 *577:13 *591:9 0
17 *577:13 *623:17 0
18 *988:wbs_adr_i[21] *577:11 4.3249e-05
*RES
1 wbs_dat_i[10] *577:11 31.4336 
2 *577:11 *577:13 84.765 
3 *577:13 *988:wbs_dat_i[10] 1.2675 
*END

*D_NET *578 0.0437797
*CONN
*P wbs_dat_i[11] I
*I *988:wbs_dat_i[11] I *D soc_sys
*CAP
1 wbs_dat_i[11] 0.00679117
2 *988:wbs_dat_i[11] 8.01491e-05
3 *578:15 0.00482722
4 *578:13 0.0115382
5 *578:13 wbs_dat_o[11] 0
6 *578:13 wbs_dat_o[18] 0.00999772
7 *578:13 wbs_dat_o[4] 0.000735653
8 *578:13 wbs_dat_o[8] 0.00294021
9 *578:13 wbs_dat_o[9] 0.000394269
10 *578:13 *582:13 0.00438977
11 *578:13 *585:11 0
12 *578:13 *604:13 0
13 *578:13 *624:13 0.000736095
14 *578:15 *593:9 0
15 *988:wbs_adr_i[21] *578:13 0.00134918
16 *560:9 *578:15 0
17 *577:11 *578:13 0
*RES
1 wbs_dat_i[11] *578:13 36.6334 
2 *578:13 *578:15 81.195 
3 *578:15 *988:wbs_dat_i[11] 1.2675 
*END

*D_NET *579 0.0412974
*CONN
*P wbs_dat_i[12] I
*I *988:wbs_dat_i[12] I *D soc_sys
*CAP
1 wbs_dat_i[12] 0.00170078
2 *988:wbs_dat_i[12] 0.00251664
3 *579:17 0.0139673
4 *579:13 0.0131514
5 *988:wbs_dat_i[12] *595:9 0
6 *579:13 *634:13 0.00361394
7 *579:17 *581:13 0
8 *579:17 *589:13 0
9 *579:17 *591:11 0.0057183
10 *579:17 *602:19 0.00062909
11 *579:17 *609:15 0
*RES
1 wbs_dat_i[12] *579:13 45.2525 
2 *579:13 *579:17 33.6335 
3 *579:17 *988:wbs_dat_i[12] 42.6825 
*END

*D_NET *580 0.0427238
*CONN
*P wbs_dat_i[13] I
*I *988:wbs_dat_i[13] I *D soc_sys
*CAP
1 wbs_dat_i[13] 0.00126743
2 *988:wbs_dat_i[13] 8.66605e-05
3 *580:15 0.00310021
4 *580:13 0.0148435
5 *580:9 0.0130973
6 *580:9 *635:13 0.00288379
7 *580:13 *589:13 0
8 *580:13 *592:11 0.00670529
9 *548:13 *580:13 0
10 *570:13 *580:13 0.000739597
11 *574:17 *580:13 0
*RES
1 wbs_dat_i[13] *580:9 34.3325 
2 *580:9 *580:13 35.1484 
3 *580:13 *580:15 51.615 
4 *580:15 *988:wbs_dat_i[13] 1.2675 
*END

*D_NET *581 0.0498339
*CONN
*P wbs_dat_i[14] I
*I *988:wbs_dat_i[14] I *D soc_sys
*CAP
1 wbs_dat_i[14] 0.00278947
2 *988:wbs_dat_i[14] 0.00230362
3 *581:13 0.0122506
4 *581:9 0.0127365
5 *581:13 *595:11 0.00500863
6 *581:13 *599:11 0
7 *581:13 *609:15 0.0147451
8 *573:17 *581:13 0
9 *579:17 *581:13 0
*RES
1 wbs_dat_i[14] *581:9 49.2875 
2 *581:9 *581:13 37.1877 
3 *581:13 *988:wbs_dat_i[14] 37.5825 
*END

*D_NET *582 0.0602158
*CONN
*P wbs_dat_i[15] I
*I *988:wbs_dat_i[15] I *D soc_sys
*CAP
1 wbs_dat_i[15] 0.00613414
2 *988:wbs_dat_i[15] 8.93958e-05
3 *582:15 0.00472651
4 *582:13 0.0107713
5 *582:13 *604:13 0.000603376
6 *582:13 *614:17 0
7 *582:13 *624:13 0.00485674
8 *988:wbs_adr_i[21] *582:13 0.00403444
9 *550:13 *582:13 0.0246101
10 *578:13 *582:13 0.00438977
*RES
1 wbs_dat_i[15] *582:13 45.7819 
2 *582:13 *582:15 79.155 
3 *582:15 *988:wbs_dat_i[15] 1.2675 
*END

*D_NET *583 0.047748
*CONN
*P wbs_dat_i[16] I
*I *988:wbs_dat_i[16] I *D soc_sys
*CAP
1 wbs_dat_i[16] 0.00115875
2 *988:wbs_dat_i[16] 0.00133086
3 *583:21 0.0149553
4 *583:17 0.0151461
5 *583:13 0.00268045
6 *583:13 *604:15 0.0016351
7 *583:13 *637:13 0
8 *583:17 *604:15 0.00199289
9 *583:21 *585:19 0
10 *583:21 *596:15 0.00884853
11 *583:21 *611:15 0
12 *563:15 *583:21 0
*RES
1 wbs_dat_i[16] *583:13 26.9625 
2 *583:13 *583:17 39.755 
3 *583:17 *583:21 40.6255 
4 *583:21 *988:wbs_dat_i[16] 21.7725 
*END

*D_NET *584 0.0739126
*CONN
*P wbs_dat_i[17] I
*I *988:wbs_dat_i[17] I *D soc_sys
*CAP
1 wbs_dat_i[17] 0.000558894
2 *988:wbs_dat_i[17] 8.93958e-05
3 *584:15 0.00447819
4 *584:13 0.00907003
5 *584:9 0.00524012
6 *550:13 *584:13 0.000228222
7 *551:13 *584:13 0.0271759
8 *552:13 *584:13 0.0270718
9 *560:11 *584:13 0
*RES
1 wbs_dat_i[17] *584:9 9.8525 
2 *584:9 *584:13 42.2569 
3 *584:13 *584:15 76.095 
4 *584:15 *988:wbs_dat_i[17] 1.2675 
*END

*D_NET *585 0.0521592
*CONN
*P wbs_dat_i[18] I
*I *988:wbs_dat_i[18] I *D soc_sys
*CAP
1 wbs_dat_i[18] 0.000315762
2 *988:wbs_dat_i[18] 0.00165625
3 *585:19 0.0155706
4 *585:13 0.0172891
5 *585:11 0.00369053
6 *585:11 wbs_dat_o[18] 9.8071e-05
7 *585:13 wbs_dat_o[18] 0
8 *585:19 *596:15 0
9 *585:19 *597:11 0.0128536
10 *585:19 *614:15 0
11 *553:9 *585:13 0
12 *577:11 *585:11 0.000685344
13 *578:13 *585:11 0
14 *583:21 *585:19 0
*RES
1 wbs_dat_i[18] *585:11 3.46103 
2 *585:11 *585:13 58.755 
3 *585:13 *585:19 43.4561 
4 *585:19 *988:wbs_dat_i[18] 26.8725 
*END

*D_NET *586 0.097083
*CONN
*P wbs_dat_i[19] I
*I *988:wbs_dat_i[19] I *D soc_sys
*CAP
1 wbs_dat_i[19] 0.00048955
2 *988:wbs_dat_i[19] 8.93958e-05
3 *586:15 0.0045612
4 *586:13 0.00982966
5 *586:9 0.0058474
6 *586:9 wbs_dat_o[19] 0
7 *988:wbs_adr_i[21] *586:13 0.00641967
8 *550:13 *586:13 0.000573681
9 *553:13 *586:13 0.029559
10 *555:13 *586:13 0.029465
11 *559:11 *586:13 0.00579255
12 *560:11 *586:13 0
13 *562:11 *586:13 0.00445601
*RES
1 wbs_dat_i[19] *586:9 8.6675 
2 *586:9 *586:13 45.7529 
3 *586:13 *586:15 77.625 
4 *586:15 *988:wbs_dat_i[19] 1.2675 
*END

*D_NET *587 0.0189944
*CONN
*P wbs_dat_i[1] I
*I *988:wbs_dat_i[1] I *D soc_sys
*CAP
1 wbs_dat_i[1] 0.00474312
2 *988:wbs_dat_i[1] 8.63111e-05
3 *587:21 0.00451963
4 *587:19 0.00917644
5 *587:19 wbs_dat_o[1] 0
6 *587:19 *598:13 0
7 *587:19 *641:9 0
8 *587:19 *642:13 0.000468865
9 *587:19 *643:13 0
10 *587:21 *603:9 0
11 *587:21 *603:13 0
12 *576:13 *587:19 0
*RES
1 wbs_dat_i[1] *587:19 20.6386 
2 *587:19 *587:21 78.135 
3 *587:21 *988:wbs_dat_i[1] 1.2675 
*END

*D_NET *588 0.0684662
*CONN
*P wbs_dat_i[20] I
*I *988:wbs_dat_i[20] I *D soc_sys
*CAP
1 wbs_dat_i[20] 0.00036693
2 *988:wbs_dat_i[20] 0.00189158
3 *588:19 0.0132962
4 *588:13 0.0144763
5 *588:11 0.00343866
6 *588:11 wbs_dat_o[18] 9.74499e-05
7 *588:11 *620:15 3.97673e-05
8 *588:13 wbs_dat_o[20] 8.04518e-05
9 *588:19 *597:11 0
10 *588:19 *599:11 0.0162858
11 *588:19 *614:15 0.0178618
12 *988:wbs_adr_i[9] *588:13 0
13 *577:11 *588:11 0.000631213
*RES
1 wbs_dat_i[20] *588:11 3.05777 
2 *588:11 *588:13 53.655 
3 *588:13 *588:19 47.1269 
4 *588:19 *988:wbs_dat_i[20] 31.9725 
*END

*D_NET *589 0.0597602
*CONN
*P wbs_dat_i[21] I
*I *988:wbs_dat_i[21] I *D soc_sys
*CAP
1 wbs_dat_i[21] 0.00227737
2 *988:wbs_dat_i[21] 0.00277634
3 *589:13 0.0188905
4 *589:9 0.0183916
5 *589:13 *591:11 0
6 *589:13 *600:11 0.0174244
7 *988:wbs_adr_i[9] *589:9 0
8 *579:17 *589:13 0
9 *580:13 *589:13 0
*RES
1 wbs_dat_i[21] *589:9 39.5975 
2 *589:9 *589:13 49.6568 
3 *589:13 *988:wbs_dat_i[21] 47.7825 
*END

*D_NET *590 0.0853068
*CONN
*P wbs_dat_i[22] I
*I *988:wbs_dat_i[22] I *D soc_sys
*CAP
1 wbs_dat_i[22] 0.000116684
2 *988:wbs_dat_i[22] 9.04758e-05
3 *590:15 0.00504753
4 *590:13 0.00495706
5 *590:11 0.00555193
6 *590:9 0.00566861
7 *590:11 *620:15 0.00550721
8 *590:11 *622:13 0.033611
9 *590:11 *628:21 0.0245059
10 *577:11 *590:11 0.000250441
*RES
1 wbs_dat_i[22] *590:9 2.5475 
2 *590:9 *590:11 50.5552 
3 *590:11 *590:13 0.5 
4 *590:13 *590:15 83.745 
5 *590:15 *988:wbs_dat_i[22] 1.2675 
*END

*D_NET *591 0.0551604
*CONN
*P wbs_dat_i[23] I
*I *988:wbs_dat_i[23] I *D soc_sys
*CAP
1 wbs_dat_i[23] 0.00255523
2 *988:wbs_dat_i[23] 0.00251313
3 *591:11 0.0221658
4 *591:9 0.0222079
5 *591:11 *595:11 0
6 *591:11 *600:11 0
7 *558:9 *591:9 0
8 *577:13 *591:9 0
9 *579:17 *591:11 0.0057183
10 *589:13 *591:11 0
*RES
1 wbs_dat_i[23] *591:9 44.1875 
2 *591:9 *591:11 52.6528 
3 *591:11 *988:wbs_dat_i[23] 43.6925 
*END

*D_NET *592 0.055342
*CONN
*P wbs_dat_i[24] I
*I *988:wbs_dat_i[24] I *D soc_sys
*CAP
1 wbs_dat_i[24] 0.00197251
2 *988:wbs_dat_i[24] 8.93958e-05
3 *592:15 0.00307164
4 *592:13 0.00298224
5 *592:11 0.0192742
6 *592:9 0.0212467
7 *592:11 *593:11 0
8 *592:11 *600:11 0
9 *545:15 *592:9 0
10 *548:13 *592:11 0
11 *580:13 *592:11 0.00670529
*RES
1 wbs_dat_i[24] *592:9 33.8225 
2 *592:9 *592:11 54.1677 
3 *592:11 *592:13 0.5 
4 *592:13 *592:15 52.125 
5 *592:15 *988:wbs_dat_i[24] 1.2675 
*END

*D_NET *593 0.0583439
*CONN
*P wbs_dat_i[25] I
*I *988:wbs_dat_i[25] I *D soc_sys
*CAP
1 wbs_dat_i[25] 0.00170412
2 *988:wbs_dat_i[25] 8.93958e-05
3 *593:15 0.00335255
4 *593:13 0.00326316
5 *593:11 0.020656
6 *593:9 0.0223601
7 *593:9 wbs_dat_o[25] 0
8 *593:9 *625:13 0
9 *593:11 *616:15 0
10 *593:15 *626:17 0
11 *548:13 *593:11 0.00691856
12 *567:11 *593:11 0
13 *578:15 *593:9 0
14 *592:11 *593:11 0
*RES
1 wbs_dat_i[25] *593:9 29.0675 
2 *593:9 *593:11 55.8575 
3 *593:11 *593:13 0.5 
4 *593:13 *593:15 57.225 
5 *593:15 *988:wbs_dat_i[25] 1.2675 
*END

*D_NET *594 0.0668075
*CONN
*P wbs_dat_i[26] I
*I *988:wbs_dat_i[26] I *D soc_sys
*CAP
1 wbs_dat_i[26] 0.0015946
2 *988:wbs_dat_i[26] 0.000784832
3 *594:15 0.0171665
4 *594:13 0.0191522
5 *594:9 0.00436515
6 *594:15 *611:15 0
7 *594:15 *615:15 0.0127902
8 *65:25 *594:15 0.010954
9 *546:15 *594:9 0
10 *546:15 *594:13 0
11 *563:15 *594:15 0
*RES
1 wbs_dat_i[26] *594:9 26.7525 
2 *594:9 *594:13 49.445 
3 *594:13 *594:15 57.8968 
4 *594:15 *988:wbs_dat_i[26] 12.5825 
*END

*D_NET *595 0.0591252
*CONN
*P wbs_dat_i[27] I
*I *988:wbs_dat_i[27] I *D soc_sys
*CAP
1 wbs_dat_i[27] 0.0028163
2 *988:wbs_dat_i[27] 0.00221928
3 *595:11 0.024242
4 *595:9 0.024839
5 *988:wbs_dat_i[12] *595:9 0
6 *562:9 *595:9 0
7 *581:13 *595:11 0.00500863
8 *591:11 *595:11 0
*RES
1 wbs_dat_i[27] *595:9 48.7775 
2 *595:9 *595:11 59.7613 
3 *595:11 *988:wbs_dat_i[27] 38.5925 
*END

*D_NET *596 0.0627536
*CONN
*P wbs_dat_i[28] I
*I *988:wbs_dat_i[28] I *D soc_sys
*CAP
1 wbs_dat_i[28] 0.00151068
2 *988:wbs_dat_i[28] 0.0013193
3 *596:15 0.0231775
4 *596:13 0.0240553
5 *596:9 0.00370781
6 *596:15 *597:11 0
7 *547:15 *596:9 0.000134522
8 *547:15 *596:13 0
9 *563:15 *596:15 0
10 *583:21 *596:15 0.00884853
11 *585:19 *596:15 0
*RES
1 wbs_dat_i[28] *596:9 26.2425 
2 *596:9 *596:13 39.245 
3 *596:13 *596:15 61.4511 
4 *596:15 *988:wbs_dat_i[28] 22.7825 
*END

*D_NET *597 0.0676605
*CONN
*P wbs_dat_i[29] I
*I *988:wbs_dat_i[29] I *D soc_sys
*CAP
1 wbs_dat_i[29] 4.08978e-05
2 *988:wbs_dat_i[29] 0.00159337
3 *597:11 0.0239746
4 *597:9 0.0223812
5 *597:7 0.00338794
6 *597:5 0.00342884
7 *597:11 *599:11 0
8 *597:11 *614:15 0
9 *564:9 *597:7 0
10 *585:19 *597:11 0.0128536
11 *588:19 *597:11 0
12 *596:15 *597:11 0
*RES
1 wbs_dat_i[29] *597:5 0.7425 
2 *597:5 *597:7 58.245 
3 *597:7 *597:9 0.5 
4 *597:9 *597:11 63.3156 
5 *597:11 *988:wbs_dat_i[29] 27.8825 
*END

*D_NET *598 0.0234894
*CONN
*P wbs_dat_i[2] I
*I *988:wbs_dat_i[2] I *D soc_sys
*CAP
1 wbs_dat_i[2] 0.00599964
2 *988:wbs_dat_i[2] 8.01491e-05
3 *598:15 0.00338098
4 *598:13 0.00930047
5 *598:13 *604:13 0
6 *565:13 *598:13 0.00100923
7 *573:11 *598:15 0.0037189
8 *587:19 *598:13 0
*RES
1 wbs_dat_i[2] *598:13 27.3762 
2 *598:13 *598:15 73.035 
3 *598:15 *988:wbs_dat_i[2] 1.2675 
*END

*D_NET *599 0.0724827
*CONN
*P wbs_dat_i[30] I
*I *988:wbs_dat_i[30] I *D soc_sys
*CAP
1 wbs_dat_i[30] 4.08978e-05
2 *988:wbs_dat_i[30] 0.00186635
3 *599:11 0.0249305
4 *599:9 0.0230641
5 *599:7 0.00312711
6 *599:5 0.00316801
7 *548:15 *599:7 0
8 *566:9 *599:7 0
9 *581:13 *599:11 0
10 *588:19 *599:11 0.0162858
11 *597:11 *599:11 0
*RES
1 wbs_dat_i[30] *599:5 0.7425 
2 *599:5 *599:7 53.655 
3 *599:7 *599:9 0.5 
4 *599:9 *599:11 65.1219 
5 *599:11 *988:wbs_dat_i[30] 32.9825 
*END

*D_NET *600 0.0734716
*CONN
*P wbs_dat_i[31] I
*I *988:wbs_dat_i[31] I *D soc_sys
*CAP
1 wbs_dat_i[31] 0.0019649
2 *988:wbs_dat_i[31] 0.00272484
3 *600:11 0.0256824
4 *600:9 0.0249224
5 *600:9 *613:9 0.000752702
6 *567:9 *600:9 0
7 *589:13 *600:11 0.0174244
8 *591:11 *600:11 0
9 *592:11 *600:11 0
*RES
1 wbs_dat_i[31] *600:9 39.0875 
2 *600:9 *600:11 66.8699 
3 *600:11 *988:wbs_dat_i[31] 48.7925 
*END

*D_NET *601 0.0226505
*CONN
*P wbs_dat_i[3] I
*I *988:wbs_dat_i[3] I *D soc_sys
*CAP
1 wbs_dat_i[3] 0.00270646
2 *988:wbs_dat_i[3] 0.00230129
3 *601:13 0.00861878
4 *601:9 0.00902394
5 *601:13 *602:19 0
*RES
1 wbs_dat_i[3] *601:9 49.2875 
2 *601:9 *601:13 17.0857 
3 *601:13 *988:wbs_dat_i[3] 38.0925 
*END

*D_NET *602 0.0257883
*CONN
*P wbs_dat_i[4] I
*I *988:wbs_dat_i[4] I *D soc_sys
*CAP
1 wbs_dat_i[4] 0.00248461
2 *988:wbs_dat_i[4] 0.00206468
3 *602:19 0.0088034
4 *602:15 0.00922333
5 *988:wbs_dat_i[4] *611:19 0.0013306
6 *602:15 wbs_dat_o[3] 0.000685344
7 *602:15 wbs_dat_o[4] 0.000134961
8 *602:15 *643:13 4.91201e-05
9 *602:19 *609:15 0
10 *554:15 *602:15 0.000383116
11 *570:9 *602:15 0
12 *574:17 *602:19 0
13 *579:17 *602:19 0.00062909
14 *601:13 *602:19 0
*RES
1 wbs_dat_i[4] *602:15 46.396 
2 *602:15 *602:19 18.1345 
3 *602:19 *988:wbs_dat_i[4] 43.1925 
*END

*D_NET *603 0.0310373
*CONN
*P wbs_dat_i[5] I
*I *988:wbs_dat_i[5] I *D soc_sys
*CAP
1 wbs_dat_i[5] 0.00149502
2 *988:wbs_dat_i[5] 0.00647209
3 *603:13 0.0091833
4 *603:9 0.00420623
5 *988:wbs_dat_i[5] *988:wbs_dat_i[9] 0
6 *988:wbs_adr_i[3] *988:wbs_dat_i[5] 0.00667521
7 *988:wbs_adr_i[4] *988:wbs_dat_i[5] 0
8 *65:25 *988:wbs_dat_i[5] 0.00300541
9 *570:9 *603:9 0
10 *587:21 *603:9 0
11 *587:21 *603:13 0
*RES
1 wbs_dat_i[5] *603:9 26.7525 
2 *603:9 *603:13 49.445 
3 *603:13 *988:wbs_dat_i[5] 33.1886 
*END

*D_NET *604 0.0293024
*CONN
*P wbs_dat_i[6] I
*I *988:wbs_dat_i[6] I *D soc_sys
*CAP
1 wbs_dat_i[6] 0.00887887
2 *988:wbs_dat_i[6] 8.93958e-05
3 *604:15 0.0035069
4 *604:13 0.0122964
5 *604:13 wbs_dat_o[4] 0
6 *604:13 *643:13 0
7 *604:15 *637:13 0
8 *545:13 *604:13 0
9 *550:13 *604:13 0.000299514
10 *578:13 *604:13 0
11 *582:13 *604:13 0.000603376
12 *583:13 *604:15 0.0016351
13 *583:17 *604:15 0.00199289
14 *598:13 *604:13 0
*RES
1 wbs_dat_i[6] *604:13 30.5501 
2 *604:13 *604:15 78.135 
3 *604:15 *988:wbs_dat_i[6] 1.2675 
*END

*D_NET *605 0.0354678
*CONN
*P wbs_dat_i[7] I
*I *988:wbs_dat_i[7] I *D soc_sys
*CAP
1 wbs_dat_i[7] 0.00159717
2 *988:wbs_dat_i[7] 8.93958e-05
3 *605:15 0.00223238
4 *605:13 0.0104157
5 *605:9 0.00986986
6 *605:13 *606:13 0
7 *605:15 *639:17 0.00498052
8 *548:13 *605:13 0.00628278
9 *570:13 *605:13 0
*RES
1 wbs_dat_i[7] *605:9 28.8875 
2 *605:9 *605:13 24.5439 
3 *605:13 *605:15 57.225 
4 *605:15 *988:wbs_dat_i[7] 1.2675 
*END

*D_NET *606 0.0345925
*CONN
*P wbs_dat_i[8] I
*I *988:wbs_dat_i[8] I *D soc_sys
*CAP
1 wbs_dat_i[8] 0.00137982
2 *988:wbs_dat_i[8] 8.63111e-05
3 *606:15 0.00362969
4 *606:13 0.0124128
5 *606:9 0.0102492
6 *606:13 *616:15 0.00310263
7 *606:15 wbs_dat_o[19] 0
8 *606:15 *618:17 0
9 *547:13 *606:13 0.00373204
10 *548:13 *606:13 0
11 *605:13 *606:13 0
*RES
1 wbs_dat_i[8] *606:9 24.9875 
2 *606:9 *606:13 26.2336 
3 *606:13 *606:15 61.305 
4 *606:15 *988:wbs_dat_i[8] 1.2675 
*END

*D_NET *607 0.0435701
*CONN
*P wbs_dat_i[9] I
*I *988:wbs_dat_i[9] I *D soc_sys
*CAP
1 wbs_dat_i[9] 0.00150745
2 *988:wbs_dat_i[9] 0.00845095
3 *607:13 0.0110325
4 *607:9 0.00408899
5 *988:wbs_dat_i[9] *611:15 0.0131794
6 *988:wbs_dat_i[9] *615:15 0
7 *988:wbs_dat_i[9] *621:17 0.00122071
8 *607:9 *633:13 0
9 *607:13 *633:13 0
10 *988:wbs_adr_i[4] *988:wbs_dat_i[9] 0.00409014
11 *988:wbs_dat_i[5] *988:wbs_dat_i[9] 0
12 *574:13 *607:9 0
*RES
1 wbs_dat_i[9] *607:9 26.2425 
2 *607:9 *607:13 44.855 
3 *607:13 *988:wbs_dat_i[9] 44.9939 
*END

*D_NET *608 0.0291198
*CONN
*P wbs_dat_o[0] O
*I *988:wbs_dat_o[0] O *D soc_sys
*CAP
1 wbs_dat_o[0] 0.00149656
2 *988:wbs_dat_o[0] 0.0020243
3 *608:25 0.00483899
4 *608:23 0.00536673
5 *608:23 *988:wbs_sel_i[0] 0.00127293
6 *608:23 *988:wbs_sel_i[1] 0.00414221
7 *608:23 *988:wbs_sel_i[2] 9.2742e-05
8 *608:23 *988:wbs_stb_i 0.000507639
9 *988:wbs_cyc_i *608:23 0.00217152
10 *31:21 *608:23 0.00083798
11 *32:21 *608:23 0.000912612
12 *32:49 *608:25 1.23312e-05
13 *33:21 *608:23 0.000853392
14 *34:21 *608:23 0.00093105
15 *44:43 *608:23 5.87459e-05
16 *49:31 *608:23 0.00238276
17 *541:17 *608:23 6.67917e-06
18 *541:57 *608:23 0.00121061
19 *576:13 wbs_dat_o[0] 0
*RES
1 *988:wbs_dat_o[0] *608:23 13.6416 
2 *608:23 *608:25 59.145 
3 *608:25 wbs_dat_o[0] 26.2425 
*END

*D_NET *609 0.0419714
*CONN
*P wbs_dat_o[10] O
*I *988:wbs_dat_o[10] O *D soc_sys
*CAP
1 wbs_dat_o[10] 0.00272794
2 *988:wbs_dat_o[10] 0.00224436
3 *609:15 0.0113688
4 *609:11 0.0108852
5 *579:17 *609:15 0
6 *581:13 *609:15 0.0147451
7 *602:19 *609:15 0
*RES
1 *988:wbs_dat_o[10] *609:11 38.5925 
2 *609:11 *609:15 30.7201 
3 *609:15 wbs_dat_o[10] 48.2775 
*END

*D_NET *610 0.0476874
*CONN
*P wbs_dat_o[11] O
*I *988:wbs_dat_o[11] O *D soc_sys
*CAP
1 wbs_dat_o[11] 0.00944748
2 *988:wbs_dat_o[11] 8.31983e-05
3 *610:9 0.0136447
4 *610:7 0.00428041
5 *610:9 wbs_dat_o[25] 0
6 *610:9 *625:13 0
7 *545:13 wbs_dat_o[11] 0.0191005
8 *546:13 wbs_dat_o[11] 0
9 *551:13 wbs_dat_o[11] 0
10 *560:11 wbs_dat_o[11] 0.0011312
11 *561:9 *610:9 0
12 *561:11 *610:9 0
13 *578:13 wbs_dat_o[11] 0
*RES
1 *988:wbs_dat_o[11] *610:7 1.2675 
2 *610:7 *610:9 72.525 
3 *610:9 wbs_dat_o[11] 45.5456 
*END

*D_NET *611 0.0448194
*CONN
*P wbs_dat_o[12] O
*I *988:wbs_dat_o[12] O *D soc_sys
*CAP
1 wbs_dat_o[12] 0.0014568
2 *988:wbs_dat_o[12] 0.000835029
3 *611:19 0.00349963
4 *611:15 0.0124917
5 *611:11 0.0112839
6 *611:11 *627:23 0.000742431
7 *988:wbs_adr_i[6] *611:15 0
8 *988:wbs_dat_i[4] *611:19 0.0013306
9 *988:wbs_dat_i[9] *611:15 0.0131794
10 *583:21 *611:15 0
11 *594:15 *611:15 0
*RES
1 *988:wbs_dat_o[12] *611:11 17.6825 
2 *611:11 *611:15 34.1579 
3 *611:15 *611:19 44.64 
4 *611:19 wbs_dat_o[12] 25.4475 
*END

*D_NET *612 0.0541004
*CONN
*P wbs_dat_o[13] O
*I *988:wbs_dat_o[13] O *D soc_sys
*CAP
1 wbs_dat_o[13] 0.00208658
2 *988:wbs_dat_o[13] 0.00584435
3 *612:19 0.00467121
4 *612:15 0.00842899
5 *612:15 *629:17 0
6 *612:19 *635:13 0
7 *988:wbs_adr_i[10] *612:15 0.013897
8 *36:25 *612:15 0.00422719
9 *67:21 *612:15 0.00989643
10 *548:9 wbs_dat_o[13] 0
11 *561:15 *612:15 0.00504863
12 *570:15 wbs_dat_o[13] 0
13 *570:15 *612:19 0
*RES
1 *988:wbs_dat_o[13] *612:15 43.8984 
2 *612:15 *612:19 43.98 
3 *612:19 wbs_dat_o[13] 36.3075 
*END

*D_NET *613 0.0508579
*CONN
*P wbs_dat_o[14] O
*I *988:wbs_dat_o[14] O *D soc_sys
*CAP
1 wbs_dat_o[14] 0.00107917
2 *988:wbs_dat_o[14] 8.93958e-05
3 *613:15 0.0109088
4 *613:9 0.0133957
5 *613:7 0.00365548
6 *613:15 *616:15 0
7 *546:13 *613:15 0.0177451
8 *547:13 *613:15 0
9 *549:9 wbs_dat_o[14] 0
10 *564:11 *613:15 0.00323157
11 *567:9 *613:9 0
12 *567:11 *613:15 0
13 *600:9 *613:9 0.000752702
*RES
1 *988:wbs_dat_o[14] *613:7 1.2675 
2 *613:7 *613:9 66.915 
3 *613:9 *613:15 38.0373 
4 *613:15 wbs_dat_o[14] 18.5325 
*END

*D_NET *614 0.0533541
*CONN
*P wbs_dat_o[15] O
*I *988:wbs_dat_o[15] O *D soc_sys
*CAP
1 wbs_dat_o[15] 4.08978e-05
2 *988:wbs_dat_o[15] 0.00189012
3 *614:17 0.00314341
4 *614:15 0.0143375
5 *614:11 0.0131251
6 *572:13 *614:15 0
7 *573:17 *614:15 0.00295528
8 *582:13 *614:17 0
9 *585:19 *614:15 0
10 *588:19 *614:15 0.0178618
11 *597:11 *614:15 0
*RES
1 *988:wbs_dat_o[15] *614:11 31.9625 
2 *614:11 *614:15 39.5767 
3 *614:15 *614:17 54.165 
4 *614:17 wbs_dat_o[15] 0.7425 
*END

*D_NET *615 0.0637442
*CONN
*P wbs_dat_o[16] O
*I *988:wbs_dat_o[16] O *D soc_sys
*CAP
1 wbs_dat_o[16] 0.0015414
2 *988:wbs_dat_o[16] 0.000616827
3 *615:17 0.0043404
4 *615:15 0.0103911
5 *615:11 0.00820889
6 *615:11 *617:17 0.000382571
7 *615:17 *638:13 0
8 *988:wbs_adr_i[15] *615:15 0.0228729
9 *988:wbs_dat_i[9] *615:15 0
10 *65:25 *615:15 0.00259991
11 *594:15 *615:15 0.0127902
*RES
1 *988:wbs_dat_o[16] *615:11 12.0725 
2 *615:11 *615:15 41.2081 
3 *615:15 *615:17 49.455 
4 *615:17 wbs_dat_o[16] 26.7525 
*END

*D_NET *616 0.0596047
*CONN
*P wbs_dat_o[17] O
*I *988:wbs_dat_o[17] O *D soc_sys
*CAP
1 wbs_dat_o[17] 0.00139288
2 *988:wbs_dat_o[17] 8.93958e-05
3 *616:15 0.0128496
4 *616:9 0.0150364
5 *616:7 0.00366904
6 *547:13 *616:15 0.0153634
7 *548:13 *616:15 0
8 *567:11 *616:15 0.00810145
9 *593:11 *616:15 0
10 *606:13 *616:15 0.00310263
11 *613:15 *616:15 0
*RES
1 *988:wbs_dat_o[17] *616:7 1.2675 
2 *616:7 *616:9 61.815 
3 *616:9 *616:15 43.2813 
4 *616:15 wbs_dat_o[17] 23.9775 
*END

*D_NET *617 0.0711162
*CONN
*P wbs_dat_o[18] O
*I *988:wbs_dat_o[18] O *D soc_sys
*CAP
1 wbs_dat_o[18] 0.00566178
2 *988:wbs_dat_o[18] 0.00118229
3 *617:17 0.0102828
4 *617:15 0.00580329
5 wbs_dat_o[18] *620:15 0.00865302
6 wbs_dat_o[18] *624:13 0.00835129
7 wbs_dat_o[18] *631:25 0.0062241
8 *617:15 *618:15 0.00521557
9 *617:15 *629:13 0.00521787
10 *988:wbs_adr_i[21] wbs_dat_o[18] 0.00394836
11 *577:11 wbs_dat_o[18] 0
12 *578:13 wbs_dat_o[18] 0.00999772
13 *585:11 wbs_dat_o[18] 9.8071e-05
14 *585:13 wbs_dat_o[18] 0
15 *588:11 wbs_dat_o[18] 9.74499e-05
16 *615:11 *617:17 0.000382571
*RES
1 *988:wbs_dat_o[18] *617:15 12.3748 
2 *617:15 *617:17 79.665 
3 *617:17 wbs_dat_o[18] 41.3622 
*END

*D_NET *618 0.0703894
*CONN
*P wbs_dat_o[19] O
*I *988:wbs_dat_o[19] O *D soc_sys
*CAP
1 wbs_dat_o[19] 0.00157854
2 *988:wbs_dat_o[19] 0.00775312
3 *618:17 0.00491801
4 *618:15 0.0110926
5 *618:15 *621:13 0.027169
6 *618:15 *629:13 0.00555251
7 *618:15 *639:15 0.00159165
8 *108:21 *618:15 0.00551847
9 *586:9 wbs_dat_o[19] 0
10 *606:15 wbs_dat_o[19] 0
11 *606:15 *618:17 0
12 *617:15 *618:15 0.00521557
*RES
1 *988:wbs_dat_o[19] *618:15 49.9712 
2 *618:15 *618:17 58.125 
3 *618:17 wbs_dat_o[19] 26.7525 
*END

*D_NET *619 0.0323426
*CONN
*P wbs_dat_o[1] O
*I *988:wbs_dat_o[1] O *D soc_sys
*CAP
1 wbs_dat_o[1] 0.00104468
2 *988:wbs_dat_o[1] 0.00146305
3 *619:18 0.00373486
4 *619:16 0.00415323
5 *988:wbs_cyc_i *619:16 4.00045e-05
6 *43:17 *619:16 0.00829988
7 *44:43 *619:16 4.3249e-05
8 *49:31 *619:16 0.00829988
9 *541:57 *619:16 0.00171031
10 *576:15 wbs_dat_o[1] 0.00188149
11 *576:15 *619:18 0.00167194
12 *587:19 wbs_dat_o[1] 0
*RES
1 *988:wbs_dat_o[1] *619:16 14.7376 
2 *619:16 *619:18 59.655 
3 *619:18 wbs_dat_o[1] 26.7525 
*END

*D_NET *620 0.0741137
*CONN
*P wbs_dat_o[20] O
*I *988:wbs_dat_o[20] O *D soc_sys
*CAP
1 wbs_dat_o[20] 0.000148486
2 *988:wbs_dat_o[20] 9.03524e-05
3 *620:15 0.00604132
4 *620:9 0.0108018
5 *620:7 0.0049993
6 *620:15 *628:21 0.0199838
7 *620:15 *631:25 0.0170122
8 wbs_dat_o[18] *620:15 0.00865302
9 *988:wbs_adr_i[21] *620:15 1.19249e-05
10 *577:11 *620:15 0.000744144
11 *588:11 *620:15 3.97673e-05
12 *588:13 wbs_dat_o[20] 8.04518e-05
13 *590:11 *620:15 0.00550721
*RES
1 *988:wbs_dat_o[20] *620:7 1.2675 
2 *620:7 *620:9 82.725 
3 *620:9 *620:15 48.5836 
4 *620:15 wbs_dat_o[20] 3.0675 
*END

*D_NET *621 0.0988786
*CONN
*P wbs_dat_o[21] O
*I *988:wbs_dat_o[21] O *D soc_sys
*CAP
1 wbs_dat_o[21] 0.00162056
2 *988:wbs_dat_o[21] 0.000170681
3 *621:17 0.00480594
4 *621:15 0.00318538
5 *621:13 0.00695247
6 *621:11 0.00712315
7 *621:13 *623:13 0.0303994
8 *621:13 *629:13 0.00195937
9 *621:13 *639:15 0.000933024
10 *988:wbs_adr_i[21] *621:13 1.91843e-05
11 *988:wbs_dat_i[9] *621:17 0.00122071
12 *31:21 *621:13 0.000282169
13 *32:21 *621:13 0.000306083
14 *33:21 *621:13 0.000159217
15 *34:21 *621:13 0.000117682
16 *42:25 *621:13 0.00348292
17 *43:17 *621:13 0
18 *44:23 *621:13 0.000177143
19 *44:25 *621:13 0.000760494
20 *540:25 *621:13 0.000112768
21 *541:57 *621:13 0.00792132
22 *618:15 *621:13 0.027169
*RES
1 *988:wbs_dat_o[21] *621:11 2.8925 
2 *621:11 *621:13 49.6229 
3 *621:13 *621:15 0.5 
4 *621:15 *621:17 58.635 
5 *621:17 wbs_dat_o[21] 26.7525 
*END

*D_NET *622 0.0879568
*CONN
*P wbs_dat_o[22] O
*I *988:wbs_dat_o[22] O *D soc_sys
*CAP
1 wbs_dat_o[22] 6.20697e-05
2 *988:wbs_dat_o[22] 8.93958e-05
3 *622:13 0.007233
4 *622:11 0.00717093
5 *622:9 0.00482804
6 *622:7 0.00491744
7 *622:13 *626:21 0.0284524
8 *622:13 *628:21 0.000496975
9 *577:11 *622:13 0.00109555
10 *590:11 *622:13 0.033611
*RES
1 *988:wbs_dat_o[22] *622:7 1.2675 
2 *622:7 *622:9 84.255 
3 *622:9 *622:11 0.5 
4 *622:11 *622:13 51.1961 
5 *622:13 wbs_dat_o[22] 1.5875 
*END

*D_NET *623 0.119968
*CONN
*P wbs_dat_o[23] O
*I *988:wbs_dat_o[23] O *D soc_sys
*CAP
1 wbs_dat_o[23] 0.00162066
2 *988:wbs_dat_o[23] 0.000136113
3 *623:17 0.0050849
4 *623:15 0.00346424
5 *623:13 0.00687723
6 *623:11 0.00701334
7 *623:13 *625:9 0.0327779
8 *623:13 *629:13 0.00140574
9 *31:21 *623:13 0.00789855
10 *32:21 *623:13 0.0131812
11 *33:21 *623:13 0.000627694
12 *34:21 *623:13 0.000580033
13 *43:17 *623:13 0
14 *540:25 *623:13 0.000535555
15 *541:57 *623:13 0.00836534
16 *577:13 wbs_dat_o[23] 0
17 *577:13 *623:17 0
18 *621:13 *623:13 0.0303994
*RES
1 *988:wbs_dat_o[23] *623:11 2.3825 
2 *623:11 *623:13 53.1772 
3 *623:13 *623:15 0.5 
4 *623:15 *623:17 59.145 
5 *623:17 wbs_dat_o[23] 26.7525 
*END

*D_NET *624 0.0653989
*CONN
*P wbs_dat_o[24] O
*I *988:wbs_dat_o[24] O *D soc_sys
*CAP
1 wbs_dat_o[24] 0.000315024
2 *988:wbs_dat_o[24] 8.93958e-05
3 *624:13 0.0119094
4 *624:11 0.0115944
5 *624:9 0.00458379
6 *624:7 0.00467318
7 *624:13 *631:25 0.00914409
8 wbs_dat_o[18] *624:13 0.00835129
9 *988:wbs_adr_i[21] *624:13 0.00607274
10 *550:13 *624:13 0.000563298
11 *555:13 *624:13 0.00250952
12 *578:13 *624:13 0.000736095
13 *582:13 *624:13 0.00485674
*RES
1 *988:wbs_dat_o[24] *624:7 1.2675 
2 *624:7 *624:9 80.685 
3 *624:9 *624:11 0.5 
4 *624:11 *624:13 54.6921 
5 *624:13 wbs_dat_o[24] 5.6075 
*END

*D_NET *625 0.122271
*CONN
*P wbs_dat_o[25] O
*I *988:wbs_dat_o[25] O *D soc_sys
*CAP
1 wbs_dat_o[25] 0.00160144
2 *988:wbs_dat_o[25] 8.37941e-05
3 *625:13 0.00506488
4 *625:11 0.00346344
5 *625:9 0.0076261
6 *625:7 0.00770989
7 *625:9 *626:15 0.000155289
8 *625:9 *627:9 0.0298884
9 *625:9 *627:23 0.0027056
10 *625:9 *628:15 9.75128e-05
11 *625:9 *629:13 0.000802263
12 *31:21 *625:9 0.00112013
13 *32:21 *625:9 0.00244412
14 *33:21 *625:9 0.00773129
15 *34:21 *625:9 0.00839274
16 *42:23 *625:9 0.000559135
17 *43:17 *625:9 0.000706125
18 *540:25 *625:9 0.000561164
19 *541:57 *625:9 0.00877983
20 *593:9 wbs_dat_o[25] 0
21 *593:9 *625:13 0
22 *610:9 wbs_dat_o[25] 0
23 *610:9 *625:13 0
24 *623:13 *625:9 0.0327779
*RES
1 *988:wbs_dat_o[25] *625:7 1.5725 
2 *625:7 *625:9 56.7163 
3 *625:9 *625:11 0.5 
4 *625:11 *625:13 59.655 
5 *625:13 wbs_dat_o[25] 26.7525 
*END

*D_NET *626 0.0750895
*CONN
*P wbs_dat_o[26] O
*I *988:wbs_dat_o[26] O *D soc_sys
*CAP
1 wbs_dat_o[26] 5.99008e-05
2 *988:wbs_dat_o[26] 0.00113056
3 *626:21 0.0132901
4 *626:19 0.0132302
5 *626:17 0.00469103
6 *626:15 0.00582159
7 *626:15 *628:15 0.00150701
8 *626:15 *629:13 0.00335775
9 *626:21 wbs_dat_o[31] 0.000231655
10 *626:21 *628:21 0.00316193
11 *593:15 *626:17 0
12 *622:13 *626:21 0.0284524
13 *625:9 *626:15 0.000155289
*RES
1 *988:wbs_dat_o[26] *626:15 9.57797 
2 *626:15 *626:17 82.725 
3 *626:17 *626:19 0.5 
4 *626:19 *626:21 53.1772 
5 *626:21 wbs_dat_o[26] 1.5875 
*END

*D_NET *627 0.0974205
*CONN
*P wbs_dat_o[27] O
*I *988:wbs_dat_o[27] O *D soc_sys
*CAP
1 wbs_dat_o[27] 0.000701317
2 *988:wbs_dat_o[27] 3.98936e-05
3 *627:25 0.00363735
4 *627:23 0.00563729
5 *627:9 0.015498
6 *627:7 0.0128366
7 *627:9 wbs_dat_o[31] 0.0038845
8 *627:9 *628:15 0.000396937
9 *627:9 *631:15 0.000287642
10 *33:21 *627:9 0.000338088
11 *34:21 *627:9 0.000309889
12 *42:23 *627:23 0.000554639
13 *43:17 *627:9 0.000433943
14 *43:17 *627:23 0.00217532
15 *540:25 *627:9 0.00724968
16 *540:25 *627:23 0.00103507
17 *541:57 *627:9 0.00792723
18 *541:57 *627:23 0.00114071
19 *563:9 wbs_dat_o[27] 0
20 *563:9 *627:25 0
21 *611:11 *627:23 0.000742431
22 *625:9 *627:9 0.0298884
23 *625:9 *627:23 0.0027056
*RES
1 *988:wbs_dat_o[27] *627:7 1.0625 
2 *627:7 *627:9 52.4337 
3 *627:9 *627:23 32.9929 
4 *627:23 *627:25 51.855 
5 *627:25 wbs_dat_o[27] 10.8825 
*END

*D_NET *628 0.0953942
*CONN
*P wbs_dat_o[28] O
*I *988:wbs_dat_o[28] O *D soc_sys
*CAP
1 wbs_dat_o[28] 0.000156875
2 *988:wbs_dat_o[28] 0.00229731
3 *628:21 0.00605605
4 *628:19 0.00589917
5 *628:17 0.00466342
6 *628:15 0.00696073
7 *628:15 *629:13 0.00197802
8 *628:15 *631:15 0.00711128
9 *628:21 *631:25 0.00776572
10 *31:21 *628:15 0.000175849
11 *32:21 *628:15 0.000381504
12 *541:57 *628:15 0.00179829
13 *590:11 *628:21 0.0245059
14 *620:15 *628:21 0.0199838
15 *622:13 *628:21 0.000496975
16 *625:9 *628:15 9.75128e-05
17 *626:15 *628:15 0.00150701
18 *626:21 *628:21 0.00316193
19 *627:9 *628:15 0.000396937
*RES
1 *988:wbs_dat_o[28] *628:15 15.7248 
2 *628:15 *628:17 82.215 
3 *628:17 *628:19 0.5 
4 *628:19 *628:21 49.5064 
5 *628:21 wbs_dat_o[28] 3.0575 
*END

*D_NET *629 0.0946297
*CONN
*P wbs_dat_o[29] O
*I *988:wbs_dat_o[29] O *D soc_sys
*CAP
1 wbs_dat_o[29] 0.00160862
2 *988:wbs_dat_o[29] 0.000254193
3 *629:17 0.00500954
4 *629:15 0.00340092
5 *629:13 0.0107102
6 *629:11 0.0109644
7 *629:13 *631:15 0.000707696
8 *988:wbs_adr_i[21] *629:13 4.21127e-05
9 *108:21 *629:13 0.0416584
10 *612:15 *629:17 0
11 *617:15 *629:13 0.00521787
12 *618:15 *629:13 0.00555251
13 *621:13 *629:13 0.00195937
14 *623:13 *629:13 0.00140574
15 *625:9 *629:13 0.000802263
16 *626:15 *629:13 0.00335775
17 *628:15 *629:13 0.00197802
*RES
1 *988:wbs_dat_o[29] *629:11 4.4225 
2 *629:11 *629:13 63.7817 
3 *629:13 *629:15 0.5 
4 *629:15 *629:17 57.105 
5 *629:17 wbs_dat_o[29] 26.2425 
*END

*D_NET *630 0.0326612
*CONN
*P wbs_dat_o[2] O
*I *988:wbs_dat_o[2] O *D soc_sys
*CAP
1 wbs_dat_o[2] 4.08978e-05
2 *988:wbs_dat_o[2] 0.00331424
3 *630:21 0.00342735
4 *630:19 0.0067007
5 *630:19 *988:wbs_we_i 4.55864e-06
6 *630:21 *642:13 0
7 *54:21 *630:19 0.00958559
8 *108:21 *630:19 0.00958789
9 *565:13 *630:19 0
*RES
1 *988:wbs_dat_o[2] *630:19 40.9154 
2 *630:19 *630:21 61.44 
3 *630:21 wbs_dat_o[2] 0.7425 
*END

*D_NET *631 0.10145
*CONN
*P wbs_dat_o[30] O
*I *988:wbs_dat_o[30] O *D soc_sys
*CAP
1 wbs_dat_o[30] 6.20697e-05
2 *988:wbs_dat_o[30] 0.00278677
3 *631:25 0.00747735
4 *631:17 0.0119769
5 *631:15 0.00734838
6 *631:15 wbs_dat_o[31] 0.0120418
7 wbs_dat_o[18] *631:25 0.0062241
8 *988:wbs_adr_i[26] *631:17 0.000157603
9 *31:21 *631:15 0.00282846
10 *32:21 *631:15 0.00517113
11 *108:21 *631:15 0.000470873
12 *541:57 *631:15 0.00287618
13 *620:15 *631:25 0.0170122
14 *624:13 *631:25 0.00914409
15 *627:9 *631:15 0.000287642
16 *628:15 *631:15 0.00711128
17 *628:21 *631:25 0.00776572
18 *629:13 *631:15 0.000707696
*RES
1 *988:wbs_dat_o[30] *631:15 21.5076 
2 *631:15 *631:17 81.705 
3 *631:17 *631:25 49.9711 
4 *631:25 wbs_dat_o[30] 1.0875 
*END

*D_NET *632 0.0980876
*CONN
*P wbs_dat_o[31] O
*I *988:wbs_dat_o[31] O *D soc_sys
*CAP
1 wbs_dat_o[31] 0.0319901
2 *988:wbs_dat_o[31] 0.0319901
3 *988:wbs_adr_i[21] wbs_dat_o[31] 0.00444908
4 *31:21 wbs_dat_o[31] 0.000562462
5 *32:21 wbs_dat_o[31] 0.00122729
6 *33:21 wbs_dat_o[31] 0.00298269
7 *34:21 wbs_dat_o[31] 0.00325412
8 *108:21 wbs_dat_o[31] 0
9 *540:25 wbs_dat_o[31] 0.00224466
10 *541:57 wbs_dat_o[31] 0.00322906
11 *626:21 wbs_dat_o[31] 0.000231655
12 *627:9 wbs_dat_o[31] 0.0038845
13 *631:15 wbs_dat_o[31] 0.0120418
*RES
1 *988:wbs_dat_o[31] wbs_dat_o[31] 45.964 
*END

*D_NET *633 0.033929
*CONN
*P wbs_dat_o[3] O
*I *988:wbs_dat_o[3] O *D soc_sys
*CAP
1 wbs_dat_o[3] 0.00332902
2 *988:wbs_dat_o[3] 0.000976166
3 *633:13 0.00826234
4 *633:11 0.00590949
5 wbs_dat_o[3] wbs_dat_o[4] 0.000693552
6 wbs_dat_o[3] wbs_dat_o[5] 0.00580933
7 wbs_dat_o[3] wbs_dat_o[6] 0.000616786
8 wbs_dat_o[3] wbs_dat_o[7] 0.00271151
9 wbs_dat_o[3] *642:13 0
10 wbs_dat_o[3] *643:13 0
11 *633:13 wbs_dat_o[9] 0
12 *988:wbs_adr_i[3] *633:13 0
13 *31:21 *633:11 0.000376573
14 *32:21 *633:11 0.000410841
15 *33:21 *633:11 0.000371778
16 *34:21 *633:11 0.00040561
17 *42:25 *633:11 0.000378934
18 *44:25 *633:11 0.000698657
19 *49:31 *633:11 0.00088283
20 *54:21 *633:11 0.000540995
21 *540:25 *633:11 0.00037411
22 *541:57 *633:11 0.000495175
23 *602:15 wbs_dat_o[3] 0.000685344
24 *607:9 *633:13 0
25 *607:13 *633:13 0
*RES
1 *988:wbs_dat_o[3] *633:11 5.18343 
2 *633:11 *633:13 84.765 
3 *633:13 wbs_dat_o[3] 16.1632 
*END

*D_NET *634 0.0400309
*CONN
*P wbs_dat_o[4] O
*I *988:wbs_dat_o[4] O *D soc_sys
*CAP
1 wbs_dat_o[4] 0.0025041
2 *988:wbs_dat_o[4] 0.000634475
3 *634:13 0.00637536
4 *634:11 0.00450573
5 wbs_dat_o[4] wbs_dat_o[6] 0.00169647
6 wbs_dat_o[4] wbs_dat_o[8] 0.00533848
7 wbs_dat_o[4] *643:13 0.00984384
8 wbs_dat_o[3] wbs_dat_o[4] 0.000693552
9 *988:wbs_adr_i[4] *634:13 0
10 *31:21 *634:11 0.000325871
11 *32:21 *634:11 0.000355525
12 *33:21 *634:11 0.000321076
13 *34:21 *634:11 0.00035791
14 *42:25 *634:11 0.000327914
15 *44:25 *634:11 0.00060459
16 *49:31 *634:11 0.000649608
17 *54:21 *634:11 0.000402854
18 *540:25 *634:11 0.000330114
19 *541:57 *634:11 0.000278881
20 *546:9 *634:13 0
21 *578:13 wbs_dat_o[4] 0.000735653
22 *579:13 *634:13 0.00361394
23 *602:15 wbs_dat_o[4] 0.000134961
24 *604:13 wbs_dat_o[4] 0
*RES
1 *988:wbs_dat_o[4] *634:11 4.42597 
2 *634:11 *634:13 82.215 
3 *634:13 wbs_dat_o[4] 21.6242 
*END

*D_NET *635 0.0394507
*CONN
*P wbs_dat_o[5] O
*I *988:wbs_dat_o[5] O *D soc_sys
*CAP
1 wbs_dat_o[5] 0.00423536
2 *988:wbs_dat_o[5] 0.00123593
3 *635:13 0.00860895
4 *635:11 0.00560952
5 wbs_dat_o[5] wbs_dat_o[7] 0.000746392
6 *635:11 *636:11 0.000132684
7 *635:11 *636:13 1.3685e-05
8 wbs_dat_o[3] wbs_dat_o[5] 0.00580933
9 *31:21 *635:11 0.000490064
10 *32:21 *635:11 0.00053466
11 *33:21 *635:11 0.000490064
12 *34:21 *635:11 0.000542276
13 *42:25 *635:11 0.000493138
14 *43:17 *635:11 0.000318566
15 *44:25 *635:11 0.000909219
16 *49:31 *635:11 0.000350233
17 *54:21 *635:11 0.000494061
18 *540:25 *635:11 0.00050166
19 *541:57 *635:11 0.000427346
20 *577:11 wbs_dat_o[5] 0.00462379
21 *580:9 *635:13 0.00288379
22 *612:19 *635:13 0
*RES
1 *988:wbs_dat_o[5] *635:11 5.82437 
2 *635:11 *635:13 85.275 
3 *635:13 wbs_dat_o[5] 19.4307 
*END

*D_NET *636 0.0462648
*CONN
*P wbs_dat_o[6] O
*I *988:wbs_dat_o[6] O *D soc_sys
*CAP
1 wbs_dat_o[6] 0.00260285
2 *988:wbs_dat_o[6] 0.00102727
3 *636:13 0.00604689
4 *636:11 0.00447132
5 wbs_dat_o[6] wbs_dat_o[7] 0.00168352
6 wbs_dat_o[6] wbs_dat_o[8] 0.00944464
7 wbs_dat_o[6] wbs_dat_o[9] 0.00797008
8 *636:11 *637:11 0.00112787
9 *636:11 *638:13 3.0562e-06
10 wbs_dat_o[3] wbs_dat_o[6] 0.000616786
11 wbs_dat_o[4] wbs_dat_o[6] 0.00169647
12 *31:21 *636:11 0.00033529
13 *32:21 *636:11 0.000309094
14 *33:21 *636:11 0.000359513
15 *34:21 *636:11 0.000331014
16 *42:25 *636:11 0.000285392
17 *43:17 *636:11 0.000941186
18 *44:25 *636:11 0.000240017
19 *540:25 *636:11 0.000557667
20 *541:57 *636:11 0.000789756
21 *549:9 *636:13 0.00086045
22 *549:11 *636:13 0.00441826
23 *572:7 wbs_dat_o[6] 0
24 *635:11 *636:11 0.000132684
25 *635:11 *636:13 1.3685e-05
*RES
1 *988:wbs_dat_o[6] *636:11 5.7805 
2 *636:11 *636:13 83.745 
3 *636:13 wbs_dat_o[6] 22.1243 
*END

*D_NET *637 0.0523536
*CONN
*P wbs_dat_o[7] O
*I *988:wbs_dat_o[7] O *D soc_sys
*CAP
1 wbs_dat_o[7] 0.00307082
2 *988:wbs_dat_o[7] 0.00150206
3 *637:13 0.00784903
4 *637:11 0.00628028
5 wbs_dat_o[7] wbs_dat_o[9] 0.00971467
6 *637:11 *638:11 0.00262874
7 *637:11 *639:15 0.000864455
8 wbs_dat_o[3] wbs_dat_o[7] 0.00271151
9 wbs_dat_o[5] wbs_dat_o[7] 0.000746392
10 wbs_dat_o[6] wbs_dat_o[7] 0.00168352
11 *31:21 *637:11 0.000557667
12 *32:21 *637:11 0.000608414
13 *33:21 *637:11 0.000743556
14 *34:21 *637:11 0.000811219
15 *42:25 *637:11 0.000561164
16 *43:17 *637:11 1.50352e-05
17 *44:25 *637:11 0.00103464
18 *108:21 *637:11 0
19 *541:57 *637:11 0.00082054
20 *550:13 *637:13 0.000276522
21 *577:11 wbs_dat_o[7] 0.00874545
22 *583:13 *637:13 0
23 *604:15 *637:13 0
24 *636:11 *637:11 0.00112787
*RES
1 *988:wbs_dat_o[7] *637:11 7.74717 
2 *637:11 *637:13 84.255 
3 *637:13 wbs_dat_o[7] 21.0039 
*END

*D_NET *638 0.0465192
*CONN
*P wbs_dat_o[8] O
*I *988:wbs_dat_o[8] O *D soc_sys
*CAP
1 wbs_dat_o[8] 0.00265996
2 *988:wbs_dat_o[8] 0.00137108
3 *638:13 0.00748797
4 *638:11 0.00619909
5 wbs_dat_o[8] wbs_dat_o[9] 0.0017161
6 *638:11 *639:15 0.00157199
7 wbs_dat_o[4] wbs_dat_o[8] 0.00533848
8 wbs_dat_o[6] wbs_dat_o[8] 0.00944464
9 *33:21 *638:11 0.000613645
10 *34:21 *638:11 0.000562462
11 *43:17 *638:11 0.00166738
12 *540:25 *638:11 0.00110541
13 *541:57 *638:11 0.00120897
14 *551:9 *638:13 0
15 *578:13 wbs_dat_o[8] 0.00294021
16 *615:17 *638:13 0
17 *636:11 *638:13 3.0562e-06
18 *637:11 *638:11 0.00262874
*RES
1 *988:wbs_dat_o[8] *638:11 9.50957 
2 *638:11 *638:13 83.235 
3 *638:13 wbs_dat_o[8] 22.1728 
*END

*D_NET *639 0.0586646
*CONN
*P wbs_dat_o[9] O
*I *988:wbs_dat_o[9] O *D soc_sys
*CAP
1 wbs_dat_o[9] 0.00262509
2 *988:wbs_dat_o[9] 0.0023788
3 *639:17 0.00612356
4 *639:15 0.00587727
5 wbs_dat_o[6] wbs_dat_o[9] 0.00797008
6 wbs_dat_o[7] wbs_dat_o[9] 0.00971467
7 wbs_dat_o[8] wbs_dat_o[9] 0.0017161
8 *31:21 *639:15 0.00143651
9 *32:21 *639:15 0.00130971
10 *33:21 *639:15 0.000556358
11 *34:21 *639:15 0.00052073
12 *42:25 *639:15 0.00111537
13 *43:17 *639:15 0
14 *44:25 *639:15 0.00243374
15 *108:21 *639:15 0.000403457
16 *540:25 *639:15 0.000477652
17 *541:57 *639:15 0.00131
18 *552:9 *639:17 0.000639651
19 *577:11 wbs_dat_o[9] 0.00171993
20 *578:13 wbs_dat_o[9] 0.000394269
21 *605:15 *639:17 0.00498052
22 *618:15 *639:15 0.00159165
23 *621:13 *639:15 0.000933024
24 *633:13 wbs_dat_o[9] 0
25 *637:11 *639:15 0.000864455
26 *638:11 *639:15 0.00157199
*RES
1 *988:wbs_dat_o[9] *639:15 12.2432 
2 *639:15 *639:17 83.235 
3 *639:17 wbs_dat_o[9] 21.2156 
*END

*D_NET *640 0.0289397
*CONN
*P wbs_sel_i[0] I
*I *988:wbs_sel_i[0] I *D soc_sys
*CAP
1 wbs_sel_i[0] 0.00203992
2 *988:wbs_sel_i[0] 0.00186533
3 *640:13 0.00457033
4 *640:9 0.00474492
5 *988:wbs_sel_i[0] *988:wbs_sel_i[2] 0.000543043
6 *988:wbs_sel_i[0] *988:wbs_stb_i 0.0025254
7 *31:35 *640:13 2.99518e-06
8 *42:25 *988:wbs_sel_i[0] 0.000674084
9 *44:25 *988:wbs_sel_i[0] 0.00146242
10 *54:21 *988:wbs_sel_i[0] 0.00690589
11 *541:17 *640:9 0.000858201
12 *541:17 *640:13 0.00147419
13 *554:13 *640:9 0
14 *608:23 *988:wbs_sel_i[0] 0.00127293
*RES
1 wbs_sel_i[0] *640:9 37.1025 
2 *640:9 *640:13 48.275 
3 *640:13 *988:wbs_sel_i[0] 13.9868 
*END

*D_NET *641 0.0309328
*CONN
*P wbs_sel_i[1] I
*I *988:wbs_sel_i[1] I *D soc_sys
*CAP
1 wbs_sel_i[1] 0.0014733
2 *988:wbs_sel_i[1] 0.0017757
3 *641:11 0.00521742
4 *641:9 0.00491502
5 *988:wbs_sel_i[1] *988:wbs_sel_i[2] 0.00265679
6 *33:21 *988:wbs_sel_i[1] 0.00102849
7 *34:21 *988:wbs_sel_i[1] 0.000942709
8 *49:31 *988:wbs_sel_i[1] 0.00501302
9 *540:25 *988:wbs_sel_i[1] 0.00179829
10 *541:57 *988:wbs_sel_i[1] 0.00196981
11 *587:19 *641:9 0
12 *608:23 *988:wbs_sel_i[1] 0.00414221
*RES
1 wbs_sel_i[1] *641:9 26.7525 
2 *641:9 *641:11 60.165 
3 *641:11 *988:wbs_sel_i[1] 14.4622 
*END

*D_NET *642 0.0366776
*CONN
*P wbs_sel_i[2] I
*I *988:wbs_sel_i[2] I *D soc_sys
*CAP
1 wbs_sel_i[2] 0.00137684
2 *988:wbs_sel_i[2] 0.00241443
3 *642:15 0.00694607
4 *642:13 0.00590847
5 wbs_dat_o[3] *642:13 0
6 *988:wbs_sel_i[0] *988:wbs_sel_i[2] 0.000543043
7 *988:wbs_sel_i[1] *988:wbs_sel_i[2] 0.00265679
8 *31:21 *988:wbs_sel_i[2] 0.00186978
9 *32:21 *988:wbs_sel_i[2] 0.00170684
10 *33:21 *988:wbs_sel_i[2] 0.000751916
11 *34:21 *988:wbs_sel_i[2] 0.00069317
12 *42:25 *988:wbs_sel_i[2] 0.00171384
13 *44:25 *988:wbs_sel_i[2] 0.00373959
14 *49:31 *988:wbs_sel_i[2] 0.00113825
15 *54:21 *988:wbs_sel_i[2] 0.00265776
16 *541:57 *988:wbs_sel_i[2] 0.00199922
17 *569:9 *642:15 0
18 *587:19 *642:13 0.000468865
19 *608:23 *988:wbs_sel_i[2] 9.2742e-05
20 *630:21 *642:13 0
*RES
1 wbs_sel_i[2] *642:13 9.17017 
2 *642:13 *642:15 80.175 
3 *642:15 *988:wbs_sel_i[2] 15.0982 
*END

*D_NET *643 0.0308781
*CONN
*P wbs_sel_i[3] I
*I *988:wbs_sel_i[3] I *D soc_sys
*CAP
1 wbs_sel_i[3] 0.00449497
2 *988:wbs_sel_i[3] 0.00033088
3 *643:15 0.00482052
4 *643:13 0.00898461
5 wbs_dat_o[3] *643:13 0
6 wbs_dat_o[4] *643:13 0.00984384
7 *31:21 *988:wbs_sel_i[3] 0.000131531
8 *32:21 *988:wbs_sel_i[3] 0.000143501
9 *33:21 *988:wbs_sel_i[3] 0.000126737
10 *34:21 *988:wbs_sel_i[3] 0.000145886
11 *42:25 *988:wbs_sel_i[3] 0.000132356
12 *44:25 *988:wbs_sel_i[3] 0.000244031
13 *49:31 *988:wbs_sel_i[3] 0.000251242
14 *54:21 *988:wbs_sel_i[3] 0.000158736
15 *540:25 *988:wbs_sel_i[3] 0.000134556
16 *541:57 *988:wbs_sel_i[3] 0.000107174
17 *545:13 *643:15 0.00077843
18 *569:9 *643:13 0
19 *587:19 *643:13 0
20 *602:15 *643:13 4.91201e-05
21 *604:13 *643:13 0
*RES
1 wbs_sel_i[3] *643:13 21.615 
2 *643:13 *643:15 81.705 
3 *643:15 *988:wbs_sel_i[3] 3.02757 
*END

*D_NET *644 0.0228188
*CONN
*P wbs_stb_i I
*I *988:wbs_stb_i I *D soc_sys
*CAP
1 wbs_stb_i 0.00144135
2 *988:wbs_stb_i 0.00165612
3 *644:11 0.00497874
4 *644:9 0.00476397
5 *988:wb_rst_i *988:wbs_stb_i 4.21127e-05
6 *988:wbs_sel_i[0] *988:wbs_stb_i 0.0025254
7 *31:35 *988:wbs_stb_i 0.00195478
8 *32:49 *988:wbs_stb_i 0.000345797
9 *33:35 *988:wbs_stb_i 0.000397673
10 *33:35 *644:11 1.75432e-05
11 *42:25 *988:wbs_stb_i 0.000654471
12 *44:25 *988:wbs_stb_i 0.000219672
13 *44:43 *988:wbs_stb_i 0.00326403
14 *54:21 *988:wbs_stb_i 4.94982e-05
15 *608:23 *988:wbs_stb_i 0.000507639
*RES
1 wbs_stb_i *644:9 26.2425 
2 *644:9 *644:11 59.145 
3 *644:11 *988:wbs_stb_i 11.1673 
*END

*D_NET *645 0.0226057
*CONN
*P wbs_we_i I
*I *988:wbs_we_i I *D soc_sys
*CAP
1 wbs_we_i 0.00144135
2 *988:wbs_we_i 0.00131452
3 *645:11 0.00451334
4 *645:9 0.00464017
5 *54:21 *988:wbs_we_i 0.00534476
6 *108:21 *988:wbs_we_i 0.00534706
7 *630:19 *988:wbs_we_i 4.55864e-06
*RES
1 wbs_we_i *645:9 26.2425 
2 *645:9 *645:11 57.105 
3 *645:11 *988:wbs_we_i 13.1178 
*END

*D_NET *646 0.147552
*CONN
*I *988:adc_chopclk I *D soc_sys
*I *984:buf_chopclk O *D CF_ADC_DSM20
*CAP
1 *988:adc_chopclk 0.00169956
2 *984:buf_chopclk 0.00944867
3 *646:22 0.0227368
4 *646:20 0.0304859
5 *988:adc_chopclk *799:9 0.0017088
6 *646:20 *984:MODBIT 0.00232934
7 *646:20 *984:SIGN 4.41554e-05
8 *646:20 *984:MODINPUT 0.00158672
9 *646:20 *984:itrim_comp[3] 2.18475e-05
10 *646:20 *984:itrim_comp[2] 5.11295e-05
11 *646:20 *659:20 0.0178786
12 *646:20 *667:14 0
13 *646:20 *669:12 0.0147754
14 *646:20 *875:17 0.00299192
15 *646:22 *664:22 0.0417934
16 *66:13 *988:adc_chopclk 0
*RES
1 *984:buf_chopclk *646:20 48.8755 
2 *646:20 *646:22 77.2996 
3 *646:22 *988:adc_chopclk 20.9651 
*END

*D_NET *647 0.150123
*CONN
*I *988:adc_dout[0] I *D soc_sys
*I *984:dout[0] I *D CF_ADC_DSM20
*CAP
1 *988:adc_dout[0] 0.00895784
2 *984:dout[0] 0.0185121
3 *647:24 0.0131773
4 *647:18 0.0262758
5 *647:16 0.0405684
6 *647:16 *648:8 0
7 *647:16 *648:12 0
8 *647:18 *810:13 0.0323525
9 *647:24 *650:24 0
10 *647:24 *792:9 0.0102787
*RES
1 *984:dout[0] *647:16 49.2372 
2 *647:16 *647:18 78.85 
3 *647:18 *647:24 16.5078 
4 *647:24 *988:adc_dout[0] 158.152 
*END

*D_NET *648 0.15348
*CONN
*I *988:adc_dout[1] I *D soc_sys
*I *984:dout[1] I *D CF_ADC_DSM20
*CAP
1 *988:adc_dout[1] 0.00461262
2 *984:dout[1] 0.0001681
3 *648:14 0.0347492
4 *648:12 0.0491629
5 *648:8 0.0191944
6 *988:adc_dout[1] *988:adc_dout[4] 0.00743093
7 *988:adc_dout[1] *799:9 0.000745166
8 *988:adc_dout[1] *817:9 0
9 *648:8 *649:8 0
10 *648:12 *649:8 0
11 *648:14 *668:22 0
12 *648:14 *754:13 0.0374163
13 *647:16 *648:8 0
14 *647:16 *648:12 0
*RES
1 *984:dout[1] *648:8 0.976267 
2 *648:8 *648:12 49.8316 
3 *648:12 *648:14 102.881 
4 *648:14 *988:adc_dout[1] 33.0414 
*END

*D_NET *649 0.134036
*CONN
*I *988:adc_dout[2] I *D soc_sys
*I *984:dout[2] I *D CF_ADC_DSM20
*CAP
1 *988:adc_dout[2] 1.69278e-05
2 *984:dout[2] 0.000924511
3 *649:18 0.033263
4 *649:16 0.0332461
5 *649:14 0.0206371
6 *649:12 0.0206371
7 *649:10 0.00458282
8 *649:8 0.00550733
9 *988:adc_dout[2] *700:12 8.28896e-05
10 *988:adc_dout[2] *755:22 8.02886e-05
11 *649:10 *653:13 0.00806947
12 *649:14 *812:17 0.00698829
13 *649:18 *716:21 0
14 *648:8 *649:8 0
15 *648:12 *649:8 0
*RES
1 *984:dout[2] *649:8 3.42693 
2 *649:8 *649:10 116.385 
3 *649:10 *649:12 0.5 
4 *649:12 *649:14 59.6739 
5 *649:14 *649:16 0.5 
6 *649:16 *649:18 87.1188 
7 *649:18 *988:adc_dout[2] 1.1254 
*END

*D_NET *650 0.128311
*CONN
*I *988:adc_dout[3] I *D soc_sys
*I *984:dout[3] I *D CF_ADC_DSM20
*CAP
1 *988:adc_dout[3] 0.00922104
2 *984:dout[3] 0.0165784
3 *650:24 0.0171275
4 *650:18 0.036986
5 *650:16 0.045658
6 *650:16 *651:8 0
7 *650:18 *804:13 0
8 *650:18 *819:13 0
9 *650:18 *821:19 0.00273962
10 *650:24 *792:9 0
11 *650:24 *794:9 0
12 *40:53 *650:18 0
13 *647:24 *650:24 0
*RES
1 *984:dout[3] *650:16 43.9932 
2 *650:16 *650:18 79.7113 
3 *650:18 *650:24 19.829 
4 *650:24 *988:adc_dout[3] 162.742 
*END

*D_NET *651 0.170332
*CONN
*I *988:adc_dout[4] I *D soc_sys
*I *984:dout[4] I *D CF_ADC_DSM20
*CAP
1 *988:adc_dout[4] 0.00639781
2 *984:dout[4] 0.0132505
3 *651:10 0.0383717
4 *651:8 0.0452243
5 *988:adc_dout[4] *799:9 0.0180037
6 *988:adc_dout[4] *817:9 0
7 *651:8 *984:RESCAP[1] 0
8 *651:8 *652:11 9.75588e-05
9 *651:8 *761:14 0
10 *651:10 *659:22 0
11 *651:10 *807:13 0.0326959
12 *651:10 *813:13 0
13 *988:adc_dout[1] *988:adc_dout[4] 0.00743093
14 *19:34 *651:8 0.00116189
15 *19:46 *651:8 0.00739782
16 *19:91 *651:8 0.000299561
17 *40:23 *651:8 0
18 *650:16 *651:8 0
*RES
1 *984:dout[4] *651:8 34.9783 
2 *651:8 *651:10 104.604 
3 *651:10 *988:adc_dout[4] 46.3406 
*END

*D_NET *652 0.159275
*CONN
*I *988:adc_dout[5] I *D soc_sys
*I *984:dout[5] I *D CF_ADC_DSM20
*CAP
1 *988:adc_dout[5] 1.04996e-05
2 *984:dout[5] 0.000225865
3 *652:21 0.0252627
4 *652:19 0.0252522
5 *652:17 0.023753
6 *652:15 0.023753
7 *652:13 0.00311616
8 *652:11 0.00334203
9 *988:adc_dout[5] *700:12 4.43752e-05
10 *988:adc_dout[5] *755:22 4.21127e-05
11 *652:11 *653:11 0
12 *652:13 *654:13 0.00797328
13 *652:17 *662:20 0
14 *652:17 *791:17 0
15 *652:21 *653:21 0
16 *652:21 *693:13 0.0464026
17 *19:91 *652:13 0
18 *651:8 *652:11 9.75588e-05
*RES
1 *984:dout[5] *652:11 2.29567 
2 *652:11 *652:13 89.355 
3 *652:13 *652:15 0.5 
4 *652:15 *652:17 59.6157 
5 *652:17 *652:19 0.5 
6 *652:19 *652:21 93.2343 
7 *652:21 *988:adc_dout[5] 1.06713 
*END

*D_NET *653 0.134768
*CONN
*I *988:adc_dout[6] I *D soc_sys
*I *984:dout[6] I *D CF_ADC_DSM20
*CAP
1 *988:adc_dout[6] 1.69278e-05
2 *984:dout[6] 0.000946642
3 *653:21 0.0349355
4 *653:19 0.0349186
5 *653:17 0.0234741
6 *653:15 0.0234741
7 *653:13 0.00380775
8 *653:11 0.0047544
9 *988:adc_dout[6] *700:12 8.28896e-05
10 *988:adc_dout[6] *755:22 8.02886e-05
11 *653:17 *791:17 0
12 *653:21 *654:21 0
13 *653:21 *693:13 0
14 *984:vgndd_vnb *653:13 0.000207189
15 *19:54 *653:13 0
16 *649:10 *653:13 0.00806947
17 *652:11 *653:11 0
18 *652:21 *653:21 0
*RES
1 *984:dout[6] *653:11 3.88617 
2 *653:11 *653:13 103.635 
3 *653:13 *653:15 0.5 
4 *653:15 *653:17 57.1685 
5 *653:17 *653:19 0.5 
6 *653:19 *653:21 91.5116 
7 *653:21 *988:adc_dout[6] 1.1254 
*END

*D_NET *654 0.135521
*CONN
*I *988:adc_dout[7] I *D soc_sys
*I *984:dout[7] I *D CF_ADC_DSM20
*CAP
1 *988:adc_dout[7] 1.04996e-05
2 *984:dout[7] 0.000305037
3 *654:21 0.0340539
4 *654:19 0.0340434
5 *654:17 0.0229174
6 *654:15 0.0229174
7 *654:13 0.00643033
8 *654:11 0.00673537
9 *988:adc_dout[7] *700:12 4.43752e-05
10 *988:adc_dout[7] *755:22 4.21127e-05
11 *654:13 *984:NONOV[1] 1.26226e-05
12 *654:13 *984:NONOV[0] 3.53025e-05
13 *654:17 *663:20 0
14 *654:17 *665:20 0
15 *652:13 *654:13 0.00797328
16 *653:21 *654:21 0
*RES
1 *984:dout[7] *654:11 2.28643 
2 *654:11 *654:13 149.025 
3 *654:13 *654:15 0.5 
4 *654:15 *654:17 58.2755 
5 *654:17 *654:19 0.5 
6 *654:19 *654:21 84.4487 
7 *654:21 *988:adc_dout[7] 1.06713 
*END

*D_NET *655 0.436115
*CONN
*I *986:iref I *D CF_BUF_HIZ
*I *984:iin I *D CF_ADC_DSM20
*I *985:ibg_2p375uA O *D CF_BGR
*CAP
1 *986:iref 3.34974e-05
2 *984:iin 0.00249617
3 *985:ibg_2p375uA 3.75828e-05
4 *655:41 0.0316978
5 *655:26 0.0413414
6 *655:14 0.0284712
7 *655:12 0.0212903
8 *655:10 0.0221614
9 *655:8 0.0221989
10 *984:iin *984:iinc 0.00573515
11 *984:iin *738:10 0.000630274
12 *655:8 *670:16 3.74201e-05
13 *655:10 *670:16 0.0137388
14 *655:14 *656:25 0
15 *655:14 *656:27 0
16 *655:14 *670:26 7.53595e-05
17 *655:14 *670:30 0.00136087
18 *655:14 *670:32 0
19 *655:26 *656:31 0.0167149
20 *655:26 *657:6 7.5237e-05
21 *655:41 *986:iref_casc 1.46558e-05
22 *655:41 *656:31 3.81927e-05
23 *655:41 *656:48 0.000156075
24 *655:41 *656:50 0.14023
25 *655:41 *657:6 0.0434741
26 *15:14 *655:14 0.0441061
27 *23:13 *655:41 0
28 *23:17 *655:41 0
*RES
1 *985:ibg_2p375uA *655:8 0.6482 
2 *655:8 *655:10 67.1321 
3 *655:10 *655:12 0.5 
4 *655:12 *655:14 571.815 
5 *655:14 *655:26 27.8885 
6 *655:26 *984:iin 12.3287 
7 *655:26 *655:41 208.749 
8 *655:41 *986:iref 0.629833 
*END

*D_NET *656 0.430954
*CONN
*I *987:nbias I *D CF_REFBUF
*I *986:iref_casc I *D CF_BUF_HIZ
*I *984:iinc I *D CF_ADC_DSM20
*I *985:ibg_3uA O *D CF_BGR
*CAP
1 *987:nbias 0.00913645
2 *986:iref_casc 4.25965e-05
3 *984:iinc 0.00259199
4 *985:ibg_3uA 0.00196289
5 *656:50 0.0503617
6 *656:48 0.0504854
7 *656:31 0.00947464
8 *656:27 0.0294787
9 *656:25 0.0237887
10 *656:19 0.0355766
11 *656:17 0.0273767
12 *656:17 *670:16 0
13 *656:19 *670:26 0
14 *656:25 *670:26 0.000194871
15 *656:25 *670:30 0.00163549
16 *656:27 *670:30 0.000903806
17 *656:27 *670:32 0.0236245
18 *656:27 *695:5 0
19 *656:31 *657:6 0
20 *984:iin *984:iinc 0.00573515
21 *986:vcm *656:50 0.000479364
22 *121:30 *656:17 0.000950952
23 *655:14 *656:25 0
24 *655:14 *656:27 0
25 *655:26 *656:31 0.0167149
26 *655:41 *986:iref_casc 1.46558e-05
27 *655:41 *656:31 3.81927e-05
28 *655:41 *656:48 0.000156075
29 *655:41 *656:50 0.14023
*RES
1 *985:ibg_3uA *656:17 31.4128 
2 *656:17 *656:19 66.3455 
3 *656:19 *656:25 26.555 
4 *656:25 *656:27 517.245 
5 *656:27 *656:31 26.3793 
6 *656:31 *984:iinc 12.0982 
7 *656:31 *656:48 0.57 
8 *656:48 *656:50 208.05 
9 *656:50 *986:iref_casc 0.6482 
10 *656:19 *987:nbias 27.8639 
*END

*D_NET *657 0.218067
*CONN
*I *984:COMBUF_INP I *D CF_ADC_DSM20
*I *984:PBUF_INP I *D CF_ADC_DSM20
*I *984:INP I *D CF_ADC_DSM20
*I *986:out1 O *D CF_BUF_HIZ
*CAP
1 *984:COMBUF_INP 0.00178714
2 *984:PBUF_INP 0.002389
3 *984:INP 0.000361034
4 *986:out1 0
5 *657:24 0.00576874
6 *657:22 0.00516689
7 *657:10 0.00464533
8 *657:8 0.0042843
9 *657:6 0.0672295
10 *657:4 0.0672295
11 *984:PBUF_INP *697:20 0
12 *984:COMBUF_INP *708:18 0.000336751
13 *657:10 *701:18 0
14 *984:VGND_DAC *657:24 4.18203e-05
15 *984:PBUF_INN *984:PBUF_INP 0.00125843
16 *984:COMBUF_INN *984:COMBUF_INP 8.81051e-05
17 *13:25 *984:INP 0
18 *13:31 *984:PBUF_INP 0
19 *13:31 *657:24 0.0134381
20 *23:17 *657:6 0.000492749
21 *655:26 *657:6 7.5237e-05
22 *655:41 *657:6 0.0434741
23 *656:31 *657:6 0
*RES
1 *986:out1 *657:4 0.5 
2 *657:4 *657:6 225.413 
3 *657:6 *657:8 0.5 
4 *657:8 *657:10 77.7525 
5 *657:10 *984:INP 7.9175 
6 *984:INP *657:22 2 
7 *657:22 *657:24 150.428 
8 *657:24 *984:PBUF_INP 17.6975 
9 *984:PBUF_INP *984:COMBUF_INP 35.4575 
*END

*D_NET *658 0.12496
*CONN
*I *988:adc_ov_one I *D soc_sys
*I *984:overload_det_one O *D CF_ADC_DSM20
*CAP
1 *988:adc_ov_one 1.04996e-05
2 *984:overload_det_one 0.000538801
3 *658:18 0.0210088
4 *658:16 0.0209983
5 *658:14 0.0216507
6 *658:12 0.0221895
7 *988:adc_ov_one *700:12 4.43752e-05
8 *988:adc_ov_one *755:22 4.21127e-05
9 *658:12 *984:phi2_buffer 0
10 *658:12 *660:12 0.00118961
11 *658:12 *829:13 0
12 *658:14 *660:14 0
13 *658:18 *660:18 0
14 *658:18 *874:13 0.0372871
15 *20:23 *658:14 0
*RES
1 *984:overload_det_one *658:12 3.8066 
2 *658:12 *658:14 52.8276 
3 *658:14 *658:16 0.5 
4 *658:16 *658:18 78.3332 
5 *658:18 *988:adc_ov_one 1.06713 
*END

*D_NET *659 0.133552
*CONN
*I *988:adc_ov_zero I *D soc_sys
*I *984:overload_det_zero O *D CF_ADC_DSM20
*CAP
1 *988:adc_ov_zero 0.00195287
2 *984:overload_det_zero 0.00422847
3 *659:28 0.0115319
4 *659:22 0.0291556
5 *659:20 0.023805
6 *659:20 *984:MODBIT 0.00351038
7 *659:20 *984:MODINPUT 4.00099e-05
8 *659:20 *669:12 0.00367938
9 *659:20 *875:17 0.00157748
10 *659:22 *813:13 0.0361919
11 *659:28 *804:9 0
12 *659:28 *805:9 0
13 *646:20 *659:20 0.0178786
14 *651:10 *659:22 0
*RES
1 *984:overload_det_zero *659:20 29.2169 
2 *659:20 *659:22 74.7156 
3 *659:22 *659:28 24.5486 
4 *659:28 *988:adc_ov_zero 33.2025 
*END

*D_NET *660 0.112845
*CONN
*I *988:adc_scanout I *D soc_sys
*I *984:SCANOUTPUT O *D CF_ADC_DSM20
*CAP
1 *988:adc_scanout 1.69278e-05
2 *984:SCANOUTPUT 0.000889498
3 *660:18 0.0222595
4 *660:16 0.0222425
5 *660:14 0.0218918
6 *660:12 0.0227813
7 *988:adc_scanout *700:12 8.28896e-05
8 *988:adc_scanout *755:22 8.02886e-05
9 *660:12 *984:phi2_buffer 0
10 *660:12 *829:13 0
11 *660:18 *791:13 0.0214104
12 *660:18 *874:13 0
13 *658:12 *660:12 0.00118961
14 *658:14 *660:14 0
15 *658:18 *660:18 0
*RES
1 *984:SCANOUTPUT *660:12 4.54697 
2 *660:12 *660:14 52.0119 
3 *660:14 *660:16 0.5 
4 *660:16 *660:18 77.4719 
5 *660:18 *988:adc_scanout 1.1254 
*END

*D_NET *661 0.126149
*CONN
*I *988:adc_test[0] I *D soc_sys
*I *984:test[0] I *D CF_ADC_DSM20
*CAP
1 *988:adc_test[0] 1.04996e-05
2 *984:test[0] 0.00487644
3 *661:22 0.036269
4 *661:20 0.0518056
5 *661:16 0.0204236
6 *988:adc_test[0] *700:12 4.43752e-05
7 *988:adc_test[0] *755:22 4.21127e-05
8 *661:16 *984:TESTMODE 0.00077125
9 *661:16 *984:SCANCLK 0.000199595
10 *661:16 *662:16 0.00123949
11 *661:16 *666:16 0.0103549
12 *661:16 *866:41 0.000105914
13 *661:20 *662:20 0
14 *661:20 *668:20 0
15 *661:22 *988:adc_test[1] 6.28584e-06
16 *661:22 *662:22 0
*RES
1 *984:test[0] *661:16 24.5989 
2 *661:16 *661:20 40.2759 
3 *661:20 *661:22 94.9569 
4 *661:22 *988:adc_test[0] 1.06713 
*END

*D_NET *662 0.125848
*CONN
*I *988:adc_test[1] I *D soc_sys
*I *984:test[1] I *D CF_ADC_DSM20
*CAP
1 *988:adc_test[1] 0.000226295
2 *984:test[1] 0.00812312
3 *662:22 0.0284499
4 *662:20 0.042812
5 *662:16 0.0227115
6 *988:adc_test[1] *663:22 4.56335e-06
7 *988:adc_test[1] *700:12 0.000121404
8 *988:adc_test[1] *755:22 0.000118807
9 *662:16 *984:TESTMODE 0.00103154
10 *662:16 *663:16 0.00317525
11 *662:16 *866:41 2.22804e-05
12 *662:22 *663:22 0.0178054
13 *652:17 *662:20 0
14 *661:16 *662:16 0.00123949
15 *661:20 *662:20 0
16 *661:22 *988:adc_test[1] 6.28584e-06
17 *661:22 *662:22 0
*RES
1 *984:test[1] *662:16 28.5205 
2 *662:16 *662:20 36.7799 
3 *662:20 *662:22 93.9588 
4 *662:22 *988:adc_test[1] 1.513 
*END

*D_NET *663 0.141012
*CONN
*I *988:adc_test[2] I *D soc_sys
*I *984:test[2] I *D CF_ADC_DSM20
*CAP
1 *988:adc_test[2] 5.87351e-05
2 *984:test[2] 0.00892063
3 *663:22 0.0276889
4 *663:20 0.039483
5 *663:16 0.0207735
6 *988:adc_test[2] *700:12 0.0002314
7 *988:adc_test[2] *755:22 0.000228804
8 *663:16 *984:TESTMODE 0.000173398
9 *663:16 *666:16 0.00076943
10 *663:16 *667:12 2.52967e-05
11 *663:16 *796:13 0.0164068
12 *663:16 *866:41 1.54524e-05
13 *988:adc_test[1] *663:22 4.56335e-06
14 *14:37 *663:20 0.00525177
15 *654:17 *663:20 0
16 *662:16 *663:16 0.00317525
17 *662:22 *663:22 0.0178054
*RES
1 *984:test[2] *663:16 39.8749 
2 *663:16 *663:20 35.7311 
3 *663:20 *663:22 83.5873 
4 *663:22 *988:adc_test[2] 1.35847 
*END

*D_NET *664 0.148389
*CONN
*I *988:adc_test[3] I *D soc_sys
*I *984:test[3] I *D CF_ADC_DSM20
*CAP
1 *988:adc_test[3] 1.69278e-05
2 *984:test[3] 0.00540877
3 *664:22 0.0245754
4 *664:20 0.0369608
5 *664:16 0.017811
6 *988:adc_test[3] *700:12 8.28896e-05
7 *988:adc_test[3] *755:22 8.02886e-05
8 *664:16 *665:16 0.0120141
9 *664:20 *666:20 0
10 *664:22 *665:22 0
11 *664:22 *666:22 0
12 *984:clk *664:20 0.00964535
13 *646:22 *664:22 0.0417934
*RES
1 *984:test[3] *664:16 25.7339 
2 *664:16 *664:20 39.9263 
3 *664:20 *664:22 90.5641 
4 *664:22 *988:adc_test[3] 1.1254 
*END

*D_NET *665 0.127517
*CONN
*I *988:adc_test[4] I *D soc_sys
*I *984:test[4] I *D CF_ADC_DSM20
*CAP
1 *988:adc_test[4] 1.04996e-05
2 *984:test[4] 0.00529778
3 *665:22 0.0326242
4 *665:20 0.0477226
5 *665:16 0.0204067
6 *988:adc_test[4] *700:12 4.43752e-05
7 *988:adc_test[4] *755:22 4.21127e-05
8 *665:16 *668:16 0.00935488
9 *665:22 *666:22 0
10 *654:17 *665:20 0
11 *664:16 *665:16 0.0120141
12 *664:22 *665:22 0
*RES
1 *984:test[4] *665:16 31.2515 
2 *665:16 *665:20 39.2271 
3 *665:20 *665:22 85.31 
4 *665:22 *988:adc_test[4] 1.06713 
*END

*D_NET *666 0.132955
*CONN
*I *988:adc_test[5] I *D soc_sys
*I *984:test[5] I *D CF_ADC_DSM20
*CAP
1 *988:adc_test[5] 1.04996e-05
2 *984:test[5] 0.00393557
3 *666:22 0.0351892
4 *666:20 0.0494839
5 *666:16 0.0182407
6 *988:adc_test[5] *700:12 4.43752e-05
7 *988:adc_test[5] *755:22 4.21127e-05
8 *666:16 *667:12 0.00151462
9 *666:16 *667:14 0.0133471
10 *666:16 *866:41 2.2282e-05
11 *984:clk *666:20 0
12 *661:16 *666:16 0.0103549
13 *663:16 *666:16 0.00076943
14 *664:20 *666:20 0
15 *664:22 *666:22 0
16 *665:22 *666:22 0
*RES
1 *984:test[5] *666:16 30.6181 
2 *666:16 *666:20 37.0129 
3 *666:20 *666:22 89.7028 
4 *666:22 *988:adc_test[5] 1.06713 
*END

*D_NET *667 0.136033
*CONN
*I *988:adc_test[6] I *D soc_sys
*I *984:test[6] I *D CF_ADC_DSM20
*CAP
1 *988:adc_test[6] 0.00287704
2 *984:test[6] 0.000651046
3 *667:20 0.0153882
4 *667:14 0.0449042
5 *667:12 0.0330441
6 *667:14 *984:BUF_CHOP_EN 0.00213355
7 *667:14 *792:13 0.015763
8 *667:20 *669:20 0
9 *667:20 *800:9 0
10 *667:20 *819:9 0.00638517
11 *646:20 *667:14 0
12 *663:16 *667:12 2.52967e-05
13 *666:16 *667:12 0.00151462
14 *666:16 *667:14 0.0133471
*RES
1 *984:test[6] *667:12 5.70947 
2 *667:12 *667:14 105.896 
3 *667:14 *667:20 36.7263 
4 *667:20 *988:adc_test[6] 49.0125 
*END

*D_NET *668 0.130978
*CONN
*I *988:adc_test[7] I *D soc_sys
*I *984:test[7] I *D CF_ADC_DSM20
*CAP
1 *988:adc_test[7] 2.7301e-05
2 *984:test[7] 0.00427655
3 *668:22 0.0343197
4 *668:20 0.0490148
5 *668:16 0.0189989
6 *988:adc_test[7] *671:10 1.53188e-05
7 *988:adc_test[7] *755:22 8.02886e-05
8 *668:20 *788:16 0
9 *668:22 *700:20 0.00851224
10 *668:22 *700:22 0.00637768
11 *648:14 *668:22 0
12 *661:20 *668:20 0
13 *665:16 *668:16 0.00935488
*RES
1 *984:test[7] *668:16 21.1283 
2 *668:16 *668:20 37.1295 
3 *668:20 *668:22 95.8183 
4 *668:22 *988:adc_test[7] 1.1254 
*END

*D_NET *669 0.137387
*CONN
*I *988:adc_test_dig I *D soc_sys
*I *984:test_dig_out O *D CF_ADC_DSM20
*CAP
1 *988:adc_test_dig 0.00249637
2 *984:test_dig_out 0.00761441
3 *669:20 0.00765781
4 *669:14 0.0229757
5 *669:12 0.0254287
6 *669:12 *984:MODINPUT 0.00188833
7 *669:14 *704:29 0.00294058
8 *669:14 *814:13 0.0346637
9 *669:14 *815:13 0
10 *669:20 *818:9 0.013267
11 *984:vpwr_cp *669:12 0
12 *646:20 *669:12 0.0147754
13 *659:20 *669:12 0.00367938
14 *667:20 *669:20 0
*RES
1 *984:test_dig_out *669:12 30.6508 
2 *669:12 *669:14 72.7345 
3 *669:14 *669:20 20.8778 
4 *669:20 *988:adc_test_dig 43.9125 
*END

*D_NET *670 0.135706
*CONN
*I *987:ref_1v2 I *D CF_REFBUF
*I *984:VREF I *D CF_ADC_DSM20
*I *984:VREFQ I *D CF_ADC_DSM20
*I *985:Vout O *D CF_BGR
*CAP
1 *987:ref_1v2 4.08978e-05
2 *984:VREF 4.4655e-05
3 *984:VREFQ 0.000864476
4 *985:Vout 0.00505005
5 *670:71 0.00940745
6 *670:32 0.00994295
7 *670:30 0.00993839
8 *670:26 0.0278547
9 *670:20 0.0195184
10 *670:16 0.00689557
11 *984:VREFQ *737:9 0.00203331
12 *670:26 *987:pd 0.00160074
13 *670:71 *987:pd 0.000848137
14 *984:PBUF_INN *984:VREFQ 9.49882e-05
15 *19:19 *984:VREFQ 0
16 *655:8 *670:16 3.74201e-05
17 *655:10 *670:16 0.0137388
18 *655:14 *670:26 7.53595e-05
19 *655:14 *670:30 0.00136087
20 *655:14 *670:32 0
21 *656:17 *670:16 0
22 *656:19 *670:26 0
23 *656:25 *670:26 0.000194871
24 *656:25 *670:30 0.00163549
25 *656:27 *670:30 0.000903806
26 *656:27 *670:32 0.0236245
*RES
1 *985:Vout *670:16 22.3813 
2 *670:16 *670:20 33.755 
3 *670:20 *670:26 49.016 
4 *670:26 *670:30 36.9825 
5 *670:30 *670:32 264.45 
6 *670:32 *984:VREFQ 8.5296 
7 *984:VREFQ *984:VREF 0.7725 
8 *670:26 *670:71 49.6828 
9 *670:71 *987:ref_1v2 0.7425 
*END

*D_NET *671 0.255828
*CONN
*I *986:pd I *D CF_BUF_HIZ
*I *988:analog_ctrl[0] O *D soc_sys
*CAP
1 *986:pd 0.0151411
2 *988:analog_ctrl[0] 0.00237236
3 *671:10 0.107215
4 *671:8 0.0944458
5 *671:10 *697:8 0
6 *671:10 *700:6 0.00509271
7 *671:10 *700:12 0.00201407
8 *671:10 *755:20 0.00173252
9 *671:10 *755:22 0
10 *671:10 *773:8 1.21573e-05
11 *671:10 *774:8 2.27088e-05
12 *671:10 *775:8 6.86145e-05
13 *671:10 *777:8 1.21573e-05
14 *671:10 *778:8 1.21573e-05
15 *671:10 *779:16 3.32604e-05
16 *671:10 *780:8 2.27088e-05
17 *671:10 *783:8 1.21573e-05
18 *671:10 *784:8 2.27088e-05
19 *671:10 *785:8 1.21573e-05
20 *671:10 *787:16 1.21573e-05
21 *671:10 *788:8 2.27088e-05
22 *671:10 *789:8 2.27088e-05
23 *671:10 *853:29 0.0145676
24 *671:10 *854:16 0.0114538
25 *671:10 *856:8 0
26 *671:10 *862:20 0.000746131
27 *671:10 *863:20 0.000743816
28 *988:adc_test[7] *671:10 1.53188e-05
29 *48:41 *671:10 0
30 *111:13 *671:8 0
*RES
1 *988:analog_ctrl[0] *671:8 6.25193 
2 *671:8 *671:10 251.925 
3 *671:10 *986:pd 42.9431 
*END

*D_NET *672 0.0792148
*CONN
*I *984:itrim_2_3[1] I *D CF_ADC_DSM20
*I *988:analog_ctrl[100] O *D soc_sys
*CAP
1 *984:itrim_2_3[1] 0.00198496
2 *988:analog_ctrl[100] 0.00426951
3 *672:15 0.0137884
4 *672:11 0.0166776
5 *672:5 0.00914372
6 *984:itrim_2_3[1] *699:13 0.000217221
7 *672:11 *813:9 0
8 *672:11 *815:9 0.0123925
9 *672:15 *678:15 0.005276
10 *672:15 *702:10 0
11 *672:15 *703:12 0.0154649
*RES
1 *988:analog_ctrl[100] *672:5 75.0225 
2 *672:5 *672:11 19.5959 
3 *672:11 *672:15 46.0164 
4 *672:15 *984:itrim_2_3[1] 8.1425 
*END

*D_NET *673 0.0795234
*CONN
*I *984:itrim_2_3[2] I *D CF_ADC_DSM20
*I *988:analog_ctrl[101] O *D soc_sys
*CAP
1 *984:itrim_2_3[2] 0.010345
2 *988:analog_ctrl[101] 0.00775138
3 *673:11 0.0163363
4 *673:5 0.0137427
5 *984:itrim_2_3[2] *984:itrim_sum[4] 1.32073e-05
6 *984:itrim_2_3[2] *984:itrim_2_3[4] 0.00116785
7 *984:itrim_2_3[2] *984:itrim_2_3[5] 0.00103622
8 *984:itrim_2_3[2] *709:10 0.0111459
9 *984:itrim_2_3[2] *710:12 0.00404284
10 *984:itrim_2_3[2] *711:12 0
11 *673:11 *781:9 0.0139421
12 *673:11 *801:9 0
*RES
1 *988:analog_ctrl[101] *673:5 132.143 
2 *673:5 *673:11 22.451 
3 *673:11 *984:itrim_2_3[2] 44.6252 
*END

*D_NET *674 0.0925765
*CONN
*I *984:itrim_2_3[3] I *D CF_ADC_DSM20
*I *988:analog_ctrl[102] O *D soc_sys
*CAP
1 *984:itrim_2_3[3] 0.00789836
2 *988:analog_ctrl[102] 0.00898836
3 *674:11 0.017119
4 *674:5 0.018209
5 *984:itrim_2_3[3] *733:10 0.0172112
6 *984:itrim_2_3[3] *734:10 0
7 *674:11 *792:9 0.0231506
8 *674:11 *876:11 0
*RES
1 *988:analog_ctrl[102] *674:5 158.152 
2 *674:5 *674:11 35.7941 
3 *674:11 *984:itrim_2_3[3] 32.8022 
*END

*D_NET *675 0.0915466
*CONN
*I *984:itrim_2_3[4] I *D CF_ADC_DSM20
*I *988:analog_ctrl[103] O *D soc_sys
*CAP
1 *984:itrim_2_3[4] 0.0058289
2 *988:analog_ctrl[103] 0.00562686
3 *675:11 0.0123446
4 *675:5 0.0121425
5 *984:itrim_2_3[4] *984:itrim_sum[3] 0.0185424
6 *984:itrim_2_3[4] *984:itrim_2_3[5] 0.00155243
7 *984:itrim_2_3[4] *718:10 0.00732718
8 *675:5 *868:13 0.0105579
9 *675:11 *790:9 0.016456
10 *675:11 *796:9 0
11 *984:itrim_2_3[2] *984:itrim_2_3[4] 0.00116785
*RES
1 *988:analog_ctrl[103] *675:5 142.342 
2 *675:5 *675:11 25.7139 
3 *675:11 *984:itrim_2_3[4] 37.8188 
*END

*D_NET *676 0.0863286
*CONN
*I *984:itrim_2_3[5] I *D CF_ADC_DSM20
*I *988:analog_ctrl[104] O *D soc_sys
*CAP
1 *984:itrim_2_3[5] 0.0103438
2 *988:analog_ctrl[104] 0.00588305
3 *676:11 0.0159397
4 *676:5 0.0114789
5 *984:itrim_2_3[5] *984:itrim_sum[4] 0.000770451
6 *984:itrim_2_3[5] *712:10 0.0222569
7 *984:itrim_2_3[5] *713:10 0.00280617
8 *676:5 *868:13 0
9 *676:11 *759:9 0
10 *676:11 *810:9 0.0142611
11 *984:itrim_2_3[2] *984:itrim_2_3[5] 0.00103622
12 *984:itrim_2_3[4] *984:itrim_2_3[5] 0.00155243
*RES
1 *988:analog_ctrl[104] *676:5 101.543 
2 *676:5 *676:11 22.3927 
3 *676:11 *984:itrim_2_3[5] 48.0199 
*END

*D_NET *677 0.0940613
*CONN
*I *984:itrim_sum[0] I *D CF_ADC_DSM20
*I *988:analog_ctrl[105] O *D soc_sys
*CAP
1 *984:itrim_sum[0] 0.00200733
2 *988:analog_ctrl[105] 0.00566862
3 *677:13 0.0160386
4 *677:11 0.0196999
5 *984:itrim_sum[0] *984:itrim_sum[1] 0.00620898
6 *984:itrim_sum[0] *984:itrim_sum[3] 0.00085182
7 *984:itrim_sum[0] *708:16 0.000281181
8 *984:itrim_sum[0] *709:16 0.000480889
9 *984:itrim_sum[0] *719:16 7.86633e-05
10 *984:itrim_sum[0] *721:16 0.000179242
11 *984:itrim_sum[0] *722:16 8.1472e-05
12 *984:itrim_sum[0] *723:16 0.000268206
13 *984:itrim_sum[0] *723:18 4.55864e-06
14 *677:11 *817:9 0
15 *677:11 *820:9 0.0120125
16 *677:13 *707:10 0
17 *677:13 *708:10 0.0301993
*RES
1 *988:analog_ctrl[105] *677:11 37.8775 
2 *677:11 *677:13 55.8524 
3 *677:13 *984:itrim_sum[0] 11.4407 
*END

*D_NET *678 0.0771991
*CONN
*I *984:itrim_sum[1] I *D CF_ADC_DSM20
*I *988:analog_ctrl[106] O *D soc_sys
*CAP
1 *984:itrim_sum[1] 0.00210727
2 *988:analog_ctrl[106] 0.0119261
3 *678:15 0.0114013
4 *678:5 0.0212201
5 *984:itrim_sum[1] *984:itrim_sum[3] 2.19003e-05
6 *984:itrim_sum[1] *984:itrim_sum[4] 0.00383915
7 *984:itrim_sum[1] *705:16 0.000164897
8 *984:itrim_sum[1] *706:16 2.20023e-05
9 *984:itrim_sum[1] *707:16 9.1765e-05
10 *678:15 *702:10 0
11 *678:15 *703:12 0.0032751
12 *678:15 *705:10 0.00164978
13 *678:15 *715:9 0
14 *678:15 *825:9 0.0099948
15 *984:itrim_sum[0] *984:itrim_sum[1] 0.00620898
16 *672:15 *678:15 0.005276
*RES
1 *988:analog_ctrl[106] *678:5 209.663 
2 *678:5 *678:15 40.0358 
3 *678:15 *984:itrim_sum[1] 12.268 
*END

*D_NET *679 0.0832832
*CONN
*I *984:itrim_sum[2] I *D CF_ADC_DSM20
*I *988:analog_ctrl[107] O *D soc_sys
*CAP
1 *984:itrim_sum[2] 0.00596681
2 *988:analog_ctrl[107] 0.0116387
3 *679:11 0.0137381
4 *679:5 0.01941
5 *984:itrim_sum[2] *729:10 0.0132461
6 *984:itrim_sum[2] *730:10 0
7 *679:11 *798:9 0.0192834
8 *679:11 *825:9 0
*RES
1 *988:analog_ctrl[107] *679:5 204.562 
2 *679:5 *679:11 30.0257 
3 *679:11 *984:itrim_sum[2] 25.3947 
*END

*D_NET *680 0.0911906
*CONN
*I *984:itrim_sum[3] I *D CF_ADC_DSM20
*I *988:analog_ctrl[108] O *D soc_sys
*CAP
1 *984:itrim_sum[3] 0.00984132
2 *988:analog_ctrl[108] 0.00563136
3 *680:11 0.015446
4 *680:5 0.0112361
5 *984:itrim_sum[3] *984:itrim_sum[4] 5.52624e-06
6 *984:itrim_sum[3] *717:12 0.0136867
7 *984:itrim_sum[3] *718:10 0.000589594
8 *984:itrim_sum[3] *718:16 0.000520831
9 *984:itrim_sum[3] *719:16 3.82733e-05
10 *984:itrim_sum[3] *721:16 0.000358286
11 *984:itrim_sum[3] *722:16 1.95213e-05
12 *984:itrim_sum[3] *723:16 0.000142585
13 *680:11 *814:9 0.0142584
14 *680:11 *866:9 0
15 *984:itrim_sum[0] *984:itrim_sum[3] 0.00085182
16 *984:itrim_sum[1] *984:itrim_sum[3] 2.19003e-05
17 *984:itrim_2_3[4] *984:itrim_sum[3] 0.0185424
*RES
1 *988:analog_ctrl[108] *680:5 95.9325 
2 *680:5 *680:11 22.3927 
3 *680:11 *984:itrim_sum[3] 48.8224 
*END

*D_NET *681 0.0768969
*CONN
*I *984:itrim_sum[4] I *D CF_ADC_DSM20
*I *988:analog_ctrl[109] O *D soc_sys
*CAP
1 *984:itrim_sum[4] 0.00264533
2 *988:analog_ctrl[109] 0.00566854
3 *681:13 0.0155388
4 *681:11 0.018562
5 *681:11 *805:9 0
6 *681:11 *812:9 0.00974248
7 *681:13 *706:10 0.00364076
8 *681:13 *707:10 0.0164707
9 *984:itrim_sum[1] *984:itrim_sum[4] 0.00383915
10 *984:itrim_sum[3] *984:itrim_sum[4] 5.52624e-06
11 *984:itrim_2_3[2] *984:itrim_sum[4] 1.32073e-05
12 *984:itrim_2_3[5] *984:itrim_sum[4] 0.000770451
*RES
1 *988:analog_ctrl[109] *681:11 49.288 
2 *681:11 *681:13 53.0961 
3 *681:13 *984:itrim_sum[4] 11.2663 
*END

*D_NET *682 0.111687
*CONN
*I *984:sleep I *D CF_ADC_DSM20
*I *988:analog_ctrl[10] O *D soc_sys
*CAP
1 *984:sleep 0.00425896
2 *988:analog_ctrl[10] 0.0101721
3 *682:9 0.0267762
4 *682:7 0.0225173
5 *682:5 0.0101721
6 *984:sleep *688:13 0.00257552
7 *984:sleep *697:10 0
8 *682:9 *823:9 0.0318585
9 *682:9 *824:9 0
10 *47:23 *682:5 0
11 *85:14 *682:5 0.00335589
*RES
1 *988:analog_ctrl[10] *682:5 183.652 
2 *682:5 *682:7 0.5 
3 *682:7 *682:9 73.2501 
4 *682:9 *984:sleep 13.8969 
*END

*D_NET *683 0.0783297
*CONN
*I *984:itrim_sum[5] I *D CF_ADC_DSM20
*I *988:analog_ctrl[110] O *D soc_sys
*CAP
1 *984:itrim_sum[5] 0.00445576
2 *988:analog_ctrl[110] 0.0110727
3 *683:11 0.0119389
4 *683:5 0.0185558
5 *984:itrim_sum[5] *730:10 0.00813517
6 *984:itrim_sum[5] *731:10 0.00562663
7 *683:11 *802:9 0.0185448
8 *20:11 *683:11 0
*RES
1 *988:analog_ctrl[110] *683:5 194.363 
2 *683:5 *683:11 28.9186 
3 *683:11 *984:itrim_sum[5] 26.9306 
*END

*D_NET *684 0.0851373
*CONN
*I *984:itrim_1[0] I *D CF_ADC_DSM20
*I *988:analog_ctrl[111] O *D soc_sys
*CAP
1 *984:itrim_1[0] 0.00722455
2 *988:analog_ctrl[111] 0.00634414
3 *684:11 0.0155783
4 *684:5 0.0146979
5 *984:itrim_1[0] *736:10 0.00837118
6 *984:itrim_1[0] *738:10 0.0121631
7 *684:11 *770:9 0
8 *684:11 *809:9 0.0207581
*RES
1 *988:analog_ctrl[111] *684:5 111.232 
2 *684:5 *684:11 32.2398 
3 *684:11 *984:itrim_1[0] 40.3617 
*END

*D_NET *685 0.0667252
*CONN
*I *984:itrim_1[1] I *D CF_ADC_DSM20
*I *988:analog_ctrl[112] O *D soc_sys
*CAP
1 *984:itrim_1[1] 0.00922075
2 *988:analog_ctrl[112] 0.00717589
3 *685:5 0.0163966
4 *984:itrim_1[1] *984:itrim_1[2] 0.0110466
5 *984:itrim_1[1] *688:13 0.0171111
6 *984:itrim_1[1] *699:5 0.000211299
7 *984:itrim_1[1] *795:9 0
8 *984:itrim_1[1] *807:9 0.0055629
*RES
1 *988:analog_ctrl[112] *685:5 121.942 
2 *685:5 *984:itrim_1[1] 42.1692 
*END

*D_NET *686 0.0528126
*CONN
*I *984:itrim_1[2] I *D CF_ADC_DSM20
*I *988:analog_ctrl[113] O *D soc_sys
*CAP
1 *984:itrim_1[2] 0.00624716
2 *988:analog_ctrl[113] 0.0108004
3 *686:5 0.0170476
4 *984:itrim_1[2] *984:itrim_1[5] 0.00259036
5 *984:itrim_1[2] *688:13 1.58068e-05
6 *984:itrim_1[2] *802:9 0
7 *984:itrim_1[2] *824:9 0.00506464
8 *984:itrim_1[1] *984:itrim_1[2] 0.0110466
*RES
1 *988:analog_ctrl[113] *686:5 189.262 
2 *686:5 *984:itrim_1[2] 30.3353 
*END

*D_NET *687 0.0399629
*CONN
*I *984:itrim_1[3] I *D CF_ADC_DSM20
*I *988:analog_ctrl[114] O *D soc_sys
*CAP
1 *984:itrim_1[3] 0.00242023
2 *988:analog_ctrl[114] 0.0175612
3 *687:5 0.0199814
*RES
1 *988:analog_ctrl[114] *687:5 310.642 
2 *687:5 *984:itrim_1[3] 6.84123 
*END

*D_NET *688 0.061409
*CONN
*I *984:itrim_1[4] I *D CF_ADC_DSM20
*I *988:analog_ctrl[115] O *D soc_sys
*CAP
1 *984:itrim_1[4] 3.48835e-05
2 *988:analog_ctrl[115] 0.0025792
3 *688:13 0.016014
4 *688:11 0.0185583
5 *688:11 *799:9 0
6 *688:13 *697:10 0
7 *688:13 *699:5 0.000439724
8 *984:sleep *688:13 0.00257552
9 *984:itrim_1[1] *688:13 0.0171111
10 *984:itrim_1[2] *688:13 1.58068e-05
11 *18:19 *688:13 0
12 *66:13 *688:11 0.00408049
*RES
1 *988:analog_ctrl[115] *688:11 20.6142 
2 *688:11 *688:13 50.2968 
3 *688:13 *984:itrim_1[4] 1.06713 
*END

*D_NET *689 0.0413809
*CONN
*I *984:itrim_1[5] I *D CF_ADC_DSM20
*I *988:analog_ctrl[116] O *D soc_sys
*CAP
1 *984:itrim_1[5] 0.00555272
2 *988:analog_ctrl[116] 0.0125447
3 *689:5 0.0180975
4 *984:itrim_1[5] *984:itrim_1[7] 0.000212642
5 *984:itrim_1[5] *704:9 0.00238294
6 *984:itrim_1[2] *984:itrim_1[5] 0.00259036
*RES
1 *988:analog_ctrl[116] *689:5 219.352 
2 *689:5 *984:itrim_1[5] 20.4781 
*END

*D_NET *690 0.0397603
*CONN
*I *984:itrim_1[6] I *D CF_ADC_DSM20
*I *988:analog_ctrl[117] O *D soc_sys
*CAP
1 *984:itrim_1[6] 0.00258345
2 *988:analog_ctrl[117] 0.0162604
3 *690:5 0.0188439
4 *984:itrim_1[6] *984:itrim_1[8] 0
5 *984:itrim_1[6] *984:itrim_1[7] 0.000275614
6 *43:13 *690:5 0.00179694
*RES
1 *988:analog_ctrl[117] *690:5 286.672 
2 *690:5 *984:itrim_1[6] 10.8921 
*END

*D_NET *691 0.0377211
*CONN
*I *984:itrim_1[7] I *D CF_ADC_DSM20
*I *988:analog_ctrl[118] O *D soc_sys
*CAP
1 *984:itrim_1[7] 0.00263507
2 *988:analog_ctrl[118] 0.0159813
3 *691:5 0.0186164
4 *984:itrim_1[6] *984:itrim_1[7] 0.000275614
5 *984:itrim_1[5] *984:itrim_1[7] 0.000212642
*RES
1 *988:analog_ctrl[118] *691:5 281.573 
2 *691:5 *984:itrim_1[7] 15.1763 
*END

*D_NET *692 0.0405434
*CONN
*I *984:itrim_1[8] I *D CF_ADC_DSM20
*I *988:analog_ctrl[119] O *D soc_sys
*CAP
1 *984:itrim_1[8] 0.00101909
2 *988:analog_ctrl[119] 0.00059491
3 *692:13 0.0121635
4 *692:11 0.0117393
5 *692:13 *694:5 0
6 *692:13 *695:5 0.0145385
7 *984:itrim_1[6] *984:itrim_1[8] 0
8 *71:13 *692:11 0.000167091
9 *113:13 *692:11 0.000321012
*RES
1 *988:analog_ctrl[119] *692:11 6.84583 
2 *692:11 *692:13 286.215 
3 *692:13 *984:itrim_1[8] 3.6904 
*END

*D_NET *693 0.291938
*CONN
*I *984:enable_hv I *D CF_ADC_DSM20
*I *988:analog_ctrl[11] O *D soc_sys
*CAP
1 *984:enable_hv 0.000157494
2 *988:analog_ctrl[11] 0.00246024
3 *693:17 0.0229503
4 *693:15 0.0227928
5 *693:13 0.023867
6 *693:11 0.023867
7 *693:9 0.0371253
8 *693:7 0.0395855
9 *984:enable_hv *984:iso 0
10 *693:9 *791:9 0
11 *693:9 *818:9 0.071076
12 *693:17 *984:iso 0
13 *18:30 *693:17 0
14 *91:22 *693:7 0.00165408
15 *652:21 *693:13 0.0464026
16 *653:21 *693:13 0
*RES
1 *988:analog_ctrl[11] *693:7 44.4125 
2 *693:7 *693:9 129.011 
3 *693:9 *693:11 0.5 
4 *693:11 *693:13 92.3729 
5 *693:13 *693:15 0.5 
6 *693:15 *693:17 59.2369 
7 *693:17 *984:enable_hv 0.9199 
*END

*D_NET *694 0.0393964
*CONN
*I *984:itrim_1[9] I *D CF_ADC_DSM20
*I *988:analog_ctrl[120] O *D soc_sys
*CAP
1 *984:itrim_1[9] 0.00170489
2 *988:analog_ctrl[120] 0.0179933
3 *694:5 0.0196982
4 *692:13 *694:5 0
*RES
1 *988:analog_ctrl[120] *694:5 317.783 
2 *694:5 *984:itrim_1[9] 10.643 
*END

*D_NET *695 0.191192
*CONN
*I *984:refsel[0] I *D CF_ADC_DSM20
*I *988:analog_ctrl[121] O *D soc_sys
*CAP
1 *984:refsel[0] 0.000233244
2 *988:analog_ctrl[121] 0.0256854
3 *695:9 0.0208126
4 *695:7 0.0205793
5 *695:5 0.0256854
6 *984:refsel[0] *984:refsel[1] 0
7 *695:5 *696:20 0.00198511
8 *695:5 *698:13 0.0152854
9 *695:5 *698:19 0.00345766
10 *695:5 *698:23 7.71426e-05
11 *695:9 *696:22 6.27135e-05
12 *695:9 *698:25 0.0626959
13 *695:9 *699:25 8.3307e-05
14 *984:VCM *695:5 1.00941e-05
15 *656:27 *695:5 0
16 *692:13 *695:5 0.0145385
*RES
1 *988:analog_ctrl[121] *695:5 695.182 
2 *695:5 *695:7 0.5 
3 *695:7 *695:9 92.5655 
4 *695:9 *984:refsel[0] 6.355 
*END

*D_NET *696 0.234362
*CONN
*I *984:refsel[1] I *D CF_ADC_DSM20
*I *988:analog_ctrl[122] O *D soc_sys
*CAP
1 *984:refsel[1] 0.000150263
2 *988:analog_ctrl[122] 2.69608e-05
3 *696:22 0.00796249
4 *696:20 0.00863186
5 *696:10 0.0435998
6 *696:8 0.0428072
7 *984:refsel[1] *984:refsel[3] 0.000127945
8 *696:10 *697:10 0
9 *696:20 *698:23 0.00340973
10 *696:22 *698:25 0.0626959
11 *696:22 *699:25 0.0627325
12 *984:refsel[0] *984:refsel[1] 0
13 *13:62 *696:20 0.000162895
14 *111:13 *696:8 6.83077e-06
15 *695:5 *696:20 0.00198511
16 *695:9 *696:22 6.27135e-05
*RES
1 *988:analog_ctrl[122] *696:8 1.06713 
2 *696:8 *696:10 110.892 
3 *696:10 *696:20 40.4465 
4 *696:20 *696:22 92.1576 
5 *696:22 *984:refsel[1] 5.5675 
*END

*D_NET *697 0.216659
*CONN
*I *984:refsel[2] I *D CF_ADC_DSM20
*I *988:analog_ctrl[123] O *D soc_sys
*CAP
1 *984:refsel[2] 0.000676485
2 *988:analog_ctrl[123] 0.000108749
3 *697:26 0.00279507
4 *697:24 0.00214068
5 *697:22 0.0165164
6 *697:20 0.0170812
7 *697:10 0.0400865
8 *697:8 0.0396084
9 *984:refsel[2] *984:refsel[15] 2.09749e-05
10 *984:refsel[2] *714:14 0.000231866
11 *984:refsel[2] *733:14 0.000128502
12 *984:refsel[2] *737:27 0.000137917
13 *984:refsel[2] *737:29 0.00122543
14 *984:refsel[2] *827:33 2.40097e-05
15 *697:20 *737:9 2.35067e-05
16 *697:20 *827:13 0.000600714
17 *697:22 *714:14 0.0106217
18 *697:22 *737:17 0.0500438
19 *697:26 *733:14 0.00113358
20 *697:26 *737:17 0.0034079
21 *984:PBUF_INP *697:20 0
22 *984:sleep *697:10 0
23 *18:19 *697:10 0.0300206
24 *111:13 *697:8 2.46166e-05
25 *671:10 *697:8 0
26 *688:13 *697:10 0
27 *696:10 *697:10 0
*RES
1 *988:analog_ctrl[123] *697:8 1.24193 
2 *697:8 *697:10 108.652 
3 *697:10 *697:20 6.48303 
4 *697:20 *697:22 460.853 
5 *697:22 *697:24 0.36 
6 *697:24 *697:26 53.7525 
7 *697:26 *984:refsel[2] 20.32 
*END

*D_NET *698 0.248872
*CONN
*I *984:refsel[3] I *D CF_ADC_DSM20
*I *988:analog_ctrl[124] O *D soc_sys
*CAP
1 *984:refsel[3] 0.000186228
2 *988:analog_ctrl[124] 0.0124258
3 *698:25 0.00794474
4 *698:23 0.00836283
5 *698:19 0.00132362
6 *698:13 0.00808317
7 *698:11 0.00797951
8 *698:5 0.0130414
9 *698:11 *808:9 0.00053468
10 *698:13 *699:13 0.0351961
11 *698:19 *699:13 0.00070523
12 *698:19 *699:19 0.00180247
13 *698:19 *699:23 1.61461e-05
14 *698:23 *699:23 0.00350284
15 *984:refsel[1] *984:refsel[3] 0.000127945
16 *984:VCM *698:13 1.79536e-05
17 *695:5 *698:13 0.0152854
18 *695:5 *698:19 0.00345766
19 *695:5 *698:23 7.71426e-05
20 *695:9 *698:25 0.0626959
21 *696:20 *698:23 0.00340973
22 *696:22 *698:25 0.0626959
*RES
1 *988:analog_ctrl[124] *698:5 217.44 
2 *698:5 *698:11 14.455 
3 *698:11 *698:13 398.332 
4 *698:13 *698:19 40.41 
5 *698:19 *698:23 40.895 
6 *698:23 *698:25 91.9828 
7 *698:25 *984:refsel[3] 6.1225 
*END

*D_NET *699 0.213079
*CONN
*I *984:refsel[4] I *D CF_ADC_DSM20
*I *988:analog_ctrl[125] O *D soc_sys
*CAP
1 *984:refsel[4] 0.00193294
2 *988:analog_ctrl[125] 0.0126566
3 *699:25 0.02326
4 *699:23 0.0227112
5 *699:19 0.00216133
6 *699:13 0.0150503
7 *699:11 0.0150878
8 *699:5 0.0134712
9 *984:refsel[4] *984:FCAP2[3] 0.000507732
10 *984:refsel[4] *984:FCAP2[0] 6.8248e-05
11 *984:refsel[4] *984:DACCAPEN 0.000692306
12 *984:refsel[4] *984:IPCAP1[5] 0.00010716
13 *984:refsel[4] *984:FCAP1[3] 0.000245823
14 *984:refsel[4] *984:IPCAP1OFFSET 9.04878e-05
15 *984:refsel[4] *734:22 8.64973e-05
16 *699:19 *984:buf_sel 4.29956e-05
17 *984:itrim_1[1] *699:5 0.000211299
18 *984:itrim_2_3[1] *699:13 0.000217221
19 *688:13 *699:5 0.000439724
20 *695:9 *699:25 8.3307e-05
21 *696:22 *699:25 0.0627325
22 *698:13 *699:13 0.0351961
23 *698:19 *699:13 0.00070523
24 *698:19 *699:19 0.00180247
25 *698:19 *699:23 1.61461e-05
26 *698:23 *699:23 0.00350284
*RES
1 *988:analog_ctrl[125] *699:5 221.52 
2 *699:5 *699:11 17.905 
3 *699:11 *699:13 412.568 
4 *699:13 *699:19 21.585 
5 *699:19 *699:23 40.385 
6 *699:23 *699:25 94.6339 
7 *699:25 *984:refsel[4] 10.1646 
*END

*D_NET *700 0.182456
*CONN
*I *984:refsel[5] I *D CF_ADC_DSM20
*I *988:analog_ctrl[126] O *D soc_sys
*CAP
1 *984:refsel[5] 0.00116576
2 *988:analog_ctrl[126] 0
3 *700:32 0.00304918
4 *700:26 0.00442103
5 *700:24 0.00253762
6 *700:22 0.0244539
7 *700:20 0.0378862
8 *700:12 0.0159114
9 *700:6 0.0175756
10 *700:4 0.0150965
11 *984:refsel[5] *984:refsel[6] 0
12 *984:refsel[5] *984:SUMCAP2_EN 2.93836e-05
13 *984:refsel[5] *984:SUMCAP2[1] 0
14 *984:refsel[5] *984:FCAP2[0] 0.000208184
15 *984:refsel[5] *984:DACCAP[0] 4.163e-05
16 *984:refsel[5] *984:FCAP1[5] 1.23247e-05
17 *984:refsel[5] *734:22 0.000124299
18 *984:refsel[5] *736:22 0.000521814
19 *700:6 *701:8 8.28896e-05
20 *700:6 *702:8 4.43752e-05
21 *700:6 *703:12 8.28896e-05
22 *700:6 *705:8 4.43752e-05
23 *700:6 *706:8 4.43752e-05
24 *700:6 *707:8 4.43752e-05
25 *700:6 *708:8 8.28896e-05
26 *700:6 *709:8 4.43752e-05
27 *700:6 *710:12 4.43752e-05
28 *700:6 *711:12 0.000158299
29 *700:6 *712:8 8.28896e-05
30 *700:6 *713:8 4.43752e-05
31 *700:6 *714:8 8.28896e-05
32 *700:6 *717:12 8.28896e-05
33 *700:6 *718:8 4.43752e-05
34 *700:6 *719:8 8.28896e-05
35 *700:6 *721:8 8.28896e-05
36 *700:6 *722:8 8.28896e-05
37 *700:6 *723:8 0.000121404
38 *700:6 *724:8 4.43752e-05
39 *700:6 *725:8 8.28896e-05
40 *700:6 *727:8 4.43752e-05
41 *700:6 *728:22 0.000267951
42 *700:6 *729:8 4.43752e-05
43 *700:6 *730:8 8.28896e-05
44 *700:6 *731:8 4.43752e-05
45 *700:6 *733:8 4.43752e-05
46 *700:6 *734:8 8.28896e-05
47 *700:6 *735:12 8.12705e-05
48 *700:6 *736:8 8.28896e-05
49 *700:6 *738:8 4.43752e-05
50 *700:6 *739:8 4.43752e-05
51 *700:6 *741:8 8.28896e-05
52 *700:6 *742:8 4.43752e-05
53 *700:6 *743:8 4.43752e-05
54 *700:6 *744:8 4.43752e-05
55 *700:6 *745:8 8.28896e-05
56 *700:6 *746:8 4.43752e-05
57 *700:6 *747:8 8.28896e-05
58 *700:6 *749:8 4.43752e-05
59 *700:6 *750:8 8.28896e-05
60 *700:6 *751:8 0.000190927
61 *700:6 *752:8 8.28896e-05
62 *700:6 *753:8 4.43752e-05
63 *700:6 *755:20 0.00431103
64 *700:6 *755:22 0.00812799
65 *700:6 *756:8 8.28896e-05
66 *700:6 *757:8 4.43752e-05
67 *700:6 *760:8 0.00035249
68 *700:6 *761:8 8.28896e-05
69 *700:6 *762:8 4.43752e-05
70 *700:6 *763:8 0.000764077
71 *700:6 *764:8 4.43752e-05
72 *700:6 *765:8 8.28896e-05
73 *700:6 *767:8 8.12747e-05
74 *700:6 *768:8 4.43752e-05
75 *700:6 *769:8 8.28896e-05
76 *700:6 *773:8 4.21127e-05
77 *700:6 *774:8 8.02886e-05
78 *700:6 *775:8 0.000265354
79 *700:6 *777:8 4.21127e-05
80 *700:6 *778:8 4.21127e-05
81 *700:6 *779:16 0.000118803
82 *700:6 *780:8 8.02886e-05
83 *700:6 *783:8 4.21127e-05
84 *700:6 *784:8 8.02886e-05
85 *700:6 *785:8 4.21127e-05
86 *700:6 *787:16 4.21127e-05
87 *700:6 *788:8 8.02886e-05
88 *700:6 *789:8 8.02929e-05
89 *700:12 *755:22 0.00358166
90 *700:20 *844:9 0.000553998
91 *700:26 *701:22 0.00790823
92 *700:26 *709:22 0.00193465
93 *700:32 *984:SUMCAP2[1] 0
94 *700:32 *701:22 0.00301533
95 *700:32 *722:22 0.00105207
96 *988:adc_dout[2] *700:12 8.28896e-05
97 *988:adc_dout[5] *700:12 4.43752e-05
98 *988:adc_dout[6] *700:12 8.28896e-05
99 *988:adc_dout[7] *700:12 4.43752e-05
100 *988:adc_ov_one *700:12 4.43752e-05
101 *988:adc_scanout *700:12 8.28896e-05
102 *988:adc_test[0] *700:12 4.43752e-05
103 *988:adc_test[1] *700:12 0.000121404
104 *988:adc_test[2] *700:12 0.0002314
105 *988:adc_test[3] *700:12 8.28896e-05
106 *988:adc_test[4] *700:12 4.43752e-05
107 *988:adc_test[5] *700:12 4.43752e-05
108 *111:13 *700:6 0
109 *668:22 *700:20 0.00851224
110 *668:22 *700:22 0.00637768
111 *671:10 *700:6 0.00509271
112 *671:10 *700:12 0.00201407
*RES
1 *988:analog_ctrl[126] *700:4 0.5 
2 *700:4 *700:6 53.0898 
3 *700:6 *700:12 12.0824 
4 *700:12 *700:20 42.3453 
5 *700:20 *700:22 435.517 
6 *700:22 *700:24 2 
7 *700:24 *700:26 72.7275 
8 *700:26 *700:32 49.9025 
9 *700:32 *984:refsel[5] 27.8025 
*END

*D_NET *701 0.19035
*CONN
*I *984:refsel[6] I *D CF_ADC_DSM20
*I *988:analog_ctrl[127] O *D soc_sys
*CAP
1 *984:refsel[6] 0.00100562
2 *988:analog_ctrl[127] 2.91092e-05
3 *701:22 0.0267653
4 *701:20 0.0257597
5 *701:18 0.011219
6 *701:16 0.0115029
7 *701:10 0.0256878
8 *701:8 0.025433
9 *984:refsel[6] *984:refsel[13] 0.000604151
10 *984:refsel[6] *984:refsel[12] 0.000295773
11 *984:refsel[6] *984:refsel[7] 5.98726e-05
12 *984:refsel[6] *984:SUMCAP2_EN 2.77997e-05
13 *984:refsel[6] *984:FCAP2[3] 0.000165008
14 *984:refsel[6] *984:DACCAPEN 0.000221232
15 *984:refsel[6] *984:DACCAP[0] 8.41015e-06
16 *984:refsel[6] *984:FCAP1[6] 0
17 *984:refsel[6] *984:FCAP1OFFSET 0.000382746
18 *984:refsel[6] *709:22 0.000312248
19 *701:10 *702:10 0
20 *701:16 *702:16 7.86939e-05
21 *701:18 *702:18 0.0286092
22 *701:22 *707:22 0.000507205
23 *701:22 *709:22 0.0206552
24 *701:22 *824:25 0
25 *701:22 *825:25 0
26 *984:refsel[5] *984:refsel[6] 0
27 *111:13 *701:8 1.37473e-05
28 *657:10 *701:18 0
29 *700:6 *701:8 8.28896e-05
30 *700:26 *701:22 0.00790823
31 *700:32 *701:22 0.00301533
*RES
1 *988:analog_ctrl[127] *701:8 1.1254 
2 *701:8 *701:10 59.2977 
3 *701:10 *701:16 1.76633 
4 *701:16 *701:18 323.062 
5 *701:18 *701:20 2 
6 *701:20 *701:22 497.94 
7 *701:22 *984:refsel[6] 27.7027 
*END

*D_NET *702 0.182015
*CONN
*I *984:refsel[7] I *D CF_ADC_DSM20
*I *988:analog_ctrl[128] O *D soc_sys
*CAP
1 *984:refsel[7] 0.000489917
2 *988:analog_ctrl[128] 1.76265e-05
3 *702:22 0.0171666
4 *702:20 0.0166766
5 *702:18 0.0110972
6 *702:16 0.0111425
7 *702:10 0.0227383
8 *702:8 0.0227106
9 *984:refsel[7] *984:bw[1] 6.95846e-06
10 *984:refsel[7] *984:SUMCAPIN[2] 9.44275e-05
11 *984:refsel[7] *984:DACCAPEN 5.64394e-05
12 *984:refsel[7] *984:FCAP1[6] 0.000140381
13 *984:refsel[7] *984:bw[3] 3.72462e-05
14 *984:refsel[7] *984:IPCAP1OFFSET 0.000521548
15 *984:refsel[7] *984:FCAP1OFFSET 0.000690677
16 *984:refsel[7] *735:58 0
17 *702:10 *703:12 0
18 *702:22 *984:bw[1] 0.00113493
19 *702:22 *984:SUMCAPIN[2] 0.00109499
20 *702:22 *984:refsel[12] 4.58367e-05
21 *702:22 *706:22 0.0032166
22 *702:22 *707:22 0.0171442
23 *702:22 *708:22 0.00119243
24 *702:22 *709:22 3.62756e-05
25 *702:22 *721:22 0.000551976
26 *702:22 *727:22 0.0198491
27 *702:22 *765:28 0.00116302
28 *702:22 *824:25 0.00212964
29 *702:22 *825:25 0.0020703
30 *984:refsel[6] *984:refsel[7] 5.98726e-05
31 *111:13 *702:8 6.83077e-06
32 *672:15 *702:10 0
33 *678:15 *702:10 0
34 *700:6 *702:8 4.43752e-05
35 *701:10 *702:10 0
36 *701:16 *702:16 7.86939e-05
37 *701:18 *702:18 0.0286092
*RES
1 *988:analog_ctrl[128] *702:8 1.06713 
2 *702:8 *702:10 59.2116 
3 *702:10 *702:16 1.1254 
4 *702:16 *702:18 320.895 
5 *702:18 *702:20 0.5 
6 *702:20 *702:22 85.69 
7 *702:22 *984:refsel[7] 12.4721 
*END

*D_NET *703 0.214196
*CONN
*I *984:refsel[8] I *D CF_ADC_DSM20
*I *988:analog_ctrl[129] O *D soc_sys
*CAP
1 *984:refsel[8] 0.00145757
2 *988:analog_ctrl[129] 0.0116669
3 *703:18 0.0145286
4 *703:16 0.013071
5 *703:14 0.0226785
6 *703:12 0.0343454
7 *984:refsel[8] *984:SUMCAPIN[4] 0.00035145
8 *984:refsel[8] *984:SUMCAPIN[3] 5.13964e-05
9 *984:refsel[8] *984:SUMCAPIN[1] 6.00201e-05
10 *984:refsel[8] *984:refsel[9] 0.000427419
11 *984:refsel[8] *984:SUMCAP3[1] 0.000243002
12 *984:refsel[8] *984:SUMCAP3[2] 0.000515269
13 *984:refsel[8] *984:SUMCAP2_EN 4.04634e-05
14 *984:refsel[8] *984:SUMCAP2[0] 6.11222e-05
15 *984:refsel[8] *984:SUMCAP1[1] 0.000999345
16 *984:refsel[8] *984:FCAP3[1] 7.97528e-05
17 *984:refsel[8] *984:DACCAPEN 0.00041648
18 *984:refsel[8] *984:FCAP1[5] 0.000722636
19 *984:refsel[8] *984:IPCAP1OFFSET 4.91032e-05
20 *984:refsel[8] *984:FCAP2EN 4.13222e-06
21 *984:refsel[8] *705:22 0.000122812
22 *984:refsel[8] *721:22 5.56633e-06
23 *984:refsel[8] *727:22 1.66167e-05
24 *984:refsel[8] *735:58 0.000459348
25 *984:refsel[8] *774:32 0.000752778
26 *984:refsel[8] *784:34 1.9488e-05
27 *703:12 *705:10 0
28 *703:14 *710:14 0.0527502
29 *703:18 *735:18 0.00482486
30 *703:18 *775:18 0.0275485
31 *703:18 *788:18 0.00708933
32 *111:13 *703:12 1.37473e-05
33 *672:15 *703:12 0.0154649
34 *678:15 *703:12 0.0032751
35 *700:6 *703:12 8.28896e-05
36 *702:10 *703:12 0
*RES
1 *988:analog_ctrl[129] *703:12 43.1797 
2 *703:12 *703:14 83.0971 
3 *703:14 *703:16 0.5 
4 *703:16 *703:18 406.193 
5 *703:18 *984:refsel[8] 39.6663 
*END

*D_NET *704 0.282157
*CONN
*I *984:iso I *D CF_ADC_DSM20
*I *988:analog_ctrl[12] O *D soc_sys
*CAP
1 *984:iso 0.0137338
2 *988:analog_ctrl[12] 0.0125601
3 *704:29 0.0345216
4 *704:27 0.0209254
5 *704:17 0.00816163
6 *704:15 0.00826008
7 *704:9 0.0290518
8 *704:7 0.0288158
9 *704:5 0.0125601
10 *704:9 *715:9 0
11 *704:9 *728:22 0.00115617
12 *704:9 *732:9 0.0086855
13 *704:9 *803:9 0
14 *704:9 *808:9 0.0658224
15 *704:15 *772:5 5.22517e-05
16 *704:17 *766:9 0.00561514
17 *704:17 *808:17 0.0222138
18 *704:27 *766:9 0.000322818
19 *704:29 *814:13 0
20 *704:29 *815:13 0.00301883
21 *984:enable_hv *984:iso 0
22 *984:itrim_1[5] *704:9 0.00238294
23 *18:30 *984:iso 0.00135642
24 *669:14 *704:29 0.00294058
25 *693:17 *984:iso 0
*RES
1 *988:analog_ctrl[12] *704:5 218.333 
2 *704:5 *704:7 0.5 
3 *704:7 *704:9 114.707 
4 *704:9 *704:15 6.3025 
5 *704:15 *704:17 215.04 
6 *704:17 *704:27 3.7075 
7 *704:27 *704:29 61.4511 
8 *704:29 *984:iso 37.974 
*END

*D_NET *705 0.197073
*CONN
*I *984:refsel[9] I *D CF_ADC_DSM20
*I *988:analog_ctrl[130] O *D soc_sys
*CAP
1 *984:refsel[9] 0.00109228
2 *988:analog_ctrl[130] 1.76265e-05
3 *705:22 0.0198471
4 *705:20 0.0187548
5 *705:18 0.0105986
6 *705:16 0.0107639
7 *705:10 0.0221279
8 *705:8 0.0219802
9 *984:refsel[9] *984:IPCAP3[1] 3.97175e-05
10 *984:refsel[9] *984:IPCAP2[2] 0.00166091
11 *984:refsel[9] *984:FCAP3[2] 3.86814e-05
12 *984:refsel[9] *984:FCAP3[1] 0.000436606
13 *984:refsel[9] *984:FCAP2[1] 0.000167164
14 *984:refsel[9] *984:DACCAPEN 1.86715e-05
15 *984:refsel[9] *984:DACCAP[4] 0.000115465
16 *984:refsel[9] *984:DACCAP[2] 0.00201175
17 *984:refsel[9] *984:IPCAP1[4] 5.8023e-05
18 *984:refsel[9] *984:FCAP1[6] 2.06223e-06
19 *984:refsel[9] *735:58 3.27181e-06
20 *705:10 *706:10 0
21 *705:16 *706:16 5.56205e-06
22 *705:18 *706:18 0.027413
23 *705:22 *984:IPCAP2[2] 0.000303125
24 *705:22 *723:22 0.0461016
25 *705:22 *730:22 4.21906e-05
26 *705:22 *778:38 0.0110566
27 *984:refsel[8] *984:refsel[9] 0.000427419
28 *984:refsel[8] *705:22 0.000122812
29 *984:itrim_sum[1] *705:16 0.000164897
30 *111:13 *705:8 6.83077e-06
31 *678:15 *705:10 0.00164978
32 *700:6 *705:8 4.43752e-05
33 *703:12 *705:10 0
*RES
1 *988:analog_ctrl[130] *705:8 1.06713 
2 *705:8 *705:10 59.2977 
3 *705:10 *705:16 1.59153 
4 *705:16 *705:18 306.997 
5 *705:18 *705:20 2 
6 *705:20 *705:22 487.59 
7 *705:22 *984:refsel[9] 12.2895 
*END

*D_NET *706 0.20176
*CONN
*I *984:refsel[10] I *D CF_ADC_DSM20
*I *988:analog_ctrl[131] O *D soc_sys
*CAP
1 *984:refsel[10] 0.000659248
2 *988:analog_ctrl[131] 1.76265e-05
3 *706:22 0.0163429
4 *706:20 0.0156837
5 *706:18 0.0113254
6 *706:16 0.0113549
7 *706:10 0.0210371
8 *706:8 0.0210253
9 *984:refsel[10] *984:SUMCAPFB[3] 0.000659022
10 *984:refsel[10] *984:SUMCAP3[0] 0.000770614
11 *984:refsel[10] *984:SUMCAP3[2] 0.000715436
12 *984:refsel[10] *984:SUMCAP1_EN 1.00941e-05
13 *984:refsel[10] *984:DACCAP[0] 0.00218013
14 *984:refsel[10] *743:22 0.00248681
15 *984:refsel[10] *780:30 0.00026015
16 *706:10 *707:10 0
17 *706:22 *727:22 0.0114057
18 *706:22 *742:22 0.000448936
19 *706:22 *752:22 0.0027085
20 *706:22 *765:22 0.0257732
21 *706:22 *765:28 0.00290019
22 *706:22 *773:22 0.000716479
23 *706:22 *777:22 0.0106071
24 *706:22 *823:25 0.00832291
25 *984:itrim_sum[1] *706:16 2.20023e-05
26 *111:13 *706:8 6.83077e-06
27 *681:13 *706:10 0.00364076
28 *700:6 *706:8 4.43752e-05
29 *702:22 *706:22 0.0032166
30 *705:10 *706:10 0
31 *705:16 *706:16 5.56205e-06
32 *705:18 *706:18 0.027413
*RES
1 *988:analog_ctrl[131] *706:8 1.06713 
2 *706:8 *706:10 59.2116 
3 *706:10 *706:16 1.06713 
4 *706:16 *706:18 320.003 
5 *706:18 *706:20 2 
6 *706:20 *706:22 484.14 
7 *706:22 *984:refsel[10] 18.0405 
*END

*D_NET *707 0.186398
*CONN
*I *984:refsel[11] I *D CF_ADC_DSM20
*I *988:analog_ctrl[132] O *D soc_sys
*CAP
1 *984:refsel[11] 0.000967858
2 *988:analog_ctrl[132] 1.76265e-05
3 *707:22 0.0136083
4 *707:20 0.0126405
5 *707:18 0.0178691
6 *707:16 0.017942
7 *707:10 0.0170758
8 *707:8 0.0170205
9 *984:refsel[11] *984:SUMCAPFB[3] 0.000602583
10 *984:refsel[11] *984:SUMCAP3[0] 0.000389646
11 *984:refsel[11] *984:SUMCAP3[2] 0.000977472
12 *984:refsel[11] *984:SUMCAP2[1] 0.00052378
13 *984:refsel[11] *984:SUMCAP2[0] 0.000336093
14 *984:refsel[11] *984:SUMCAP1_EN 0
15 *984:refsel[11] *984:DACCAP[0] 2.67006e-05
16 *984:refsel[11] *744:22 4.5674e-05
17 *984:refsel[11] *769:28 1.79483e-05
18 *984:refsel[11] *780:30 5.57496e-05
19 *707:10 *708:10 0
20 *707:22 *709:22 0.0520157
21 *984:itrim_sum[1] *707:16 9.1765e-05
22 *111:13 *707:8 6.83077e-06
23 *677:13 *707:10 0
24 *681:13 *707:10 0.0164707
25 *700:6 *707:8 4.43752e-05
26 *701:22 *707:22 0.000507205
27 *702:22 *707:22 0.0171442
28 *706:10 *707:10 0
*RES
1 *988:analog_ctrl[132] *707:8 1.06713 
2 *707:8 *707:10 59.2116 
3 *707:10 *707:16 1.24193 
4 *707:16 *707:18 322.935 
5 *707:18 *707:20 0.5 
6 *707:20 *707:22 80.7956 
7 *707:22 *984:refsel[11] 28.1997 
*END

*D_NET *708 0.21955
*CONN
*I *984:refsel[12] I *D CF_ADC_DSM20
*I *988:analog_ctrl[133] O *D soc_sys
*CAP
1 *984:refsel[12] 0.000740508
2 *988:analog_ctrl[133] 2.91092e-05
3 *708:22 0.013044
4 *708:20 0.0123035
5 *708:18 0.0174088
6 *708:16 0.0175126
7 *708:10 0.0154918
8 *708:8 0.0154171
9 *984:refsel[12] *984:bw[1] 1.35034e-05
10 *984:refsel[12] *984:bw[2] 0.00143417
11 *984:refsel[12] *984:SUMCAPFB[0] 0.0003009
12 *984:refsel[12] *984:SUMCAP2[0] 4.2022e-05
13 *984:refsel[12] *984:SUMCAP1[1] 9.58332e-05
14 *984:refsel[12] *984:FCAP2[3] 0.000842609
15 *984:refsel[12] *984:DACCAPEN 0.000386789
16 *984:refsel[12] *984:DACCAP[0] 7.28594e-05
17 *984:refsel[12] *984:FCAP1OFFSET 0.000127238
18 *984:refsel[12] *709:22 0.000746221
19 *984:refsel[12] *722:22 3.92474e-05
20 *984:refsel[12] *725:22 1.99593e-05
21 *708:10 *709:10 0
22 *708:22 *984:IPCAP3[2] 0.000277364
23 *708:22 *984:FCAP3[1] 0.000316954
24 *708:22 *718:22 0
25 *708:22 *721:22 0.0488227
26 *708:22 *724:22 0
27 *708:22 *729:22 0.000142053
28 *708:22 *731:22 0.00125311
29 *708:22 *741:22 0.0015395
30 *708:22 *742:22 0.0160443
31 *708:22 *750:22 0.0211754
32 *708:22 *786:25 0.00146189
33 *984:refsel[6] *984:refsel[12] 0.000295773
34 *984:COMBUF_INP *708:18 0.000336751
35 *984:itrim_sum[0] *708:16 0.000281181
36 *111:13 *708:8 1.37473e-05
37 *677:13 *708:10 0.0301993
38 *700:6 *708:8 8.28896e-05
39 *702:22 *984:refsel[12] 4.58367e-05
40 *702:22 *708:22 0.00119243
41 *707:10 *708:10 0
*RES
1 *988:analog_ctrl[133] *708:8 1.1254 
2 *708:8 *708:10 59.2116 
3 *708:10 *708:16 1.41673 
4 *708:16 *708:18 318.345 
5 *708:18 *708:20 0.5 
6 *708:20 *708:22 80.2712 
7 *708:22 *984:refsel[12] 11.8956 
*END

*D_NET *709 0.231584
*CONN
*I *984:refsel[13] I *D CF_ADC_DSM20
*I *988:analog_ctrl[134] O *D soc_sys
*CAP
1 *984:refsel[13] 0.000518671
2 *988:analog_ctrl[134] 1.76265e-05
3 *709:22 0.0104688
4 *709:20 0.00995015
5 *709:18 0.017845
6 *709:16 0.0180105
7 *709:10 0.0190048
8 *709:8 0.018857
9 *984:refsel[13] *984:SUMCAP2_EN 0.000291807
10 *984:refsel[13] *984:FCAP2[3] 0.000222444
11 *984:refsel[13] *984:FCAP2[0] 2.5049e-05
12 *984:refsel[13] *984:FCAP1[5] 3.86814e-05
13 *984:refsel[13] *984:bw[3] 0
14 *709:10 *710:12 0
15 *709:22 *722:22 0.0483508
16 *984:refsel[12] *709:22 0.000746221
17 *984:refsel[6] *984:refsel[13] 0.000604151
18 *984:refsel[6] *709:22 0.000312248
19 *984:itrim_sum[0] *709:16 0.000480889
20 *984:itrim_2_3[2] *709:10 0.0111459
21 *111:13 *709:8 6.83077e-06
22 *700:6 *709:8 4.43752e-05
23 *700:26 *709:22 0.00193465
24 *701:22 *709:22 0.0206552
25 *702:22 *709:22 3.62756e-05
26 *707:22 *709:22 0.0520157
27 *708:10 *709:10 0
*RES
1 *988:analog_ctrl[134] *709:8 1.06713 
2 *709:8 *709:10 59.2116 
3 *709:10 *709:16 1.70807 
4 *709:16 *709:18 323.445 
5 *709:18 *709:20 0.5 
6 *709:20 *709:22 80.5043 
7 *709:22 *984:refsel[13] 23.88 
*END

*D_NET *710 0.215269
*CONN
*I *984:refsel[14] I *D CF_ADC_DSM20
*I *988:analog_ctrl[135] O *D soc_sys
*CAP
1 *984:refsel[14] 0.000187684
2 *988:analog_ctrl[135] 0.0131793
3 *710:18 0.0225075
4 *710:16 0.0223198
5 *710:14 0.0106889
6 *710:12 0.0238682
7 *984:refsel[14] *984:IPCAP3[0] 9.00644e-06
8 *710:12 *711:12 0.00280457
9 *710:14 *711:14 0.0544237
10 *710:18 *984:refsel[15] 0
11 *710:18 *984:DACCAP[1] 0.000111857
12 *710:18 *711:18 0.00726139
13 *710:18 *783:26 0.00106331
14 *984:itrim_2_3[2] *710:12 0.00404284
15 *111:13 *710:12 6.83077e-06
16 *700:6 *710:12 4.43752e-05
17 *703:14 *710:14 0.0527502
18 *709:10 *710:12 0
*RES
1 *988:analog_ctrl[135] *710:12 43.2075 
2 *710:12 *710:14 82.3397 
3 *710:14 *710:16 0.5 
4 *710:16 *710:18 399.435 
5 *710:18 *984:refsel[14] 4.6475 
*END

*D_NET *711 0.233388
*CONN
*I *984:refsel[15] I *D CF_ADC_DSM20
*I *988:analog_ctrl[136] O *D soc_sys
*CAP
1 *984:refsel[15] 0.000208385
2 *988:analog_ctrl[136] 0.0169245
3 *711:18 0.019073
4 *711:16 0.0188646
5 *711:14 0.0107439
6 *711:12 0.0276684
7 *984:refsel[15] *984:DACCAP[1] 8.14646e-05
8 *984:refsel[15] *713:14 7.86938e-05
9 *711:14 *717:14 0.0523271
10 *711:18 *766:13 0.0208041
11 *711:18 *776:13 0
12 *711:18 *783:26 0.00191821
13 *984:refsel[2] *984:refsel[15] 2.09749e-05
14 *984:itrim_2_3[2] *711:12 0
15 *111:13 *711:12 2.70087e-05
16 *700:6 *711:12 0.000158299
17 *710:12 *711:12 0.00280457
18 *710:14 *711:14 0.0544237
19 *710:18 *984:refsel[15] 0
20 *710:18 *711:18 0.00726139
*RES
1 *988:analog_ctrl[136] *711:12 43.4685 
2 *711:12 *711:14 82.194 
3 *711:14 *711:16 0.5 
4 *711:16 *711:18 67.0497 
5 *711:18 *984:refsel[15] 5.6529 
*END

*D_NET *712 0.207135
*CONN
*I *984:FCAP1[0] I *D CF_ADC_DSM20
*I *988:analog_ctrl[137] O *D soc_sys
*CAP
1 *984:FCAP1[0] 0.0538238
2 *988:analog_ctrl[137] 2.91092e-05
3 *712:10 0.0910378
4 *712:8 0.0372431
5 *984:FCAP1[0] *984:IPCAP1[0] 0.000886656
6 *984:FCAP1[0] *984:FCAP1[2] 0
7 *984:FCAP1[0] *984:IPCAP2EN 6.06913e-06
8 *984:FCAP1[0] *984:IPCAP1EN 0.00019112
9 *984:FCAP1[0] *984:FCAP2EN 0.00039745
10 *984:FCAP1[0] *984:FCAP1EN 0.000443737
11 *984:FCAP1[0] *984:FCAP1OFFSET 2.14626e-05
12 *984:FCAP1[0] *796:13 0.000673204
13 *984:FCAP1[0] *866:13 2.0806e-05
14 *984:FCAP1[0] *866:25 7.0957e-06
15 *712:10 *713:10 0
16 *984:itrim_2_3[5] *712:10 0.0222569
17 *111:13 *712:8 1.37473e-05
18 *700:6 *712:8 8.28896e-05
*RES
1 *988:analog_ctrl[137] *712:8 1.1254 
2 *712:8 *712:10 108.566 
3 *712:10 *984:FCAP1[0] 47.733 
*END

*D_NET *713 0.237107
*CONN
*I *984:FCAP1[1] I *D CF_ADC_DSM20
*I *988:analog_ctrl[138] O *D soc_sys
*CAP
1 *984:FCAP1[1] 0.00168112
2 *988:analog_ctrl[138] 1.76265e-05
3 *713:14 0.0166838
4 *713:12 0.0150027
5 *713:10 0.0397347
6 *713:8 0.0397523
7 *984:FCAP1[1] *984:IPCAP1[5] 0.000101194
8 *984:FCAP1[1] *984:IPCAP1[0] 0.000984375
9 *984:FCAP1[1] *984:FCAP1[2] 0.00160185
10 *984:FCAP1[1] *984:IPCAP1OFFSET 0.000171912
11 *984:FCAP1[1] *984:IPCAP3EN 0.00124018
12 *984:FCAP1[1] *984:FCAP1OFFSET 9.78648e-05
13 *984:FCAP1[1] *984:SCANCLK 0
14 *984:FCAP1[1] *716:45 0
15 *984:FCAP1[1] *828:13 0
16 *713:10 *714:10 0
17 *713:14 *984:DACCAP[5] 3.22423e-05
18 *713:14 *984:DACCAP[1] 0.0010788
19 *713:14 *984:FCAP1[4] 4.00045e-05
20 *713:14 *984:RESCAP[1] 0.000237007
21 *713:14 *984:FCAP3EN 4.00045e-05
22 *713:14 *714:14 0.0559642
23 *713:14 *733:14 3.97175e-05
24 *713:14 *737:17 0.00010204
25 *713:14 *757:14 0.0365862
26 *713:14 *827:17 0.0209189
27 *713:14 *827:21 0.001131
28 *713:14 *827:35 0.00093089
29 *984:refsel[15] *713:14 7.86938e-05
30 *984:itrim_2_3[5] *713:10 0.00280617
31 *111:13 *713:8 6.83077e-06
32 *700:6 *713:8 4.43752e-05
33 *712:10 *713:10 0
*RES
1 *988:analog_ctrl[138] *713:8 1.06713 
2 *713:8 *713:10 108.824 
3 *713:10 *713:12 0.5 
4 *713:12 *713:14 86.6223 
5 *713:14 *984:FCAP1[1] 10.893 
*END

*D_NET *714 0.243496
*CONN
*I *984:FCAP1[2] I *D CF_ADC_DSM20
*I *988:analog_ctrl[139] O *D soc_sys
*CAP
1 *984:FCAP1[2] 0.00169154
2 *988:analog_ctrl[139] 2.91092e-05
3 *714:14 0.0145079
4 *714:12 0.0128163
5 *714:10 0.0423898
6 *714:8 0.0424189
7 *984:FCAP1[2] *984:IPCAP1[5] 0.000604031
8 *984:FCAP1[2] *984:IPCAP1EN 0
9 *984:FCAP1[2] *984:FCAP1EN 0
10 *714:14 *733:14 0.0489181
11 *714:14 *737:17 0.0108693
12 *714:14 *737:29 0.000734959
13 *984:refsel[2] *714:14 0.000231866
14 *984:FCAP1[1] *984:FCAP1[2] 0.00160185
15 *984:FCAP1[0] *984:FCAP1[2] 0
16 *111:13 *714:8 1.37473e-05
17 *697:22 *714:14 0.0106217
18 *700:6 *714:8 8.28896e-05
19 *713:10 *714:10 0
20 *713:14 *714:14 0.0559642
*RES
1 *988:analog_ctrl[139] *714:8 1.1254 
2 *714:8 *714:10 108.911 
3 *714:10 *714:12 0.5 
4 *714:12 *714:14 85.8065 
5 *714:14 *984:FCAP1[2] 9.70103 
*END

*D_NET *715 0.269037
*CONN
*I *984:phi2_buffer I *D CF_ADC_DSM20
*I *988:analog_ctrl[13] O *D soc_sys
*CAP
1 *984:phi2_buffer 0.0121239
2 *988:analog_ctrl[13] 0.0118753
3 *715:19 0.0127858
4 *715:9 0.053421
5 *715:7 0.052759
6 *715:5 0.0118753
7 *984:phi2_buffer *826:21 0.00934296
8 *984:phi2_buffer *873:13 4.67438e-06
9 *715:9 *720:19 0
10 *715:9 *732:9 0
11 *715:9 *771:13 0
12 *715:9 *776:11 0
13 *715:9 *803:9 0.0954874
14 *715:9 *825:9 0
15 *715:19 *826:19 0.000825909
16 *715:19 *873:13 0.000204604
17 *39:9 *715:19 0.000195254
18 *67:13 *715:9 0
19 *110:21 *715:9 0
20 *121:22 *715:5 0.00813588
21 *658:12 *984:phi2_buffer 0
22 *660:12 *984:phi2_buffer 0
23 *678:15 *715:9 0
24 *704:9 *715:9 0
*RES
1 *988:analog_ctrl[13] *715:5 214.253 
2 *715:5 *715:7 0.5 
3 *715:7 *715:9 181.48 
4 *715:9 *715:19 9.45307 
5 *715:19 *984:phi2_buffer 44.2693 
*END

*D_NET *716 0.202884
*CONN
*I *984:FCAP1[3] I *D CF_ADC_DSM20
*I *988:analog_ctrl[140] O *D soc_sys
*CAP
1 *984:FCAP1[3] 0.000929347
2 *988:analog_ctrl[140] 0.0127669
3 *716:45 0.0121321
4 *716:21 0.0387826
5 *716:19 0.0276919
6 *716:9 0.00992396
7 *716:7 0.00981197
8 *716:5 0.0127669
9 *984:FCAP1[3] *984:IPCAP1[5] 0.00177117
10 *984:FCAP1[3] *984:IPCAP1[0] 0.000552387
11 *716:9 *720:9 0.0272213
12 *716:9 *771:13 0.00332936
13 *716:9 *808:9 0.0100119
14 *716:19 *771:13 0.000439252
15 *716:19 *776:11 0.000432647
16 *716:45 *984:SUMCAP3_EN 0
17 *716:45 *984:SUMCAP1[2] 2.61066e-05
18 *716:45 *984:IPCAP3[0] 6.21612e-05
19 *716:45 *984:FCAP3[0] 0.000165349
20 *716:45 *984:IPCAP1[4] 1.99296e-05
21 *716:45 *984:IPCAP1[0] 0.00171622
22 *716:45 *984:RESCAPEN 4.66009e-05
23 *716:45 *984:RESCAP[2] 0
24 *716:45 *984:FCAP1EN 0.00324017
25 *716:45 *984:SUMCAPIN_EN 0.00239878
26 *716:45 *984:SCANCLK 0.000689339
27 *716:45 *733:14 0
28 *716:45 *746:14 0
29 *716:45 *747:14 0
30 *716:45 *784:34 0.0218839
31 *716:45 *828:13 1.63588e-05
32 *716:45 *866:13 0.00118122
33 *984:refsel[4] *984:FCAP1[3] 0.000245823
34 *984:FCAP1[1] *716:45 0
35 *984:vpwr_ext *716:45 4.75184e-05
36 *984:vpwrd_int *716:45 0.00258086
37 *649:18 *716:21 0
*RES
1 *988:analog_ctrl[140] *716:5 217.44 
2 *716:5 *716:7 2 
3 *716:7 *716:9 262.305 
4 *716:9 *716:19 4.1373 
5 *716:19 *716:21 72.9068 
6 *716:21 *716:45 49.202 
7 *716:45 *984:FCAP1[3] 6.72123 
*END

*D_NET *717 0.21788
*CONN
*I *984:FCAP1[4] I *D CF_ADC_DSM20
*I *988:analog_ctrl[141] O *D soc_sys
*CAP
1 *984:FCAP1[4] 0.000167755
2 *988:analog_ctrl[141] 0.0129383
3 *717:18 0.0198982
4 *717:16 0.0197305
5 *717:14 0.0128809
6 *717:12 0.0258191
7 *984:FCAP1[4] *984:DACCAP[1] 0
8 *984:FCAP1[4] *984:RESCAP[1] 1.45731e-05
9 *984:FCAP1[4] *737:29 2.41228e-05
10 *717:12 *718:10 0
11 *717:14 *735:14 0.0429507
12 *717:18 *984:RESCAP[2] 0.00253807
13 *717:18 *732:13 0
14 *717:18 *762:20 0.0147675
15 *717:18 *764:18 0
16 *984:itrim_sum[3] *717:12 0.0136867
17 *111:13 *717:12 1.37473e-05
18 *700:6 *717:12 8.28896e-05
19 *711:14 *717:14 0.0523271
20 *713:14 *984:FCAP1[4] 4.00045e-05
*RES
1 *988:analog_ctrl[141] *717:12 43.4381 
2 *717:12 *717:14 81.7279 
3 *717:14 *717:16 0.5 
4 *717:16 *717:18 66.9636 
5 *717:18 *984:FCAP1[4] 5.11463 
*END

*D_NET *718 0.208347
*CONN
*I *984:FCAP1[5] I *D CF_ADC_DSM20
*I *988:analog_ctrl[142] O *D soc_sys
*CAP
1 *984:FCAP1[5] 0.00203419
2 *988:analog_ctrl[142] 1.76265e-05
3 *718:22 0.0153376
4 *718:20 0.0133034
5 *718:18 0.0108671
6 *718:16 0.0110412
7 *718:10 0.0195616
8 *718:8 0.0194052
9 *984:FCAP1[5] *984:SUMCAPIN[1] 2.52525e-06
10 *984:FCAP1[5] *984:SUMCAPFB[2] 0.000164547
11 *984:FCAP1[5] *984:SUMCAP3[2] 0.00198401
12 *984:FCAP1[5] *984:SUMCAP2_EN 0.000456104
13 *984:FCAP1[5] *984:SUMCAP2[1] 5.05716e-06
14 *984:FCAP1[5] *984:SUMCAP2[0] 0.00220599
15 *984:FCAP1[5] *984:FCAP3[1] 0.000239624
16 *984:FCAP1[5] *984:FCAP2[2] 0.00152977
17 *984:FCAP1[5] *984:FCAP2[0] 8.0419e-05
18 *984:FCAP1[5] *984:DACCAP[0] 0.000633337
19 *984:FCAP1[5] *719:22 0.000210421
20 *984:FCAP1[5] *734:22 1.19532e-05
21 *984:FCAP1[5] *736:22 0.000139087
22 *984:FCAP1[5] *744:22 3.00036e-05
23 *984:FCAP1[5] *774:32 0.0006112
24 *718:10 *719:10 0
25 *718:18 *719:18 0.0277801
26 *718:22 *984:SUMCAPFB[2] 0.0248382
27 *718:22 *724:22 0.0465943
28 *718:22 *745:14 0
29 *718:22 *749:14 0
30 *718:22 *756:14 0
31 *718:22 *768:26 0
32 *718:22 *774:32 0
33 *984:refsel[13] *984:FCAP1[5] 3.86814e-05
34 *984:refsel[8] *984:FCAP1[5] 0.000722636
35 *984:refsel[5] *984:FCAP1[5] 1.23247e-05
36 *984:itrim_sum[3] *718:10 0.000589594
37 *984:itrim_sum[3] *718:16 0.000520831
38 *984:itrim_2_3[4] *718:10 0.00732718
39 *111:13 *718:8 6.83077e-06
40 *700:6 *718:8 4.43752e-05
41 *708:22 *718:22 0
42 *717:12 *718:10 0
*RES
1 *988:analog_ctrl[142] *718:8 1.06713 
2 *718:8 *718:10 59.47 
3 *718:10 *718:16 1.76633 
4 *718:16 *718:18 313.245 
5 *718:18 *718:20 0.5 
6 *718:20 *718:22 72.6965 
7 *718:22 *984:FCAP1[5] 28.5488 
*END

*D_NET *719 0.187213
*CONN
*I *984:FCAP1[6] I *D CF_ADC_DSM20
*I *988:analog_ctrl[143] O *D soc_sys
*CAP
1 *984:FCAP1[6] 0.00172733
2 *988:analog_ctrl[143] 2.91092e-05
3 *719:22 0.0228513
4 *719:20 0.021124
5 *719:18 0.011195
6 *719:16 0.0112309
7 *719:10 0.0274509
8 *719:8 0.0274441
9 *984:FCAP1[6] *984:SUMCAPIN[3] 0.000323607
10 *984:FCAP1[6] *984:SUMCAPIN[2] 7.13246e-06
11 *984:FCAP1[6] *984:SUMCAPFB[2] 0.00109221
12 *984:FCAP1[6] *984:SUMCAP1[1] 5.4558e-05
13 *984:FCAP1[6] *984:FCAP3[1] 0.000721673
14 *984:FCAP1[6] *984:DACCAP[4] 0.000380303
15 *984:FCAP1[6] *984:IPCAP1[2] 0.00020129
16 *984:FCAP1[6] *984:IPCAP1OFFSET 0.000573247
17 *984:FCAP1[6] *984:IPCAP1EN 0.000228351
18 *984:FCAP1[6] *984:FCAP2EN 0.00180952
19 *984:FCAP1[6] *984:FCAP1OFFSET 0.000152618
20 *984:FCAP1[6] *735:58 7.46446e-05
21 *984:FCAP1[6] *741:22 0.00109499
22 *719:22 *768:26 0.000297305
23 *719:22 *774:32 0.00592859
24 *719:22 *787:22 0.0228741
25 *984:refsel[9] *984:FCAP1[6] 2.06223e-06
26 *984:refsel[7] *984:FCAP1[6] 0.000140381
27 *984:refsel[6] *984:FCAP1[6] 0
28 *984:FCAP1[5] *719:22 0.000210421
29 *984:itrim_sum[0] *719:16 7.86633e-05
30 *984:itrim_sum[3] *719:16 3.82733e-05
31 *111:13 *719:8 1.37473e-05
32 *700:6 *719:8 8.28896e-05
33 *718:10 *719:10 0
34 *718:18 *719:18 0.0277801
*RES
1 *988:analog_ctrl[143] *719:8 1.1254 
2 *719:8 *719:10 59.2116 
3 *719:10 *719:16 1.1254 
4 *719:16 *719:18 312.862 
5 *719:18 *719:20 2 
6 *719:20 *719:22 440.325 
7 *719:22 *984:FCAP1[6] 29.8165 
*END

*D_NET *720 0.180691
*CONN
*I *984:FCAP1EN I *D CF_ADC_DSM20
*I *988:analog_ctrl[144] O *D soc_sys
*CAP
1 *984:FCAP1EN 0.00155983
2 *988:analog_ctrl[144] 0.0127769
3 *720:21 0.0217796
4 *720:19 0.0204515
5 *720:9 0.0192951
6 *720:7 0.0190633
7 *720:5 0.0127769
8 *984:FCAP1EN *984:SUMCAP1[0] 0
9 *984:FCAP1EN *984:SUMCAP1[2] 0.000189686
10 *984:FCAP1EN *984:IPCAP3[0] 4.85836e-06
11 *984:FCAP1EN *984:DACCAP[3] 2.79856e-05
12 *984:FCAP1EN *984:IPCAP2EN 0.00213094
13 *984:FCAP1EN *984:FCAP2EN 1.06279e-05
14 *720:9 *771:13 0.00485232
15 *720:9 *776:11 0.000221087
16 *720:19 *732:9 0.000237321
17 *720:21 *766:13 0.0222127
18 *984:FCAP1[2] *984:FCAP1EN 0
19 *984:FCAP1[0] *984:FCAP1EN 0.000443737
20 *984:vpwrd_int *984:FCAP1EN 0.00266021
21 *37:25 *720:9 0.00927829
22 *37:25 *720:19 0.000256537
23 *108:29 *720:9 0
24 *715:9 *720:19 0
25 *716:9 *720:9 0.0272213
26 *716:45 *984:FCAP1EN 0.00324017
*RES
1 *988:analog_ctrl[144] *720:5 217.695 
2 *720:5 *720:7 2 
3 *720:7 *720:9 453.09 
4 *720:9 *720:19 4.0571 
5 *720:19 *720:21 72.8207 
6 *720:21 *984:FCAP1EN 15.3508 
*END

*D_NET *721 0.236797
*CONN
*I *984:FCAP1OFFSET I *D CF_ADC_DSM20
*I *988:analog_ctrl[145] O *D soc_sys
*CAP
1 *984:FCAP1OFFSET 0.00118018
2 *988:analog_ctrl[145] 2.91092e-05
3 *721:22 0.00912579
4 *721:20 0.00794561
5 *721:18 0.0110254
6 *721:16 0.0110974
7 *721:10 0.0210707
8 *721:8 0.0210278
9 *984:FCAP1OFFSET *984:bw[1] 0.000283174
10 *984:FCAP1OFFSET *984:bw[2] 0.000310502
11 *984:FCAP1OFFSET *984:SUMCAPIN[2] 4.37156e-05
12 *984:FCAP1OFFSET *984:DACCAPEN 4.55864e-06
13 *984:FCAP1OFFSET *984:IPCAP1[2] 0.00181093
14 *984:FCAP1OFFSET *984:IPCAP1OFFSET 0.00194456
15 *984:FCAP1OFFSET *984:IPCAP3EN 2.19736e-05
16 *984:FCAP1OFFSET *984:IPCAP2EN 0.000207405
17 *984:FCAP1OFFSET *984:IPCAP1EN 1.12032e-05
18 *984:FCAP1OFFSET *984:FCAP2EN 0.000484363
19 *721:10 *722:10 0.00403582
20 *721:16 *722:16 4.21127e-05
21 *721:18 *722:18 0.0283986
22 *721:22 *984:SUMCAP1[1] 9.01277e-05
23 *721:22 *984:FCAP3[1] 2.82147e-05
24 *721:22 *984:IPCAP1OFFSET 0.00111022
25 *721:22 *727:22 0.0484053
26 *721:22 *735:58 0.000363288
27 *721:22 *742:22 0.000743593
28 *721:22 *752:22 0.00783034
29 *721:22 *773:22 0.00663776
30 *984:refsel[12] *984:FCAP1OFFSET 0.000127238
31 *984:refsel[8] *721:22 5.56633e-06
32 *984:refsel[7] *984:FCAP1OFFSET 0.000690677
33 *984:refsel[6] *984:FCAP1OFFSET 0.000382746
34 *984:FCAP1[6] *984:FCAP1OFFSET 0.000152618
35 *984:FCAP1[1] *984:FCAP1OFFSET 9.78648e-05
36 *984:FCAP1[0] *984:FCAP1OFFSET 2.14626e-05
37 *984:itrim_sum[0] *721:16 0.000179242
38 *984:itrim_sum[3] *721:16 0.000358286
39 *111:13 *721:8 1.37473e-05
40 *700:6 *721:8 8.28896e-05
41 *702:22 *721:22 0.000551976
42 *708:22 *721:22 0.0488227
*RES
1 *988:analog_ctrl[145] *721:8 1.1254 
2 *721:8 *721:10 59.2977 
3 *721:10 *721:16 1.53327 
4 *721:16 *721:18 318.345 
5 *721:18 *721:20 0.5 
6 *721:20 *721:22 74.4737 
7 *721:22 *984:FCAP1OFFSET 12.564 
*END

*D_NET *722 0.216462
*CONN
*I *984:FCAP2[0] I *D CF_ADC_DSM20
*I *988:analog_ctrl[146] O *D soc_sys
*CAP
1 *984:FCAP2[0] 0.000649565
2 *988:analog_ctrl[146] 2.90992e-05
3 *722:22 0.00923193
4 *722:20 0.00858237
5 *722:18 0.0113703
6 *722:16 0.0113956
7 *722:10 0.0208668
8 *722:8 0.0208707
9 *984:FCAP2[0] *984:SUMCAP2_EN 0.00174386
10 *984:FCAP2[0] *984:FCAP2[3] 0.0020992
11 *984:FCAP2[0] *734:22 0.000415229
12 *722:10 *723:10 0
13 *722:22 *725:22 0.0467096
14 *984:refsel[13] *984:FCAP2[0] 2.5049e-05
15 *984:refsel[12] *722:22 3.92474e-05
16 *984:refsel[5] *984:FCAP2[0] 0.000208184
17 *984:refsel[4] *984:FCAP2[0] 6.8248e-05
18 *984:FCAP1[5] *984:FCAP2[0] 8.0419e-05
19 *984:itrim_sum[0] *722:16 8.1472e-05
20 *984:itrim_sum[3] *722:16 1.95213e-05
21 *111:13 *722:8 1.37499e-05
22 *700:6 *722:8 8.28896e-05
23 *700:32 *722:22 0.00105207
24 *709:22 *722:22 0.0483508
25 *721:10 *722:10 0.00403582
26 *721:16 *722:16 4.21127e-05
27 *721:18 *722:18 0.0283986
*RES
1 *988:analog_ctrl[146] *722:8 1.1254 
2 *722:8 *722:10 59.2116 
3 *722:10 *722:16 1.1254 
4 *722:16 *722:18 323.955 
5 *722:18 *722:20 0.5 
6 *722:20 *722:22 73.6288 
7 *722:22 *984:FCAP2[0] 17.5304 
*END

*D_NET *723 0.207083
*CONN
*I *984:FCAP2[1] I *D CF_ADC_DSM20
*I *988:analog_ctrl[147] O *D soc_sys
*CAP
1 *984:FCAP2[1] 0.00107459
2 *988:analog_ctrl[147] 3.9784e-05
3 *723:22 0.00774924
4 *723:20 0.00667465
5 *723:18 0.0176465
6 *723:16 0.0177378
7 *723:10 0.0265016
8 *723:8 0.0264501
9 *984:FCAP2[1] *984:SUMCAPIN[4] 0.000669354
10 *984:FCAP2[1] *984:IPCAP3[1] 0.00188684
11 *984:FCAP2[1] *984:FCAP3[0] 0.00213335
12 *984:FCAP2[1] *984:FCAP2[2] 0.00150895
13 *984:FCAP2[1] *984:DACCAP[4] 0.000349351
14 *984:FCAP2[1] *984:DACCAP[2] 2.19736e-05
15 *984:FCAP2[1] *984:IPCAP1[6] 6.59209e-05
16 *984:FCAP2[1] *984:IPCAP1[4] 4.7284e-05
17 *984:FCAP2[1] *735:58 0.000208698
18 *723:22 *984:IPCAP2[2] 0.000164324
19 *723:22 *730:22 0.0433329
20 *723:22 *778:38 0.0059938
21 *984:refsel[9] *984:FCAP2[1] 0.000167164
22 *984:itrim_sum[0] *723:16 0.000268206
23 *984:itrim_sum[0] *723:18 4.55864e-06
24 *984:itrim_sum[3] *723:16 0.000142585
25 *111:13 *723:8 2.08678e-05
26 *700:6 *723:8 0.000121404
27 *705:22 *723:22 0.0461016
28 *722:10 *723:10 0
*RES
1 *988:analog_ctrl[147] *723:8 1.18367 
2 *723:8 *723:10 59.2116 
3 *723:10 *723:16 1.41673 
4 *723:16 *723:18 307.763 
5 *723:18 *723:20 2 
6 *723:20 *723:22 424.455 
7 *723:22 *984:FCAP2[1] 14.4993 
*END

*D_NET *724 0.210919
*CONN
*I *984:FCAP2[2] I *D CF_ADC_DSM20
*I *988:analog_ctrl[148] O *D soc_sys
*CAP
1 *984:FCAP2[2] 0.000909195
2 *988:analog_ctrl[148] 1.76265e-05
3 *724:22 0.00840304
4 *724:20 0.00749385
5 *724:18 0.017314
6 *724:16 0.0174983
7 *724:10 0.0210693
8 *724:8 0.0209026
9 *984:FCAP2[2] *984:SUMCAPIN[1] 0.00091811
10 *984:FCAP2[2] *984:SUMCAPFB[2] 9.63898e-05
11 *984:FCAP2[2] *984:SUMCAP3[1] 0.000128502
12 *984:FCAP2[2] *984:IPCAP3[2] 1.61904e-05
13 *984:FCAP2[2] *984:FCAP3[3] 0.0024273
14 *984:FCAP2[2] *984:FCAP3[0] 0
15 *984:FCAP2[2] *984:DACCAP[2] 0.00173992
16 *984:FCAP2[2] *774:32 4.69684e-06
17 *984:FCAP2[2] *778:38 2.01848e-05
18 *984:FCAP2[2] *784:34 6.09653e-05
19 *724:10 *984:itrim_2_3[0] 0.0169402
20 *724:10 *725:10 0
21 *724:22 *984:SUMCAPFB[2] 0.000160648
22 *724:22 *729:22 0.0451137
23 *984:FCAP2[1] *984:FCAP2[2] 0.00150895
24 *984:FCAP1[5] *984:FCAP2[2] 0.00152977
25 *111:13 *724:8 6.83077e-06
26 *700:6 *724:8 4.43752e-05
27 *708:22 *724:22 0
28 *718:22 *724:22 0.0465943
*RES
1 *988:analog_ctrl[148] *724:8 1.06713 
2 *724:8 *724:10 59.47 
3 *724:10 *724:16 1.475 
4 *724:16 *724:18 313.755 
5 *724:18 *724:20 0.5 
6 *724:20 *724:22 69.5501 
7 *724:22 *984:FCAP2[2] 11.7414 
*END

*D_NET *725 0.210806
*CONN
*I *984:FCAP2[3] I *D CF_ADC_DSM20
*I *988:analog_ctrl[149] O *D soc_sys
*CAP
1 *984:FCAP2[3] 0.000900808
2 *988:analog_ctrl[149] 2.91092e-05
3 *725:22 0.0095188
4 *725:20 0.00861799
5 *725:18 0.0113703
6 *725:16 0.0116241
7 *725:10 0.0229398
8 *725:8 0.0227151
9 *984:FCAP2[3] *984:SUMCAP2_EN 6.40561e-05
10 *984:FCAP2[3] *984:DACCAPEN 0.00052367
11 *984:FCAP2[3] *734:22 0.000111354
12 *725:10 *984:itrim_2_3[0] 0
13 *725:10 *727:10 0
14 *725:16 *727:16 4.12303e-05
15 *725:18 *727:18 0.0283467
16 *725:22 *734:22 0.0433396
17 *984:refsel[13] *984:FCAP2[3] 0.000222444
18 *984:refsel[12] *984:FCAP2[3] 0.000842609
19 *984:refsel[12] *725:22 1.99593e-05
20 *984:refsel[6] *984:FCAP2[3] 0.000165008
21 *984:refsel[4] *984:FCAP2[3] 0.000507732
22 *984:FCAP2[0] *984:FCAP2[3] 0.0020992
23 *111:13 *725:8 1.37473e-05
24 *700:6 *725:8 8.28896e-05
25 *722:22 *725:22 0.0467096
26 *724:10 *725:10 0
*RES
1 *988:analog_ctrl[149] *725:8 1.1254 
2 *725:8 *725:10 59.3839 
3 *725:10 *725:16 1.6498 
4 *725:16 *725:18 323.445 
5 *725:18 *725:20 0.5 
6 *725:20 *725:22 71.1233 
7 *725:22 *984:FCAP2[3] 6.86183 
*END

*D_NET *726 0.178868
*CONN
*I *984:buf_sel I *D CF_ADC_DSM20
*I *988:analog_ctrl[14] O *D soc_sys
*CAP
1 *984:buf_sel 0.0159827
2 *988:analog_ctrl[14] 0.00902197
3 *726:13 0.0382216
4 *726:11 0.0312608
5 *726:11 *799:9 0
6 *726:13 *831:5 0.0567692
7 *726:13 *832:5 0
8 *726:13 *843:10 0.0090448
9 *66:13 *726:11 0.0182875
10 *88:12 *726:11 0.000236272
11 *699:19 *984:buf_sel 4.29956e-05
*RES
1 *988:analog_ctrl[14] *726:11 42.6098 
2 *726:11 *726:13 637.095 
3 *726:13 *984:buf_sel 43.2041 
*END

*D_NET *727 0.219826
*CONN
*I *984:FCAP2EN I *D CF_ADC_DSM20
*I *988:analog_ctrl[150] O *D soc_sys
*CAP
1 *984:FCAP2EN 0.000991796
2 *988:analog_ctrl[150] 1.76265e-05
3 *727:22 0.0109805
4 *727:20 0.00998873
5 *727:18 0.0110189
6 *727:16 0.0110459
7 *727:10 0.0188972
8 *727:8 0.0188879
9 *984:FCAP2EN *984:SUMCAPIN[3] 0
10 *984:FCAP2EN *984:SUMCAP1[1] 0.000846295
11 *984:FCAP2EN *984:IPCAP1[2] 0.000626022
12 *984:FCAP2EN *984:IPCAP1OFFSET 3.2281e-05
13 *984:FCAP2EN *984:IPCAP1EN 3.907e-05
14 *984:FCAP2EN *735:58 5.32588e-05
15 *727:10 *728:22 0.0114042
16 *727:22 *984:bw[0] 0.00116122
17 *727:22 *984:SUMCAPIN[2] 4.31143e-05
18 *727:22 *984:SUMCAP1[1] 2.38557e-05
19 *727:22 *765:22 0.00524298
20 *727:22 *777:22 0.00571232
21 *727:22 *823:25 0.00199135
22 *984:refsel[8] *984:FCAP2EN 4.13222e-06
23 *984:refsel[8] *727:22 1.66167e-05
24 *984:FCAP1[6] *984:FCAP2EN 0.00180952
25 *984:FCAP1[0] *984:FCAP2EN 0.00039745
26 *984:FCAP1EN *984:FCAP2EN 1.06279e-05
27 *984:FCAP1OFFSET *984:FCAP2EN 0.000484363
28 *111:13 *727:8 6.83077e-06
29 *700:6 *727:8 4.43752e-05
30 *702:22 *727:22 0.0198491
31 *706:22 *727:22 0.0114057
32 *721:22 *727:22 0.0484053
33 *725:10 *727:10 0
34 *725:16 *727:16 4.12303e-05
35 *725:18 *727:18 0.0283467
*RES
1 *988:analog_ctrl[150] *727:8 1.06713 
2 *727:8 *727:10 59.47 
3 *727:10 *727:16 1.06713 
4 *727:16 *727:18 317.835 
5 *727:18 *727:20 0.5 
6 *727:20 *727:22 71.9391 
7 *727:22 *984:FCAP2EN 21.0726 
*END

*D_NET *728 0.217415
*CONN
*I *984:FCAP3[0] I *D CF_ADC_DSM20
*I *988:analog_ctrl[151] O *D soc_sys
*CAP
1 *984:FCAP3[0] 0.00245366
2 *988:analog_ctrl[151] 0.0651815
3 *728:26 0.0254616
4 *728:24 0.0230079
5 *728:22 0.0651815
6 *984:FCAP3[0] *984:SUMCAP2[2] 3.99991e-05
7 *984:FCAP3[0] *984:IPCAP3[1] 0.00106784
8 *984:FCAP3[0] *984:IPCAP2[2] 0.000172909
9 *984:FCAP3[0] *984:DACCAP[4] 0.000403737
10 *984:FCAP3[0] *984:IPCAP1[6] 0.00079168
11 *984:FCAP3[0] *984:SUMCAPIN_EN 0.0019498
12 *984:FCAP3[0] *747:14 0.000172807
13 *984:FCAP3[0] *758:13 0.000246225
14 *984:FCAP3[0] *778:38 0.000106292
15 *728:22 *732:9 0.00215969
16 *728:22 *740:9 0.00228275
17 *728:22 *740:13 0.000201772
18 *728:22 *754:11 0.00166665
19 *728:22 *758:9 0.00138987
20 *728:22 *771:13 0.00190755
21 *728:22 *772:19 0.00195056
22 *728:22 *776:11 0.00168877
23 *728:22 *803:15 0.000211972
24 *728:22 *808:9 0.00140914
25 *728:22 *844:9 4.21127e-05
26 *984:FCAP2[2] *984:FCAP3[0] 0
27 *984:FCAP2[1] *984:FCAP3[0] 0.00213335
28 *984:vpwr_ext *984:FCAP3[0] 0.000561154
29 *18:34 *728:26 0
30 *39:9 *728:22 0.000533332
31 *111:13 *728:22 4.47945e-05
32 *700:6 *728:22 0.000267951
33 *704:9 *728:22 0.00115617
34 *716:45 *984:FCAP3[0] 0.000165349
35 *727:10 *728:22 0.0114042
*RES
1 *988:analog_ctrl[151] *728:22 49.5222 
2 *728:22 *728:24 0.5 
3 *728:24 *728:26 410.145 
4 *728:26 *984:FCAP3[0] 13.6033 
*END

*D_NET *729 0.202993
*CONN
*I *984:FCAP3[1] I *D CF_ADC_DSM20
*I *988:analog_ctrl[152] O *D soc_sys
*CAP
1 *984:FCAP3[1] 0.00177121
2 *988:analog_ctrl[152] 1.76265e-05
3 *729:22 0.00865308
4 *729:20 0.00688187
5 *729:18 0.0173486
6 *729:16 0.0175532
7 *729:10 0.0199045
8 *729:8 0.0197176
9 *984:FCAP3[1] *984:SUMCAP3[1] 1.69574e-05
10 *984:FCAP3[1] *984:SUMCAP1[1] 0.00128004
11 *984:FCAP3[1] *984:IPCAP3[2] 0.000174739
12 *984:FCAP3[1] *984:IPCAP2[1] 5.22517e-05
13 *984:FCAP3[1] *984:FCAP3[3] 1.75432e-05
14 *984:FCAP3[1] *984:DACCAPEN 0.000417621
15 *984:FCAP3[1] *984:DACCAP[4] 0.00134334
16 *984:FCAP3[1] *984:IPCAP1OFFSET 6.52783e-05
17 *984:FCAP3[1] *736:22 0.000241796
18 *984:FCAP3[1] *741:22 0.00243629
19 *984:FCAP3[1] *821:25 0.000202785
20 *729:10 *730:10 0
21 *729:22 *731:22 0.0445207
22 *984:refsel[9] *984:FCAP3[1] 0.000436606
23 *984:refsel[8] *984:FCAP3[1] 7.97528e-05
24 *984:FCAP1[5] *984:FCAP3[1] 0.000239624
25 *984:FCAP1[6] *984:FCAP3[1] 0.000721673
26 *984:itrim_sum[2] *729:10 0.0132461
27 *111:13 *729:8 6.83077e-06
28 *700:6 *729:8 4.43752e-05
29 *708:22 *984:FCAP3[1] 0.000316954
30 *708:22 *729:22 0.000142053
31 *721:22 *984:FCAP3[1] 2.82147e-05
32 *724:22 *729:22 0.0451137
*RES
1 *988:analog_ctrl[152] *729:8 1.06713 
2 *729:8 *729:10 59.47 
3 *729:10 *729:16 1.53327 
4 *729:16 *729:18 314.265 
5 *729:18 *729:20 0.5 
6 *729:20 *729:22 66.9281 
7 *729:22 *984:FCAP3[1] 22.0099 
*END

*D_NET *730 0.20636
*CONN
*I *984:FCAP3[2] I *D CF_ADC_DSM20
*I *988:analog_ctrl[153] O *D soc_sys
*CAP
1 *984:FCAP3[2] 0.0015201
2 *988:analog_ctrl[153] 2.91092e-05
3 *730:22 0.00788166
4 *730:20 0.00636156
5 *730:18 0.0106333
6 *730:16 0.0108927
7 *730:10 0.020187
8 *730:8 0.0199568
9 *984:FCAP3[2] *984:SUMCAP2[2] 0.000584975
10 *984:FCAP3[2] *984:IPCAP2[2] 0.000347594
11 *984:FCAP3[2] *984:IPCAP1[6] 0.000767034
12 *984:FCAP3[2] *984:IPCAP1[4] 0.00199317
13 *730:10 *731:10 0
14 *730:16 *731:16 3.99991e-05
15 *730:18 *731:18 0.0273505
16 *730:22 *984:IPCAP2[2] 0.000150618
17 *730:22 *738:22 0.0405244
18 *730:22 *778:38 0.00549386
19 *984:refsel[9] *984:FCAP3[2] 3.86814e-05
20 *984:itrim_sum[2] *730:10 0
21 *984:itrim_sum[5] *730:10 0.00813517
22 *111:13 *730:8 1.37473e-05
23 *700:6 *730:8 8.28896e-05
24 *705:22 *730:22 4.21906e-05
25 *723:22 *730:22 0.0433329
26 *729:10 *730:10 0
*RES
1 *988:analog_ctrl[153] *730:8 1.1254 
2 *730:8 *730:10 59.3839 
3 *730:10 *730:16 1.6498 
4 *730:16 *730:18 306.997 
5 *730:18 *730:20 2 
6 *730:20 *730:22 399.96 
7 *730:22 *984:FCAP3[2] 12.5289 
*END

*D_NET *731 0.211427
*CONN
*I *984:FCAP3[3] I *D CF_ADC_DSM20
*I *988:analog_ctrl[154] O *D soc_sys
*CAP
1 *984:FCAP3[3] 0.000996275
2 *988:analog_ctrl[154] 1.76265e-05
3 *731:22 0.00809934
4 *731:20 0.00710306
5 *731:18 0.011082
6 *731:16 0.0111363
7 *731:10 0.0229853
8 *731:8 0.0229487
9 *984:FCAP3[3] *984:SUMCAPFB[2] 2.35371e-05
10 *984:FCAP3[3] *984:SUMCAP3[1] 0.000671897
11 *984:FCAP3[3] *984:SUMCAP2[2] 0.00105786
12 *984:FCAP3[3] *984:IPCAP3[2] 0.00263908
13 *984:FCAP3[3] *984:DACCAP[4] 2.60618e-05
14 *984:FCAP3[3] *984:DACCAP[2] 9.59682e-05
15 *984:FCAP3[3] *984:IPCAP1EN 0.000622396
16 *731:22 *984:SUMCAPFB[2] 9.17259e-05
17 *731:22 *741:22 0.0405427
18 *984:FCAP3[1] *984:FCAP3[3] 1.75432e-05
19 *984:FCAP2[2] *984:FCAP3[3] 0.0024273
20 *984:itrim_sum[5] *731:10 0.00562663
21 *111:13 *731:8 6.83077e-06
22 *700:6 *731:8 4.43752e-05
23 *708:22 *731:22 0.00125311
24 *729:22 *731:22 0.0445207
25 *730:10 *731:10 0
26 *730:16 *731:16 3.99991e-05
27 *730:18 *731:18 0.0273505
*RES
1 *988:analog_ctrl[154] *731:8 1.06713 
2 *731:8 *731:10 59.47 
3 *731:10 *731:16 1.1254 
4 *731:16 *731:18 314.775 
5 *731:18 *731:20 0.5 
6 *731:20 *731:22 66.2289 
7 *731:22 *984:FCAP3[3] 16.6906 
*END

*D_NET *732 0.191867
*CONN
*I *984:FCAP3EN I *D CF_ADC_DSM20
*I *988:analog_ctrl[155] O *D soc_sys
*CAP
1 *984:FCAP3EN 0.000188326
2 *988:analog_ctrl[155] 0.0128686
3 *732:13 0.0224474
4 *732:11 0.022259
5 *732:9 0.0113042
6 *732:7 0.0113042
7 *732:5 0.0128686
8 *984:FCAP3EN *984:RESCAP[1] 0.000132636
9 *732:9 *740:9 0.00614666
10 *732:9 *754:11 0.0228377
11 *732:9 *772:19 0.0295826
12 *732:9 *776:11 0.000523039
13 *732:9 *808:9 5.38299e-06
14 *732:13 *984:RESCAPEN 0.00381735
15 *732:13 *751:18 0
16 *732:13 *760:18 0.00939519
17 *732:13 *762:20 0
18 *39:9 *732:9 0.012442
19 *108:29 *732:9 0.00262127
20 *704:9 *732:9 0.0086855
21 *713:14 *984:FCAP3EN 4.00045e-05
22 *715:9 *732:9 0
23 *717:18 *732:13 0
24 *720:19 *732:9 0.000237321
25 *728:22 *732:9 0.00215969
*RES
1 *988:analog_ctrl[155] *732:5 219.352 
2 *732:5 *732:7 0.5 
3 *732:7 *732:9 73.6579 
4 *732:9 *732:11 0.5 
5 *732:11 *732:13 71.6148 
6 *732:13 *984:FCAP3EN 6.17963 
*END

*D_NET *733 0.217587
*CONN
*I *984:IPCAP1[0] I *D CF_ADC_DSM20
*I *988:analog_ctrl[156] O *D soc_sys
*CAP
1 *984:IPCAP1[0] 0.00156148
2 *988:analog_ctrl[156] 1.76265e-05
3 *733:14 0.0130114
4 *733:12 0.0114499
5 *733:10 0.0369235
6 *733:8 0.0369411
7 *984:IPCAP1[0] *984:IPCAP1[5] 0.00161477
8 *984:IPCAP1[0] *984:IPCAP1OFFSET 0.000245728
9 *984:IPCAP1[0] *984:SCANCLK 0.000234723
10 *984:IPCAP1[0] *796:13 0
11 *984:IPCAP1[0] *866:13 0.000206613
12 *733:10 *734:10 0
13 *733:14 *737:29 0.000239702
14 *733:14 *746:14 0.0435187
15 *984:refsel[2] *733:14 0.000128502
16 *984:FCAP1[3] *984:IPCAP1[0] 0.000552387
17 *984:FCAP1[1] *984:IPCAP1[0] 0.000984375
18 *984:FCAP1[0] *984:IPCAP1[0] 0.000886656
19 *984:itrim_2_3[3] *733:10 0.0172112
20 *111:13 *733:8 6.83077e-06
21 *697:26 *733:14 0.00113358
22 *700:6 *733:8 4.43752e-05
23 *713:14 *733:14 3.97175e-05
24 *714:14 *733:14 0.0489181
25 *716:45 *984:IPCAP1[0] 0.00171622
26 *716:45 *733:14 0
*RES
1 *988:analog_ctrl[156] *733:8 1.06713 
2 *733:8 *733:10 108.997 
3 *733:10 *733:12 0.5 
4 *733:12 *733:14 76.4839 
5 *733:14 *984:IPCAP1[0] 12.3965 
*END

*D_NET *734 0.191516
*CONN
*I *984:IPCAP1[1] I *D CF_ADC_DSM20
*I *988:analog_ctrl[157] O *D soc_sys
*CAP
1 *984:IPCAP1[1] 1.57589e-05
2 *988:analog_ctrl[157] 2.91092e-05
3 *734:22 0.00811181
4 *734:20 0.00809605
5 *734:18 0.0186889
6 *734:16 0.0190137
7 *734:10 0.0217072
8 *734:8 0.0214115
9 *734:10 *735:12 0.00282164
10 *734:22 *984:SUMCAP2_EN 0.00163758
11 *734:22 *736:22 0.0457975
12 *984:refsel[5] *734:22 0.000124299
13 *984:refsel[4] *734:22 8.64973e-05
14 *984:FCAP2[3] *734:22 0.000111354
15 *984:FCAP2[0] *734:22 0.000415229
16 *984:FCAP1[5] *734:22 1.19532e-05
17 *984:itrim_2_3[3] *734:10 0
18 *111:13 *734:8 1.37473e-05
19 *700:6 *734:8 8.28896e-05
20 *725:22 *734:22 0.0433396
21 *733:10 *734:10 0
*RES
1 *988:analog_ctrl[157] *734:8 1.1254 
2 *734:8 *734:10 59.2977 
3 *734:10 *734:16 1.76633 
4 *734:16 *734:18 324.465 
5 *734:18 *734:20 0.5 
6 *734:20 *734:22 70.585 
7 *734:22 *984:IPCAP1[1] 2.7325 
*END

*D_NET *735 0.190153
*CONN
*I *984:IPCAP1[2] I *D CF_ADC_DSM20
*I *988:analog_ctrl[158] O *D soc_sys
*CAP
1 *984:IPCAP1[2] 0.000383241
2 *988:analog_ctrl[158] 0.0187572
3 *735:58 0.00225572
4 *735:18 0.0164578
5 *735:16 0.0145853
6 *735:14 0.0171369
7 *735:12 0.0358942
8 *984:IPCAP1[2] *984:bw[0] 0.000113747
9 *984:IPCAP1[2] *984:SUMCAPIN[2] 2.70838e-05
10 *984:IPCAP1[2] *984:SUMCAP1[1] 0.00152415
11 *984:IPCAP1[2] *984:IPCAP1OFFSET 0.000395675
12 *735:18 *775:18 0.0275261
13 *735:58 *984:bw[0] 0.000147669
14 *735:58 *984:SUMCAPIN[4] 0.000114737
15 *735:58 *984:SUMCAPIN[3] 0.000230099
16 *735:58 *984:SUMCAP2[0] 0
17 *735:58 *984:SUMCAP1[1] 4.05085e-05
18 *735:58 *984:IPCAP1[4] 5.1985e-06
19 *735:58 *984:IPCAP1OFFSET 6.59038e-05
20 *984:refsel[9] *735:58 3.27181e-06
21 *984:refsel[8] *735:58 0.000459348
22 *984:refsel[7] *735:58 0
23 *984:FCAP2[1] *735:58 0.000208698
24 *984:FCAP1[6] *984:IPCAP1[2] 0.00020129
25 *984:FCAP1[6] *735:58 7.46446e-05
26 *984:FCAP2EN *984:IPCAP1[2] 0.000626022
27 *984:FCAP2EN *735:58 5.32588e-05
28 *984:FCAP1OFFSET *984:IPCAP1[2] 0.00181093
29 *111:13 *735:12 1.27594e-05
30 *700:6 *735:12 8.12705e-05
31 *703:18 *735:18 0.00482486
32 *717:14 *735:14 0.0429507
33 *721:22 *735:58 0.000363288
34 *734:10 *735:12 0.00282164
*RES
1 *988:analog_ctrl[158] *735:12 43.5242 
2 *735:12 *735:14 64.5683 
3 *735:14 *735:16 0.5 
4 *735:16 *735:18 403.897 
5 *735:18 *735:58 47.3525 
6 *735:58 *984:IPCAP1[2] 6.5477 
*END

*D_NET *736 0.191575
*CONN
*I *984:IPCAP1[3] I *D CF_ADC_DSM20
*I *988:analog_ctrl[159] O *D soc_sys
*CAP
1 *984:IPCAP1[3] 1.57589e-05
2 *988:analog_ctrl[159] 2.91092e-05
3 *736:22 0.00842394
4 *736:20 0.00840818
5 *736:18 0.0180354
6 *736:16 0.0181808
7 *736:10 0.0207354
8 *736:8 0.0206191
9 *736:10 *738:10 0
10 *736:22 *744:22 0.0419588
11 *984:refsel[5] *736:22 0.000521814
12 *984:FCAP3[1] *736:22 0.000241796
13 *984:FCAP1[5] *736:22 0.000139087
14 *984:itrim_1[0] *736:10 0.00837118
15 *111:13 *736:8 1.37473e-05
16 *700:6 *736:8 8.28896e-05
17 *734:22 *736:22 0.0457975
*RES
1 *988:analog_ctrl[159] *736:8 1.1254 
2 *736:8 *736:10 59.2977 
3 *736:10 *736:16 1.35847 
4 *736:16 *736:18 324.975 
5 *736:18 *736:20 0.5 
6 *736:20 *736:22 69.6021 
7 *736:22 *984:IPCAP1[3] 2.7325 
*END

*D_NET *737 0.320557
*CONN
*I *984:EN_DEM I *D CF_ADC_DSM20
*I *988:analog_ctrl[15] O *D soc_sys
*CAP
1 *984:EN_DEM 0.00120542
2 *988:analog_ctrl[15] 0.0353771
3 *737:29 0.00432018
4 *737:27 0.00319046
5 *737:17 0.00807004
6 *737:15 0.00807864
7 *737:9 0.0211036
8 *737:7 0.0210193
9 *737:5 0.0353771
10 *984:EN_DEM *759:13 0.00148524
11 *737:9 *827:13 0.0303843
12 *737:15 *827:13 0.000172556
13 *737:17 *827:17 0.0503762
14 *737:17 *827:21 0.00340605
15 *737:27 *827:33 0.000139048
16 *737:29 *984:DACCAP[5] 2.90206e-05
17 *737:29 *827:35 0.0102023
18 *984:refsel[2] *737:27 0.000137917
19 *984:refsel[2] *737:29 0.00122543
20 *984:FCAP1[4] *737:29 2.41228e-05
21 *984:VREFQ *737:9 0.00203331
22 *984:PBUF_INN *737:15 0.000132748
23 *19:19 *737:9 0
24 *40:23 *984:EN_DEM 0
25 *40:37 *737:17 0
26 *120:17 *737:5 0.0176455
27 *697:20 *737:9 2.35067e-05
28 *697:22 *737:17 0.0500438
29 *697:26 *737:17 0.0034079
30 *713:14 *737:17 0.00010204
31 *714:14 *737:17 0.0108693
32 *714:14 *737:29 0.000734959
33 *733:14 *737:29 0.000239702
*RES
1 *988:analog_ctrl[15] *737:5 641.633 
2 *737:5 *737:7 0.5 
3 *737:7 *737:9 70.3659 
4 *737:9 *737:15 5.2825 
5 *737:15 *737:17 518.295 
6 *737:17 *737:27 6.64 
7 *737:27 *737:29 93.945 
8 *737:29 *984:EN_DEM 11.4551 
*END

*D_NET *738 0.16753
*CONN
*I *984:IPCAP1[4] I *D CF_ADC_DSM20
*I *988:analog_ctrl[160] O *D soc_sys
*CAP
1 *984:IPCAP1[4] 0.00124368
2 *988:analog_ctrl[160] 1.76265e-05
3 *738:22 0.0145478
4 *738:20 0.0133041
5 *738:18 0.0169919
6 *738:16 0.0172787
7 *738:10 0.0186253
8 *738:8 0.0183561
9 *984:IPCAP1[4] *984:SUMCAPIN[4] 0.000339858
10 *984:IPCAP1[4] *984:SUMCAP2[2] 0
11 *984:IPCAP1[4] *984:IPCAP2[2] 3.92756e-05
12 *984:IPCAP1[4] *984:IPCAP1[6] 0.00116647
13 *984:IPCAP1[4] *784:34 0.000641241
14 *738:10 *739:10 0
15 *738:22 *984:IPCAP2[2] 0.000143637
16 *738:22 *745:14 0.00149519
17 *738:22 *778:38 0.00548686
18 *984:refsel[9] *984:IPCAP1[4] 5.8023e-05
19 *984:FCAP3[2] *984:IPCAP1[4] 0.00199317
20 *984:FCAP2[1] *984:IPCAP1[4] 4.7284e-05
21 *984:vpwrd_int *984:IPCAP1[4] 0.00235983
22 *984:iin *738:10 0.000630274
23 *984:itrim_1[0] *738:10 0.0121631
24 *111:13 *738:8 6.83077e-06
25 *700:6 *738:8 4.43752e-05
26 *716:45 *984:IPCAP1[4] 1.99296e-05
27 *730:22 *738:22 0.0405244
28 *735:58 *984:IPCAP1[4] 5.1985e-06
29 *736:10 *738:10 0
*RES
1 *988:analog_ctrl[160] *738:8 1.06713 
2 *738:8 *738:10 59.2977 
3 *738:10 *738:16 1.6498 
4 *738:16 *738:18 307.763 
5 *738:18 *738:20 2 
6 *738:20 *738:22 373.05 
7 *738:22 *984:IPCAP1[4] 14.1089 
*END

*D_NET *739 0.188864
*CONN
*I *984:IPCAP1[5] I *D CF_ADC_DSM20
*I *988:analog_ctrl[161] O *D soc_sys
*CAP
1 *984:IPCAP1[5] 0.00192625
2 *988:analog_ctrl[161] 1.76265e-05
3 *739:18 0.0144891
4 *739:16 0.0125628
5 *739:14 0.0196909
6 *739:12 0.0196909
7 *739:10 0.0220132
8 *739:8 0.0220308
9 *984:IPCAP1[5] *984:IPCAP1OFFSET 0.000199807
10 *984:IPCAP1[5] *984:IPCAP3EN 0.00224303
11 *984:IPCAP1[5] *751:18 8.42269e-05
12 *739:14 *751:14 0.0424233
13 *739:14 *762:14 0
14 *739:18 *984:ODET_TH[0] 4.61315e-05
15 *739:18 *751:18 0.0271964
16 *984:refsel[4] *984:IPCAP1[5] 0.00010716
17 *984:IPCAP1[0] *984:IPCAP1[5] 0.00161477
18 *984:FCAP1[3] *984:IPCAP1[5] 0.00177117
19 *984:FCAP1[2] *984:IPCAP1[5] 0.000604031
20 *984:FCAP1[1] *984:IPCAP1[5] 0.000101194
21 *111:13 *739:8 6.83077e-06
22 *700:6 *739:8 4.43752e-05
23 *738:10 *739:10 0
*RES
1 *988:analog_ctrl[161] *739:8 1.06713 
2 *739:8 *739:10 57.3167 
3 *739:10 *739:12 0.5 
4 *739:12 *739:14 71.1233 
5 *739:14 *739:16 0.5 
6 *739:16 *739:18 50.312 
7 *739:18 *984:IPCAP1[5] 12.407 
*END

*D_NET *740 0.192601
*CONN
*I *984:IPCAP1[6] I *D CF_ADC_DSM20
*I *988:analog_ctrl[162] O *D soc_sys
*CAP
1 *984:IPCAP1[6] 0.00221651
2 *988:analog_ctrl[162] 0.0129214
3 *740:13 0.0340038
4 *740:11 0.0317873
5 *740:9 0.00950457
6 *740:7 0.00950457
7 *740:5 0.0129214
8 *984:IPCAP1[6] *984:SUMCAPIN[4] 8.31907e-05
9 *984:IPCAP1[6] *984:IPCAP2[2] 0.00185001
10 *984:IPCAP1[6] *984:DACCAP[2] 9.88184e-05
11 *984:IPCAP1[6] *984:IPCAP1EN 0
12 *984:IPCAP1[6] *984:SUMCAPIN_EN 3.99991e-05
13 *984:IPCAP1[6] *758:13 0.000627297
14 *984:IPCAP1[6] *784:34 0.000484846
15 *740:9 *754:11 0.0228332
16 *740:9 *758:9 0.0332682
17 *740:13 *803:15 0
18 *984:FCAP3[2] *984:IPCAP1[6] 0.000767034
19 *984:FCAP3[0] *984:IPCAP1[6] 0.00079168
20 *984:FCAP2[1] *984:IPCAP1[6] 6.59209e-05
21 *984:IPCAP1[4] *984:IPCAP1[6] 0.00116647
22 *32:13 *740:9 0.00109089
23 *35:13 *740:9 0.000999895
24 *39:9 *740:9 0.0069428
25 *728:22 *740:9 0.00228275
26 *728:22 *740:13 0.000201772
27 *732:9 *740:9 0.00614666
*RES
1 *988:analog_ctrl[162] *740:5 220.372 
2 *740:5 *740:7 0.5 
3 *740:7 *740:9 61.0141 
4 *740:9 *740:11 0.5 
5 *740:11 *740:13 72.7345 
6 *740:13 *984:IPCAP1[6] 13.2271 
*END

*D_NET *741 0.182517
*CONN
*I *984:IPCAP1EN I *D CF_ADC_DSM20
*I *988:analog_ctrl[163] O *D soc_sys
*CAP
1 *984:IPCAP1EN 0.00102398
2 *988:analog_ctrl[163] 2.91092e-05
3 *741:22 0.00770917
4 *741:20 0.00668519
5 *741:18 0.0175175
6 *741:16 0.0176832
7 *741:10 0.0228206
8 *741:8 0.022684
9 *984:IPCAP1EN *984:SUMCAPIN[3] 4.86419e-05
10 *984:IPCAP1EN *984:SUMCAP3[1] 1.09137e-05
11 *984:IPCAP1EN *984:DACCAP[4] 0.00146832
12 *984:IPCAP1EN *984:DACCAP[2] 0.000170357
13 *741:10 *742:10 0
14 *741:22 *984:SUMCAPFB[2] 0.000460637
15 *741:22 *984:SUMCAP3[1] 0.000372616
16 *741:22 *984:IPCAP3[2] 4.27567e-05
17 *741:22 *750:22 0.0367606
18 *741:22 *821:25 0.000227313
19 *984:FCAP3[3] *984:IPCAP1EN 0.000622396
20 *984:FCAP3[1] *741:22 0.00243629
21 *984:IPCAP1[6] *984:IPCAP1EN 0
22 *984:FCAP1[6] *984:IPCAP1EN 0.000228351
23 *984:FCAP1[6] *741:22 0.00109499
24 *984:FCAP1[2] *984:IPCAP1EN 0
25 *984:FCAP1[0] *984:IPCAP1EN 0.00019112
26 *984:FCAP2EN *984:IPCAP1EN 3.907e-05
27 *984:FCAP1OFFSET *984:IPCAP1EN 1.12032e-05
28 *111:13 *741:8 1.37473e-05
29 *700:6 *741:8 8.28896e-05
30 *708:22 *741:22 0.0015395
31 *731:22 *741:22 0.0405427
*RES
1 *988:analog_ctrl[163] *741:8 1.1254 
2 *741:8 *741:10 59.2116 
3 *741:10 *741:16 1.41673 
4 *741:16 *741:18 316.815 
5 *741:18 *741:20 0.5 
6 *741:20 *741:22 63.5487 
7 *741:22 *984:IPCAP1EN 16.7491 
*END

*D_NET *742 0.190449
*CONN
*I *984:IPCAP1OFFSET I *D CF_ADC_DSM20
*I *988:analog_ctrl[164] O *D soc_sys
*CAP
1 *984:IPCAP1OFFSET 0.00104266
2 *988:analog_ctrl[164] 1.76265e-05
3 *742:22 0.0128927
4 *742:20 0.01185
5 *742:18 0.0110615
6 *742:16 0.0113
7 *742:10 0.0229449
8 *742:8 0.022724
9 *984:IPCAP1OFFSET *984:bw[0] 4.95896e-05
10 *984:IPCAP1OFFSET *984:SUMCAPIN[3] 0
11 *984:IPCAP1OFFSET *984:SUMCAPIN[2] 0.000204148
12 *984:IPCAP1OFFSET *984:SUMCAP1[1] 0.00107222
13 *984:IPCAP1OFFSET *984:DACCAPEN 0.000742183
14 *742:10 *743:10 0
15 *742:16 *743:16 4.21127e-05
16 *742:18 *743:18 0.0283657
17 *742:22 *752:22 0.0360322
18 *742:22 *786:25 0.00693617
19 *742:22 *821:25 0.000403985
20 *742:22 *823:25 1.33293e-05
21 *742:22 *825:25 0
22 *984:refsel[8] *984:IPCAP1OFFSET 4.91032e-05
23 *984:refsel[7] *984:IPCAP1OFFSET 0.000521548
24 *984:refsel[4] *984:IPCAP1OFFSET 9.04878e-05
25 *984:FCAP3[1] *984:IPCAP1OFFSET 6.52783e-05
26 *984:IPCAP1[5] *984:IPCAP1OFFSET 0.000199807
27 *984:IPCAP1[2] *984:IPCAP1OFFSET 0.000395675
28 *984:IPCAP1[0] *984:IPCAP1OFFSET 0.000245728
29 *984:FCAP1[6] *984:IPCAP1OFFSET 0.000573247
30 *984:FCAP1[1] *984:IPCAP1OFFSET 0.000171912
31 *984:FCAP2EN *984:IPCAP1OFFSET 3.2281e-05
32 *984:FCAP1OFFSET *984:IPCAP1OFFSET 0.00194456
33 *111:13 *742:8 6.83077e-06
34 *700:6 *742:8 4.43752e-05
35 *706:22 *742:22 0.000448936
36 *708:22 *742:22 0.0160443
37 *721:22 *984:IPCAP1OFFSET 0.00111022
38 *721:22 *742:22 0.000743593
39 *735:58 *984:IPCAP1OFFSET 6.59038e-05
40 *741:10 *742:10 0
*RES
1 *988:analog_ctrl[164] *742:8 1.06713 
2 *742:8 *742:10 59.2977 
3 *742:10 *742:16 1.6498 
4 *742:16 *742:18 318.217 
5 *742:18 *742:20 2 
6 *742:20 *742:22 358.56 
7 *742:22 *984:IPCAP1OFFSET 19.3969 
*END

*D_NET *743 0.166188
*CONN
*I *984:IPCAP2[0] I *D CF_ADC_DSM20
*I *988:analog_ctrl[165] O *D soc_sys
*CAP
1 *984:IPCAP2[0] 1.57589e-05
2 *988:analog_ctrl[165] 1.76265e-05
3 *743:22 0.0163557
4 *743:20 0.01634
5 *743:18 0.0117569
6 *743:16 0.0118109
7 *743:10 0.0227197
8 *743:8 0.0226834
9 *743:10 *744:10 0
10 *743:22 *984:SUMCAP3[0] 0.00290453
11 *743:22 *984:SUMCAP1_EN 0.00142685
12 *743:22 *984:IPCAP2[1] 0.00027067
13 *743:22 *984:DACCAP[0] 0.000225547
14 *743:22 *744:22 0
15 *743:22 *767:28 0.0027934
16 *743:22 *780:30 0.0259211
17 *984:refsel[10] *743:22 0.00248681
18 *111:13 *743:8 6.83077e-06
19 *700:6 *743:8 4.43752e-05
20 *742:10 *743:10 0
21 *742:16 *743:16 4.21127e-05
22 *742:18 *743:18 0.0283657
*RES
1 *988:analog_ctrl[165] *743:8 1.06713 
2 *743:8 *743:10 59.2116 
3 *743:10 *743:16 1.1254 
4 *743:16 *743:18 329.565 
5 *743:18 *743:20 0.5 
6 *743:20 *743:22 65.0712 
7 *743:22 *984:IPCAP2[0] 2.7325 
*END

*D_NET *744 0.175226
*CONN
*I *984:IPCAP2[1] I *D CF_ADC_DSM20
*I *988:analog_ctrl[166] O *D soc_sys
*CAP
1 *984:IPCAP2[1] 0.000343837
2 *988:analog_ctrl[166] 1.76265e-05
3 *744:22 0.00946278
4 *744:20 0.00911894
5 *744:18 0.0181066
6 *744:16 0.0182317
7 *744:10 0.0227957
8 *744:8 0.0226881
9 *984:IPCAP2[1] *984:SUMCAP2[1] 6.26243e-06
10 *984:IPCAP2[1] *984:SUMCAP2[0] 9.00644e-06
11 *984:IPCAP2[1] *984:SUMCAP1_EN 1.5498e-05
12 *744:10 *745:10 0
13 *744:22 *984:SUMCAPFB[0] 0.00207179
14 *744:22 *984:SUMCAP2[1] 0.000789544
15 *744:22 *984:SUMCAP2[0] 5.92924e-05
16 *744:22 *767:28 0.000104461
17 *744:22 *769:28 0.0289963
18 *984:refsel[11] *744:22 4.5674e-05
19 *984:FCAP3[1] *984:IPCAP2[1] 5.22517e-05
20 *984:FCAP1[5] *744:22 3.00036e-05
21 *111:13 *744:8 6.83077e-06
22 *700:6 *744:8 4.43752e-05
23 *736:22 *744:22 0.0419588
24 *743:10 *744:10 0
25 *743:22 *984:IPCAP2[1] 0.00027067
26 *743:22 *744:22 0
*RES
1 *988:analog_ctrl[166] *744:8 1.06713 
2 *744:8 *744:10 59.2116 
3 *744:10 *744:16 1.3002 
4 *744:16 *744:18 325.995 
5 *744:18 *744:20 0.5 
6 *744:20 *744:22 63.7817 
7 *744:22 *984:IPCAP2[1] 8.3165 
*END

*D_NET *745 0.171193
*CONN
*I *984:IPCAP2[2] I *D CF_ADC_DSM20
*I *988:analog_ctrl[167] O *D soc_sys
*CAP
1 *984:IPCAP2[2] 0.00192332
2 *988:analog_ctrl[167] 2.91092e-05
3 *745:14 0.0131732
4 *745:12 0.0112499
5 *745:10 0.0420897
6 *745:8 0.0421189
7 *984:IPCAP2[2] *984:SUMCAP2[2] 3.92756e-05
8 *984:IPCAP2[2] *984:IPCAP3[1] 8.88511e-05
9 *984:IPCAP2[2] *984:DACCAP[2] 0.00051224
10 *984:IPCAP2[2] *778:38 7.18359e-05
11 *984:IPCAP2[2] *784:34 3.99991e-05
12 *745:10 *746:10 0
13 *745:14 *984:DACCAP[2] 0.0119331
14 *745:14 *749:14 0.0364554
15 *745:14 *774:32 4.21127e-05
16 *745:14 *778:38 0.00500151
17 *984:refsel[9] *984:IPCAP2[2] 0.00166091
18 *984:FCAP3[2] *984:IPCAP2[2] 0.000347594
19 *984:FCAP3[0] *984:IPCAP2[2] 0.000172909
20 *984:IPCAP1[6] *984:IPCAP2[2] 0.00185001
21 *984:IPCAP1[4] *984:IPCAP2[2] 3.92756e-05
22 *111:13 *745:8 1.37473e-05
23 *700:6 *745:8 8.28896e-05
24 *705:22 *984:IPCAP2[2] 0.000303125
25 *718:22 *745:14 0
26 *723:22 *984:IPCAP2[2] 0.000164324
27 *730:22 *984:IPCAP2[2] 0.000150618
28 *738:22 *984:IPCAP2[2] 0.000143637
29 *738:22 *745:14 0.00149519
30 *744:10 *745:10 0
*RES
1 *988:analog_ctrl[167] *745:8 1.1254 
2 *745:8 *745:10 111.495 
3 *745:10 *745:12 0.5 
4 *745:12 *745:14 57.6346 
5 *745:14 *984:IPCAP2[2] 12.1872 
*END

*D_NET *746 0.191699
*CONN
*I *984:IPCAP2EN I *D CF_ADC_DSM20
*I *988:analog_ctrl[168] O *D soc_sys
*CAP
1 *984:IPCAP2EN 0.000845741
2 *988:analog_ctrl[168] 1.76265e-05
3 *746:14 0.00999411
4 *746:12 0.00914837
5 *746:10 0.0411429
6 *746:8 0.0411606
7 *984:IPCAP2EN *984:IPCAP3EN 0.00327387
8 *746:10 *747:10 0
9 *746:14 *984:SUMCAP3_EN 3.63906e-05
10 *746:14 *984:SUMCAP1[0] 0.000326704
11 *746:14 *984:IPCAP3[0] 0.000919248
12 *746:14 *984:DACCAP[3] 0.000186249
13 *746:14 *984:RESCAPEN 5.48997e-05
14 *746:14 *984:RESCAP[2] 0.000109349
15 *746:14 *984:RESCAP[0] 4.21127e-05
16 *746:14 *747:14 0.00111908
17 *746:14 *753:14 0.0373149
18 *746:14 *783:26 9.25979e-05
19 *984:FCAP1[0] *984:IPCAP2EN 6.06913e-06
20 *984:FCAP1EN *984:IPCAP2EN 0.00213094
21 *984:FCAP1OFFSET *984:IPCAP2EN 0.000207405
22 *111:13 *746:8 6.83077e-06
23 *700:6 *746:8 4.43752e-05
24 *716:45 *746:14 0
25 *733:14 *746:14 0.0435187
26 *745:10 *746:10 0
*RES
1 *988:analog_ctrl[168] *746:8 1.06713 
2 *746:8 *746:10 109.083 
3 *746:10 *746:12 0.5 
4 *746:12 *746:14 66.6951 
5 *746:14 *984:IPCAP2EN 9.38183 
*END

*D_NET *747 0.158103
*CONN
*I *984:IPCAP3[0] I *D CF_ADC_DSM20
*I *988:analog_ctrl[169] O *D soc_sys
*CAP
1 *984:IPCAP3[0] 0.000571057
2 *988:analog_ctrl[169] 2.91092e-05
3 *747:14 0.0162919
4 *747:12 0.0157208
5 *747:10 0.0412369
6 *747:8 0.041266
7 *984:IPCAP3[0] *984:SUMCAP3_EN 0.00117414
8 *984:IPCAP3[0] *984:SUMCAP1[0] 0.000133963
9 *984:IPCAP3[0] *984:SUMCAP1[2] 0.000365513
10 *984:IPCAP3[0] *984:SUMCAPIN_EN 5.43636e-05
11 *984:IPCAP3[0] *753:14 2.72634e-05
12 *984:IPCAP3[0] *783:26 5.35057e-06
13 *747:10 *749:10 0
14 *747:14 *984:SUMCAP2[2] 1.42293e-05
15 *747:14 *984:SUMCAPIN_EN 3.57002e-05
16 *747:14 *753:14 0.0369938
17 *747:14 *784:34 0
18 *984:refsel[14] *984:IPCAP3[0] 9.00644e-06
19 *984:FCAP3[0] *747:14 0.000172807
20 *984:FCAP1EN *984:IPCAP3[0] 4.85836e-06
21 *984:vpwr_ext *747:14 0.00179964
22 *111:13 *747:8 1.37473e-05
23 *700:6 *747:8 8.28896e-05
24 *716:45 *984:IPCAP3[0] 6.21612e-05
25 *716:45 *747:14 0
26 *746:10 *747:10 0
27 *746:14 *984:IPCAP3[0] 0.000919248
28 *746:14 *747:14 0.00111908
*RES
1 *988:analog_ctrl[169] *747:8 1.1254 
2 *747:8 *747:10 109.255 
3 *747:10 *747:12 0.5 
4 *747:12 *747:14 59.8196 
5 *747:14 *984:IPCAP3[0] 7.7151 
*END

*D_NET *748 0.271345
*CONN
*I *984:EN_ADWA I *D CF_ADC_DSM20
*I *988:analog_ctrl[16] O *D soc_sys
*CAP
1 *984:EN_ADWA 0.000336411
2 *988:analog_ctrl[16] 0.0102551
3 *748:13 0.0133243
4 *748:11 0.0129879
5 *748:9 0.0750739
6 *748:7 0.0750739
7 *748:5 0.0102551
8 *984:EN_ADWA *984:SCANMODE 9.53648e-05
9 *984:EN_ADWA *984:SCANEN 0
10 *748:9 *793:9 0
11 *748:9 *823:9 0
12 *748:9 *873:9 0
13 *748:13 *984:SCANMODE 0.000264011
14 *748:13 *794:13 0.0284878
15 *748:13 *829:13 0.0451911
*RES
1 *988:analog_ctrl[16] *748:5 178.042 
2 *748:5 *748:7 0.5 
3 *748:7 *748:9 181.743 
4 *748:9 *748:11 0.5 
5 *748:11 *748:13 82.726 
6 *748:13 *984:EN_ADWA 4.19137 
*END

*D_NET *749 0.182128
*CONN
*I *984:IPCAP3[1] I *D CF_ADC_DSM20
*I *988:analog_ctrl[170] O *D soc_sys
*CAP
1 *984:IPCAP3[1] 0.00124099
2 *988:analog_ctrl[170] 1.76265e-05
3 *749:14 0.00883689
4 *749:12 0.0075959
5 *749:10 0.0422007
6 *749:8 0.0422183
7 *984:IPCAP3[1] *984:SUMCAPIN[4] 4.30369e-05
8 *984:IPCAP3[1] *984:DACCAP[4] 3.84686e-05
9 *984:IPCAP3[1] *984:DACCAP[2] 0.00249942
10 *984:IPCAP3[1] *768:26 0.00033407
11 *749:10 *750:10 0
12 *749:14 *984:DACCAP[2] 1.74774e-05
13 *749:14 *756:14 0.0335521
14 *984:refsel[9] *984:IPCAP3[1] 3.97175e-05
15 *984:IPCAP2[2] *984:IPCAP3[1] 8.88511e-05
16 *984:FCAP3[0] *984:IPCAP3[1] 0.00106784
17 *984:FCAP2[1] *984:IPCAP3[1] 0.00188684
18 *13:15 *749:10 0.00394278
19 *111:13 *749:8 6.83077e-06
20 *700:6 *749:8 4.43752e-05
21 *718:22 *749:14 0
22 *745:14 *749:14 0.0364554
23 *747:10 *749:10 0
*RES
1 *988:analog_ctrl[170] *749:8 1.06713 
2 *749:8 *749:10 111.581 
3 *749:10 *749:12 0.5 
4 *749:12 *749:14 55.8575 
5 *749:14 *984:IPCAP3[1] 9.00377 
*END

*D_NET *750 0.169629
*CONN
*I *984:IPCAP3[2] I *D CF_ADC_DSM20
*I *988:analog_ctrl[171] O *D soc_sys
*CAP
1 *984:IPCAP3[2] 0.00103753
2 *988:analog_ctrl[171] 2.91092e-05
3 *750:22 0.00781221
4 *750:20 0.00677468
5 *750:18 0.0182621
6 *750:16 0.0185058
7 *750:10 0.024334
8 *750:8 0.0241194
9 *984:IPCAP3[2] *984:SUMCAPIN[3] 0.00112485
10 *984:IPCAP3[2] *984:SUMCAPFB[2] 0.000408816
11 *984:IPCAP3[2] *984:SUMCAP2[2] 0.00158789
12 *984:IPCAP3[2] *984:DACCAP[2] 0.00133285
13 *750:22 *821:25 0.00311727
14 *984:FCAP3[3] *984:IPCAP3[2] 0.00263908
15 *984:FCAP3[1] *984:IPCAP3[2] 0.000174739
16 *984:FCAP2[2] *984:IPCAP3[2] 1.61904e-05
17 *111:13 *750:8 1.37473e-05
18 *700:6 *750:8 8.28896e-05
19 *708:22 *984:IPCAP3[2] 0.000277364
20 *708:22 *750:22 0.0211754
21 *741:22 *984:IPCAP3[2] 4.27567e-05
22 *741:22 *750:22 0.0367606
23 *749:10 *750:10 0
*RES
1 *988:analog_ctrl[171] *750:8 1.1254 
2 *750:8 *750:10 59.2116 
3 *750:10 *750:16 1.53327 
4 *750:16 *750:18 317.325 
5 *750:18 *750:20 0.5 
6 *750:20 *750:22 54.5465 
7 *750:22 *984:IPCAP3[2] 12.9826 
*END

*D_NET *751 0.215798
*CONN
*I *984:IPCAP3EN I *D CF_ADC_DSM20
*I *988:analog_ctrl[172] O *D soc_sys
*CAP
1 *984:IPCAP3EN 0.00113686
2 *988:analog_ctrl[172] 9.12385e-05
3 *751:18 0.0143103
4 *751:16 0.0131735
5 *751:14 0.00862679
6 *751:12 0.00862679
7 *751:10 0.0256673
8 *751:8 0.0257586
9 *751:10 *752:10 0.00389705
10 *751:14 *760:14 0.037805
11 *984:IPCAP1[5] *984:IPCAP3EN 0.00224303
12 *984:IPCAP1[5] *751:18 8.42269e-05
13 *984:FCAP1[1] *984:IPCAP3EN 0.00124018
14 *984:IPCAP2EN *984:IPCAP3EN 0.00327387
15 *984:FCAP1OFFSET *984:IPCAP3EN 2.19736e-05
16 *111:13 *751:8 3.05452e-05
17 *700:6 *751:8 0.000190927
18 *732:13 *751:18 0
19 *739:14 *751:14 0.0424233
20 *739:18 *751:18 0.0271964
*RES
1 *988:analog_ctrl[172] *751:8 1.3002 
2 *751:8 *751:10 57.4028 
3 *751:10 *751:12 0.5 
4 *751:12 *751:14 63.6652 
5 *751:14 *751:16 0.5 
6 *751:16 *751:18 51.6319 
7 *751:18 *984:IPCAP3EN 9.6127 
*END

*D_NET *752 0.174735
*CONN
*I *984:DACCAP[0] I *D CF_ADC_DSM20
*I *988:analog_ctrl[173] O *D soc_sys
*CAP
1 *984:DACCAP[0] 0.00108734
2 *988:analog_ctrl[173] 2.91092e-05
3 *752:22 0.00602541
4 *752:20 0.00493807
5 *752:18 0.0176945
6 *752:16 0.0177588
7 *752:10 0.0209559
8 *752:8 0.0209207
9 *984:DACCAP[0] *984:bw[1] 0.000149804
10 *984:DACCAP[0] *984:bw[2] 5.20243e-05
11 *984:DACCAP[0] *984:SUMCAPIN[2] 3.14571e-05
12 *984:DACCAP[0] *984:SUMCAPFB[0] 0
13 *984:DACCAP[0] *984:SUMCAP3[2] 0.00261637
14 *984:DACCAP[0] *984:SUMCAP2[1] 5.0672e-05
15 *984:DACCAP[0] *984:SUMCAP2[0] 0
16 *984:DACCAP[0] *984:SUMCAP1_EN 0.000653828
17 *984:DACCAP[0] *984:SUMCAP1[1] 0.000137442
18 *984:DACCAP[0] *780:30 4.55864e-06
19 *752:10 *753:10 0
20 *752:22 *773:22 0.0277373
21 *752:22 *777:22 8.43862e-05
22 *752:22 *823:25 5.36281e-05
23 *984:refsel[12] *984:DACCAP[0] 7.28594e-05
24 *984:refsel[11] *984:DACCAP[0] 2.67006e-05
25 *984:refsel[10] *984:DACCAP[0] 0.00218013
26 *984:refsel[6] *984:DACCAP[0] 8.41015e-06
27 *984:refsel[5] *984:DACCAP[0] 4.163e-05
28 *984:FCAP1[5] *984:DACCAP[0] 0.000633337
29 *111:13 *752:8 1.37473e-05
30 *700:6 *752:8 8.28896e-05
31 *706:22 *752:22 0.0027085
32 *721:22 *752:22 0.00783034
33 *742:22 *752:22 0.0360322
34 *743:22 *984:DACCAP[0] 0.000225547
35 *751:10 *752:10 0.00389705
*RES
1 *988:analog_ctrl[173] *752:8 1.1254 
2 *752:8 *752:10 59.2116 
3 *752:10 *752:16 1.1254 
4 *752:16 *752:18 318.983 
5 *752:18 *752:20 2 
6 *752:20 *752:22 326.13 
7 *752:22 *984:DACCAP[0] 20.87 
*END

*D_NET *753 0.176516
*CONN
*I *984:DACCAP[1] I *D CF_ADC_DSM20
*I *988:analog_ctrl[174] O *D soc_sys
*CAP
1 *984:DACCAP[1] 0.000815247
2 *988:analog_ctrl[174] 1.76265e-05
3 *753:14 0.00809028
4 *753:12 0.00727503
5 *753:10 0.0412257
6 *753:8 0.0412433
7 *984:DACCAP[1] *984:DACCAP[5] 0.00181936
8 *984:DACCAP[1] *984:RESCAP[1] 9.40268e-05
9 *984:DACCAP[1] *783:26 5.7398e-06
10 *753:14 *984:SUMCAP3_EN 0.000270564
11 *984:refsel[15] *984:DACCAP[1] 8.14646e-05
12 *984:IPCAP3[0] *753:14 2.72634e-05
13 *984:FCAP1[4] *984:DACCAP[1] 0
14 *111:13 *753:8 6.83077e-06
15 *700:6 *753:8 4.43752e-05
16 *710:18 *984:DACCAP[1] 0.000111857
17 *713:14 *984:DACCAP[1] 0.0010788
18 *746:14 *753:14 0.0373149
19 *747:14 *753:14 0.0369938
20 *752:10 *753:10 0
*RES
1 *988:analog_ctrl[174] *753:8 1.06713 
2 *753:8 *753:10 109.169 
3 *753:10 *753:12 0.5 
4 *753:12 *753:14 57.1685 
5 *753:14 *984:DACCAP[1] 13.1938 
*END

*D_NET *754 0.193344
*CONN
*I *984:DACCAP[2] I *D CF_ADC_DSM20
*I *988:analog_ctrl[175] O *D soc_sys
*CAP
1 *984:DACCAP[2] 0.00412715
2 *988:analog_ctrl[175] 0.0124762
3 *754:13 0.0238975
4 *754:11 0.0240881
5 *754:5 0.0167939
6 *984:DACCAP[2] *984:DACCAP[4] 0.000274649
7 *984:DACCAP[2] *778:38 0.00649892
8 *984:refsel[9] *984:DACCAP[2] 0.00201175
9 *984:IPCAP3[1] *984:DACCAP[2] 0.00249942
10 *984:IPCAP3[2] *984:DACCAP[2] 0.00133285
11 *984:IPCAP2[2] *984:DACCAP[2] 0.00051224
12 *984:FCAP3[3] *984:DACCAP[2] 9.59682e-05
13 *984:FCAP2[2] *984:DACCAP[2] 0.00173992
14 *984:FCAP2[1] *984:DACCAP[2] 2.19736e-05
15 *984:IPCAP1[6] *984:DACCAP[2] 9.88184e-05
16 *984:IPCAP1EN *984:DACCAP[2] 0.000170357
17 *648:14 *754:13 0.0374163
18 *728:22 *754:11 0.00166665
19 *732:9 *754:11 0.0228377
20 *740:9 *754:11 0.0228332
21 *745:14 *984:DACCAP[2] 0.0119331
22 *749:14 *984:DACCAP[2] 1.74774e-05
*RES
1 *988:analog_ctrl[175] *754:5 219.863 
2 *754:5 *754:11 35.3862 
3 *754:11 *754:13 74.1988 
4 *754:13 *984:DACCAP[2] 30.3588 
*END

*D_NET *755 0.15668
*CONN
*I *984:DACCAP[3] I *D CF_ADC_DSM20
*I *988:analog_ctrl[176] O *D soc_sys
*CAP
1 *984:DACCAP[3] 0.000200351
2 *988:analog_ctrl[176] 0.00179939
3 *755:26 0.0350369
4 *755:24 0.0348365
5 *755:22 0.0147681
6 *755:20 0.0165675
7 *984:DACCAP[3] *984:SUMCAP1[0] 9.69386e-05
8 *755:20 *763:8 0.000766678
9 *755:26 *764:18 0.0278736
10 *984:FCAP1EN *984:DACCAP[3] 2.79856e-05
11 *988:adc_dout[2] *755:22 8.02886e-05
12 *988:adc_dout[5] *755:22 4.21127e-05
13 *988:adc_dout[6] *755:22 8.02886e-05
14 *988:adc_dout[7] *755:22 4.21127e-05
15 *988:adc_ov_one *755:22 4.21127e-05
16 *988:adc_scanout *755:22 8.02886e-05
17 *988:adc_test[0] *755:22 4.21127e-05
18 *988:adc_test[1] *755:22 0.000118807
19 *988:adc_test[2] *755:22 0.000228804
20 *988:adc_test[3] *755:22 8.02886e-05
21 *988:adc_test[4] *755:22 4.21127e-05
22 *988:adc_test[5] *755:22 4.21127e-05
23 *988:adc_test[7] *755:22 8.02886e-05
24 *111:13 *755:22 0.00576465
25 *671:10 *755:20 0.00173252
26 *671:10 *755:22 0
27 *700:6 *755:20 0.00431103
28 *700:6 *755:22 0.00812799
29 *700:12 *755:22 0.00358166
30 *746:14 *984:DACCAP[3] 0.000186249
*RES
1 *988:analog_ctrl[176] *755:20 11.5525 
2 *755:20 *755:22 49.5355 
3 *755:22 *755:24 0.5 
4 *755:24 *755:26 109.255 
5 *755:26 *984:DACCAP[3] 3.90257 
*END

*D_NET *756 0.173986
*CONN
*I *984:DACCAP[4] I *D CF_ADC_DSM20
*I *988:analog_ctrl[177] O *D soc_sys
*CAP
1 *984:DACCAP[4] 0.00150129
2 *988:analog_ctrl[177] 2.91092e-05
3 *756:14 0.00884475
4 *756:12 0.00734345
5 *756:10 0.0422506
6 *756:8 0.0422797
7 *984:DACCAP[4] *984:SUMCAPIN[4] 0.00075774
8 *984:DACCAP[4] *984:SUMCAP3[1] 0.00095961
9 *984:DACCAP[4] *758:13 5.39178e-05
10 *984:DACCAP[4] *768:26 0.000620664
11 *984:DACCAP[4] *778:38 0.0023473
12 *756:10 *757:10 0
13 *756:14 *768:26 0.028932
14 *756:14 *778:38 1.74774e-05
15 *984:refsel[9] *984:DACCAP[4] 0.000115465
16 *984:IPCAP3[1] *984:DACCAP[4] 3.84686e-05
17 *984:FCAP3[3] *984:DACCAP[4] 2.60618e-05
18 *984:FCAP3[0] *984:DACCAP[4] 0.000403737
19 *984:FCAP3[1] *984:DACCAP[4] 0.00134334
20 *984:FCAP2[1] *984:DACCAP[4] 0.000349351
21 *984:DACCAP[2] *984:DACCAP[4] 0.000274649
22 *984:FCAP1[6] *984:DACCAP[4] 0.000380303
23 *984:IPCAP1EN *984:DACCAP[4] 0.00146832
24 *111:13 *756:8 1.37473e-05
25 *700:6 *756:8 8.28896e-05
26 *718:22 *756:14 0
27 *749:14 *756:14 0.0335521
*RES
1 *988:analog_ctrl[177] *756:8 1.1254 
2 *756:8 *756:10 111.667 
3 *756:10 *756:12 0.5 
4 *756:12 *756:14 51.3127 
5 *756:14 *984:DACCAP[4] 11.8797 
*END

*D_NET *757 0.171123
*CONN
*I *984:DACCAP[5] I *D CF_ADC_DSM20
*I *988:analog_ctrl[178] O *D soc_sys
*CAP
1 *984:DACCAP[5] 0.000687647
2 *988:analog_ctrl[178] 1.76265e-05
3 *757:14 0.00684124
4 *757:12 0.0061536
5 *757:10 0.0409888
6 *757:8 0.0410064
7 *984:DACCAP[5] *984:RESCAP[1] 0.00191921
8 *757:14 *984:RESCAP[1] 0.000161376
9 *757:14 *761:14 0.0348295
10 *984:DACCAP[1] *984:DACCAP[5] 0.00181936
11 *111:13 *757:8 6.83077e-06
12 *700:6 *757:8 4.43752e-05
13 *713:14 *984:DACCAP[5] 3.22423e-05
14 *713:14 *757:14 0.0365862
15 *737:29 *984:DACCAP[5] 2.90206e-05
16 *756:10 *757:10 0
*RES
1 *988:analog_ctrl[178] *757:8 1.06713 
2 *757:8 *757:10 108.738 
3 *757:10 *757:12 0.5 
4 *757:12 *757:14 54.4591 
5 *757:14 *984:DACCAP[5] 9.7067 
*END

*D_NET *758 0.187817
*CONN
*I *984:DACCAPEN I *D CF_ADC_DSM20
*I *988:analog_ctrl[179] O *D soc_sys
*CAP
1 *984:DACCAPEN 0.000980754
2 *988:analog_ctrl[179] 0.0129614
3 *758:13 0.0235709
4 *758:11 0.0225902
5 *758:9 0.00746296
6 *758:7 0.00746296
7 *758:5 0.0129614
8 *758:9 *766:9 0.032462
9 *758:13 *776:13 0.0222052
10 *984:refsel[12] *984:DACCAPEN 0.000386789
11 *984:refsel[9] *984:DACCAPEN 1.86715e-05
12 *984:refsel[8] *984:DACCAPEN 0.00041648
13 *984:refsel[7] *984:DACCAPEN 5.64394e-05
14 *984:refsel[6] *984:DACCAPEN 0.000221232
15 *984:refsel[4] *984:DACCAPEN 0.000692306
16 *984:FCAP3[0] *758:13 0.000246225
17 *984:FCAP3[1] *984:DACCAPEN 0.000417621
18 *984:FCAP2[3] *984:DACCAPEN 0.00052367
19 *984:DACCAP[4] *758:13 5.39178e-05
20 *984:IPCAP1[6] *758:13 0.000627297
21 *984:IPCAP1OFFSET *984:DACCAPEN 0.000742183
22 *984:FCAP1OFFSET *984:DACCAPEN 4.55864e-06
23 *31:13 *758:9 0.00147311
24 *32:13 *758:9 0.000473219
25 *35:13 *758:9 0.000516281
26 *36:9 *758:9 0.00240323
27 *39:9 *758:9 0.0012282
28 *728:22 *758:9 0.00138987
29 *740:9 *758:9 0.0332682
*RES
1 *988:analog_ctrl[179] *758:5 220.883 
2 *758:5 *758:7 0.5 
3 *758:7 *758:9 53.3811 
4 *758:9 *758:11 0.5 
5 *758:11 *758:13 75.4908 
6 *758:13 *984:DACCAPEN 10.7959 
*END

*D_NET *759 0.311806
*CONN
*I *984:EN_DWA I *D CF_ADC_DSM20
*I *988:analog_ctrl[17] O *D soc_sys
*CAP
1 *984:EN_DWA 0.000146946
2 *988:analog_ctrl[17] 0.00590302
3 *759:27 0.00202415
4 *759:23 0.00256006
5 *759:13 0.0272257
6 *759:11 0.0265428
7 *759:9 0.050269
8 *759:7 0.050269
9 *759:5 0.00590302
10 *984:EN_DWA *984:SCANINPUT 0.000151875
11 *759:9 *809:9 0
12 *759:9 *810:9 0
13 *759:9 *829:9 0.0962801
14 *759:9 *866:9 0
15 *759:13 *799:13 0.0347722
16 *759:27 *984:SCANINPUT 0.00139735
17 *759:27 *984:reset_b 0.00233448
18 *984:EN_DEM *759:13 0.00148524
19 *40:13 *759:13 0.000216599
20 *72:14 *759:5 0.00432414
21 *676:11 *759:9 0
*RES
1 *988:analog_ctrl[17] *759:5 105.622 
2 *759:5 *759:7 0.5 
3 *759:7 *759:9 173.061 
4 *759:9 *759:11 0.5 
5 *759:11 *759:13 94.0095 
6 *759:13 *759:23 14.5196 
7 *759:23 *759:27 49.8 
8 *759:27 *984:EN_DWA 7.5025 
*END

*D_NET *760 0.184704
*CONN
*I *984:RESCAP[0] I *D CF_ADC_DSM20
*I *988:analog_ctrl[180] O *D soc_sys
*CAP
1 *984:RESCAP[0] 3.38348e-05
2 *988:analog_ctrl[180] 0.000103903
3 *760:18 0.00954461
4 *760:16 0.00951077
5 *760:14 0.0074473
6 *760:12 0.0074473
7 *760:10 0.0159954
8 *760:8 0.0160993
9 *984:RESCAP[0] *984:RESCAPEN 1.91769e-05
10 *984:RESCAP[0] *984:RESCAP[1] 6.87777e-06
11 *760:10 *761:10 0.0177146
12 *760:14 *764:14 0.0353098
13 *760:18 *984:RESCAPEN 0.00230969
14 *760:18 *984:RESCAP[2] 0.00105499
15 *760:18 *762:20 0.0144477
16 *111:13 *760:8 6.35723e-05
17 *700:6 *760:8 0.00035249
18 *732:13 *760:18 0.00939519
19 *746:14 *984:RESCAP[0] 4.21127e-05
20 *751:14 *760:14 0.037805
*RES
1 *988:analog_ctrl[180] *760:8 1.53327 
2 *760:8 *760:10 57.4889 
3 *760:10 *760:12 0.5 
4 *760:12 *760:14 56.7897 
5 *760:14 *760:16 0.5 
6 *760:16 *760:18 51.718 
7 *760:18 *984:RESCAP[0] 3.29963 
*END

*D_NET *761 0.15775
*CONN
*I *984:RESCAP[1] I *D CF_ADC_DSM20
*I *988:analog_ctrl[181] O *D soc_sys
*CAP
1 *984:RESCAP[1] 0.0016879
2 *988:analog_ctrl[181] 2.91092e-05
3 *761:14 0.0146237
4 *761:12 0.0129358
5 *761:10 0.0348458
6 *761:8 0.0348749
7 *761:10 *762:10 0
8 *984:DACCAP[5] *984:RESCAP[1] 0.00191921
9 *984:DACCAP[1] *984:RESCAP[1] 9.40268e-05
10 *984:FCAP1[4] *984:RESCAP[1] 1.45731e-05
11 *984:RESCAP[0] *984:RESCAP[1] 6.87777e-06
12 *984:FCAP3EN *984:RESCAP[1] 0.000132636
13 *40:25 *984:RESCAP[1] 0.00139166
14 *40:37 *761:14 0.00215442
15 *111:13 *761:8 1.37473e-05
16 *651:8 *984:RESCAP[1] 0
17 *651:8 *761:14 0
18 *700:6 *761:8 8.28896e-05
19 *713:14 *984:RESCAP[1] 0.000237007
20 *757:14 *984:RESCAP[1] 0.000161376
21 *757:14 *761:14 0.0348295
22 *760:10 *761:10 0.0177146
*RES
1 *988:analog_ctrl[181] *761:8 1.1254 
2 *761:8 *761:10 108.652 
3 *761:10 *761:12 0.5 
4 *761:12 *761:14 51.8371 
5 *761:14 *984:RESCAP[1] 12.2693 
*END

*D_NET *762 0.141667
*CONN
*I *984:RESCAP[2] I *D CF_ADC_DSM20
*I *988:analog_ctrl[182] O *D soc_sys
*CAP
1 *984:RESCAP[2] 0.00108904
2 *988:analog_ctrl[182] 1.76265e-05
3 *762:20 0.0092631
4 *762:14 0.0308481
5 *762:12 0.0226741
6 *762:10 0.0223652
7 *762:8 0.0223829
8 *984:RESCAP[2] *984:RESCAPEN 5.85282e-05
9 *111:13 *762:8 6.83077e-06
10 *700:6 *762:8 4.43752e-05
11 *716:45 *984:RESCAP[2] 0
12 *717:18 *984:RESCAP[2] 0.00253807
13 *717:18 *762:20 0.0147675
14 *732:13 *762:20 0
15 *739:14 *762:14 0
16 *746:14 *984:RESCAP[2] 0.000109349
17 *760:18 *984:RESCAP[2] 0.00105499
18 *760:18 *762:20 0.0144477
19 *761:10 *762:10 0
*RES
1 *988:analog_ctrl[182] *762:8 1.06713 
2 *762:8 *762:10 56.4553 
3 *762:10 *762:12 0.5 
4 *762:12 *762:14 55.7409 
5 *762:14 *762:20 48.3319 
6 *762:20 *984:RESCAP[2] 8.73743 
*END

*D_NET *763 0.136715
*CONN
*I *984:RESCAPEN I *D CF_ADC_DSM20
*I *988:analog_ctrl[183] O *D soc_sys
*CAP
1 *984:RESCAPEN 0.00134861
2 *988:analog_ctrl[183] 0.00015383
3 *763:14 0.0225972
4 *763:12 0.0212486
5 *763:10 0.0305927
6 *763:8 0.0307465
7 *763:10 *764:10 0.00390061
8 *763:10 *765:10 0.0182899
9 *763:14 *783:26 0
10 *984:RESCAP[2] *984:RESCAPEN 5.85282e-05
11 *984:RESCAP[0] *984:RESCAPEN 1.91769e-05
12 *700:6 *763:8 0.000764077
13 *716:45 *984:RESCAPEN 4.66009e-05
14 *732:13 *984:RESCAPEN 0.00381735
15 *746:14 *984:RESCAPEN 5.48997e-05
16 *755:20 *763:8 0.000766678
17 *760:18 *984:RESCAPEN 0.00230969
*RES
1 *988:analog_ctrl[183] *763:8 2.1742 
2 *763:8 *763:10 102.02 
3 *763:10 *763:12 0.5 
4 *763:12 *763:14 54.4591 
5 *763:14 *984:RESCAPEN 11.6707 
*END

*D_NET *764 0.178569
*CONN
*I *984:SUMCAP1[0] I *D CF_ADC_DSM20
*I *988:analog_ctrl[184] O *D soc_sys
*CAP
1 *984:SUMCAP1[0] 0.000109113
2 *988:analog_ctrl[184] 1.76265e-05
3 *764:18 0.0131691
4 *764:16 0.01306
5 *764:14 0.00819506
6 *764:12 0.00819506
7 *764:10 0.0203935
8 *764:8 0.0204111
9 *764:14 *775:16 0.0273253
10 *984:IPCAP3[0] *984:SUMCAP1[0] 0.000133963
11 *984:DACCAP[3] *984:SUMCAP1[0] 9.69386e-05
12 *984:FCAP1EN *984:SUMCAP1[0] 0
13 *111:13 *764:8 6.83077e-06
14 *700:6 *764:8 4.43752e-05
15 *717:18 *764:18 0
16 *746:14 *984:SUMCAP1[0] 0.000326704
17 *755:26 *764:18 0.0278736
18 *760:14 *764:14 0.0353098
19 *763:10 *764:10 0.00390061
*RES
1 *988:analog_ctrl[184] *764:8 1.06713 
2 *764:8 *764:10 57.5751 
3 *764:10 *764:12 0.5 
4 *764:12 *764:14 53.0607 
5 *764:14 *764:16 0.5 
6 *764:16 *764:18 51.6319 
7 *764:18 *984:SUMCAP1[0] 3.73663 
*END

*D_NET *765 0.152468
*CONN
*I *984:SUMCAP1[1] I *D CF_ADC_DSM20
*I *988:analog_ctrl[185] O *D soc_sys
*CAP
1 *984:SUMCAP1[1] 0.000899374
2 *988:analog_ctrl[185] 2.91092e-05
3 *765:28 0.00185599
4 *765:22 0.00857348
5 *765:20 0.00761686
6 *765:18 0.017815
7 *765:16 0.0179401
8 *765:10 0.0165416
9 *765:8 0.0164456
10 *984:SUMCAP1[1] *984:bw[0] 3.10119e-05
11 *984:SUMCAP1[1] *984:SUMCAPIN[3] 4.60123e-05
12 *984:SUMCAP1[1] *984:SUMCAPIN[2] 1.16534e-05
13 *984:SUMCAP1[1] *984:SUMCAP2[0] 0
14 *765:22 *825:25 0.00192909
15 *765:28 *823:25 7.76137e-05
16 *765:28 *825:25 0.00302572
17 *984:refsel[12] *984:SUMCAP1[1] 9.58332e-05
18 *984:refsel[8] *984:SUMCAP1[1] 0.000999345
19 *984:FCAP3[1] *984:SUMCAP1[1] 0.00128004
20 *984:DACCAP[0] *984:SUMCAP1[1] 0.000137442
21 *984:IPCAP1[2] *984:SUMCAP1[1] 0.00152415
22 *984:FCAP1[6] *984:SUMCAP1[1] 5.4558e-05
23 *984:IPCAP1OFFSET *984:SUMCAP1[1] 0.00107222
24 *984:FCAP2EN *984:SUMCAP1[1] 0.000846295
25 *111:13 *765:8 1.37473e-05
26 *700:6 *765:8 8.28896e-05
27 *702:22 *765:28 0.00116302
28 *706:22 *765:22 0.0257732
29 *706:22 *765:28 0.00290019
30 *721:22 *984:SUMCAP1[1] 9.01277e-05
31 *727:22 *984:SUMCAP1[1] 2.38557e-05
32 *727:22 *765:22 0.00524298
33 *735:58 *984:SUMCAP1[1] 4.05085e-05
34 *763:10 *765:10 0.0182899
*RES
1 *988:analog_ctrl[185] *765:8 1.1254 
2 *765:8 *765:10 59.2116 
3 *765:10 *765:16 1.3002 
4 *765:16 *765:18 320.258 
5 *765:18 *765:20 2 
6 *765:20 *765:22 233.152 
7 *765:22 *765:28 48.5225 
8 *765:28 *984:SUMCAP1[1] 20.6822 
*END

*D_NET *766 0.175215
*CONN
*I *984:SUMCAP1[2] I *D CF_ADC_DSM20
*I *988:analog_ctrl[186] O *D soc_sys
*CAP
1 *984:SUMCAP1[2] 0.000273627
2 *988:analog_ctrl[186] 0.0125799
3 *766:13 0.0129284
4 *766:11 0.0126548
5 *766:9 0.0134092
6 *766:7 0.0134092
7 *766:5 0.0125799
8 *984:SUMCAP1[2] *984:SUMCAP3_EN 0.000463113
9 *766:9 *808:17 0.0117793
10 *766:13 *776:13 0
11 *766:13 *783:26 1.47751e-05
12 *984:IPCAP3[0] *984:SUMCAP1[2] 0.000365513
13 *984:FCAP1EN *984:SUMCAP1[2] 0.000189686
14 *31:13 *766:9 0.000202825
15 *35:13 *766:9 0.000203796
16 *36:9 *766:9 0.000185907
17 *38:21 *766:9 0.00215759
18 *39:9 *766:9 0.000374282
19 *704:17 *766:9 0.00561514
20 *704:27 *766:9 0.000322818
21 *711:18 *766:13 0.0208041
22 *716:45 *984:SUMCAP1[2] 2.61066e-05
23 *720:21 *766:13 0.0222127
24 *758:9 *766:9 0.032462
*RES
1 *988:analog_ctrl[186] *766:5 221.393 
2 *766:5 *766:7 0.5 
3 *766:7 *766:9 50.1765 
4 *766:9 *766:11 0.5 
5 *766:11 *766:13 71.8732 
6 *766:13 *984:SUMCAP1[2] 4.54603 
*END

*D_NET *767 0.162594
*CONN
*I *984:SUMCAP1_EN I *D CF_ADC_DSM20
*I *988:analog_ctrl[187] O *D soc_sys
*CAP
1 *984:SUMCAP1_EN 0.00113284
2 *988:analog_ctrl[187] 3.55994e-05
3 *767:28 0.00851531
4 *767:18 0.0257209
5 *767:16 0.0186458
6 *767:10 0.0279701
7 *767:8 0.0276983
8 *984:SUMCAP1_EN *984:SUMCAPFB[3] 0.00110669
9 *767:10 *768:10 0
10 *767:18 *768:10 0.0129075
11 *767:28 *984:SUMCAP3[0] 4.16231e-05
12 *767:28 *769:28 0.00787472
13 *767:28 *780:30 0.0258463
14 *984:refsel[11] *984:SUMCAP1_EN 0
15 *984:refsel[10] *984:SUMCAP1_EN 1.00941e-05
16 *984:IPCAP2[1] *984:SUMCAP1_EN 1.5498e-05
17 *984:DACCAP[0] *984:SUMCAP1_EN 0.000653828
18 *111:13 *767:8 1.27594e-05
19 *700:6 *767:8 8.12747e-05
20 *743:22 *984:SUMCAP1_EN 0.00142685
21 *743:22 *767:28 0.0027934
22 *744:22 *767:28 0.000104461
*RES
1 *988:analog_ctrl[187] *767:8 1.1254 
2 *767:8 *767:10 59.2116 
3 *767:10 *767:16 1.76633 
4 *767:16 *767:18 328.545 
5 *767:18 *767:28 48.9008 
6 *767:28 *984:SUMCAP1_EN 30.3588 
*END

*D_NET *768 0.177467
*CONN
*I *984:SUMCAP2[0] I *D CF_ADC_DSM20
*I *988:analog_ctrl[188] O *D soc_sys
*CAP
1 *984:SUMCAP2[0] 0.00111091
2 *988:analog_ctrl[188] 1.76265e-05
3 *768:26 0.00752242
4 *768:10 0.0488646
5 *768:8 0.0424707
6 *984:SUMCAP2[0] *984:SUMCAPFB[0] 0.00266342
7 *984:SUMCAP2[0] *984:SUMCAP3[2] 0.00145725
8 *984:SUMCAP2[0] *984:SUMCAP2[1] 0.00151845
9 *768:10 *769:10 0
10 *768:26 *774:32 0.0258616
11 *768:26 *778:38 0.000124252
12 *984:refsel[12] *984:SUMCAP2[0] 4.2022e-05
13 *984:refsel[11] *984:SUMCAP2[0] 0.000336093
14 *984:refsel[8] *984:SUMCAP2[0] 6.11222e-05
15 *984:SUMCAP1[1] *984:SUMCAP2[0] 0
16 *984:IPCAP3[1] *768:26 0.00033407
17 *984:IPCAP2[1] *984:SUMCAP2[0] 9.00644e-06
18 *984:DACCAP[4] *768:26 0.000620664
19 *984:DACCAP[0] *984:SUMCAP2[0] 0
20 *984:FCAP1[5] *984:SUMCAP2[0] 0.00220599
21 *111:13 *768:8 6.83077e-06
22 *700:6 *768:8 4.43752e-05
23 *718:22 *768:26 0
24 *719:22 *768:26 0.000297305
25 *735:58 *984:SUMCAP2[0] 0
26 *744:22 *984:SUMCAP2[0] 5.92924e-05
27 *756:14 *768:26 0.028932
28 *767:10 *768:10 0
29 *767:18 *768:10 0.0129075
*RES
1 *988:analog_ctrl[188] *768:8 1.06713 
2 *768:8 *768:10 111.753 
3 *768:10 *768:26 48.9585 
4 *768:26 *984:SUMCAP2[0] 24.1694 
*END

*D_NET *769 0.140202
*CONN
*I *984:SUMCAP2[1] I *D CF_ADC_DSM20
*I *988:analog_ctrl[189] O *D soc_sys
*CAP
1 *984:SUMCAP2[1] 0.00121581
2 *988:analog_ctrl[189] 2.91092e-05
3 *769:28 0.00880457
4 *769:18 0.0258152
5 *769:16 0.0183719
6 *769:10 0.0229073
7 *769:8 0.022791
8 *984:SUMCAP2[1] *984:SUMCAPFB[3] 0
9 *984:SUMCAP2[1] *984:SUMCAPFB[0] 5.59282e-06
10 *984:SUMCAP2[1] *984:SUMCAP3[2] 0.000382746
11 *984:refsel[11] *984:SUMCAP2[1] 0.00052378
12 *984:refsel[11] *769:28 1.79483e-05
13 *984:refsel[5] *984:SUMCAP2[1] 0
14 *984:SUMCAP2[0] *984:SUMCAP2[1] 0.00151845
15 *984:IPCAP2[1] *984:SUMCAP2[1] 6.26243e-06
16 *984:DACCAP[0] *984:SUMCAP2[1] 5.0672e-05
17 *984:FCAP1[5] *984:SUMCAP2[1] 5.05716e-06
18 *111:13 *769:8 1.37473e-05
19 *700:6 *769:8 8.28896e-05
20 *700:32 *984:SUMCAP2[1] 0
21 *744:22 *984:SUMCAP2[1] 0.000789544
22 *744:22 *769:28 0.0289963
23 *767:28 *769:28 0.00787472
24 *768:10 *769:10 0
*RES
1 *988:analog_ctrl[189] *769:8 1.1254 
2 *769:8 *769:10 59.2116 
3 *769:10 *769:16 1.35847 
4 *769:16 *769:18 326.505 
5 *769:18 *769:28 47.2618 
6 *769:28 *984:SUMCAP2[1] 32.8919 
*END

*D_NET *770 0.221745
*CONN
*I *984:MODINPUT I *D CF_ADC_DSM20
*I *988:analog_ctrl[18] O *D soc_sys
*CAP
1 *984:MODINPUT 0.0111631
2 *988:analog_ctrl[18] 0.00646644
3 *770:13 0.0282009
4 *770:11 0.0170378
5 *770:9 0.0603916
6 *770:7 0.0603916
7 *770:5 0.00646644
8 *984:MODINPUT *984:FCHOP[1] 0.0001465
9 *984:MODINPUT *984:disable_mod 0.00206059
10 *984:MODINPUT *984:MODBIT 0.00158525
11 *984:MODINPUT *984:BUF_FCHOP[2] 0.000960348
12 *984:MODINPUT *984:BUF_FCHOP[1] 0.000580516
13 *984:MODINPUT *984:BUF_FCHOP[0] 0.0001465
14 *984:MODINPUT *984:FCHOP[2] 0.0001465
15 *984:MODINPUT *874:17 0.000327933
16 *984:MODINPUT *875:17 0.00177989
17 *770:9 *809:9 0
18 *770:13 *816:13 0.0178153
19 *112:14 *770:5 0.00256278
20 *540:37 *770:13 0
21 *646:20 *984:MODINPUT 0.00158672
22 *659:20 *984:MODINPUT 4.00099e-05
23 *669:12 *984:MODINPUT 0.00188833
24 *684:11 *770:9 0
*RES
1 *988:analog_ctrl[18] *770:5 115.823 
2 *770:5 *770:7 0.5 
3 *770:7 *770:9 145.268 
4 *770:9 *770:11 0.5 
5 *770:11 *770:13 60.9343 
6 *770:13 *984:MODINPUT 3.11657 
*END

*D_NET *771 0.162645
*CONN
*I *984:SUMCAP2[2] I *D CF_ADC_DSM20
*I *988:analog_ctrl[190] O *D soc_sys
*CAP
1 *984:SUMCAP2[2] 0.00156253
2 *988:analog_ctrl[190] 0.0127224
3 *771:21 0.0148308
4 *771:19 0.013333
5 *771:13 0.0115618
6 *771:5 0.0242194
7 *984:SUMCAP2[2] *984:SUMCAPIN[3] 2.27087e-05
8 *984:SUMCAP2[2] *984:SUMCAPIN[1] 0.000463773
9 *984:SUMCAP2[2] *984:SUMCAPFB[2] 0.000692671
10 *984:SUMCAP2[2] *984:SUMCAP3[1] 0.000199767
11 *984:SUMCAP2[2] *984:SUMCAP2_EN 0.000212157
12 *984:SUMCAP2[2] *784:34 0.000407118
13 *771:13 *772:19 0.00184609
14 *771:13 *776:11 0.0154969
15 *771:13 *803:9 0.0059899
16 *771:13 *808:9 0.00191053
17 *771:19 *772:19 4.21127e-05
18 *771:19 *844:9 3.81927e-05
19 *771:21 *772:21 0.0363208
20 *771:21 *785:20 0
21 *771:21 *785:22 0.00348337
22 *984:IPCAP3[2] *984:SUMCAP2[2] 0.00158789
23 *984:IPCAP2[2] *984:SUMCAP2[2] 3.92756e-05
24 *984:FCAP3[3] *984:SUMCAP2[2] 0.00105786
25 *984:FCAP3[2] *984:SUMCAP2[2] 0.000584975
26 *984:FCAP3[0] *984:SUMCAP2[2] 3.99991e-05
27 *984:IPCAP1[4] *984:SUMCAP2[2] 0
28 *37:25 *771:13 0.00343627
29 *715:9 *771:13 0
30 *716:9 *771:13 0.00332936
31 *716:19 *771:13 0.000439252
32 *720:9 *771:13 0.00485232
33 *728:22 *771:13 0.00190755
34 *747:14 *984:SUMCAP2[2] 1.42293e-05
*RES
1 *988:analog_ctrl[190] *771:5 217.312 
2 *771:5 *771:13 49.7046 
3 *771:13 *771:19 1.18367 
4 *771:19 *771:21 409.125 
5 *771:21 *984:SUMCAP2[2] 27.6549 
*END

*D_NET *772 0.177187
*CONN
*I *984:SUMCAP2_EN I *D CF_ADC_DSM20
*I *988:analog_ctrl[191] O *D soc_sys
*CAP
1 *984:SUMCAP2_EN 0.00141043
2 *988:analog_ctrl[191] 0.0124007
3 *772:21 0.0131135
4 *772:19 0.0182423
5 *772:5 0.01894
6 *984:SUMCAP2_EN *984:SUMCAPIN[4] 6.5449e-05
7 *984:SUMCAP2_EN *984:SUMCAPIN[1] 0.00100929
8 *984:SUMCAP2_EN *784:34 9.38065e-05
9 *772:19 *776:11 0.0278873
10 *772:19 *808:9 0.000849242
11 *772:19 *844:9 8.1472e-05
12 *772:21 *984:SUMCAPIN[1] 0.000145858
13 *772:21 *785:22 5.48962e-05
14 *984:refsel[13] *984:SUMCAP2_EN 0.000291807
15 *984:refsel[8] *984:SUMCAP2_EN 4.04634e-05
16 *984:refsel[6] *984:SUMCAP2_EN 2.77997e-05
17 *984:refsel[5] *984:SUMCAP2_EN 2.93836e-05
18 *984:SUMCAP2[2] *984:SUMCAP2_EN 0.000212157
19 *984:FCAP2[3] *984:SUMCAP2_EN 6.40561e-05
20 *984:FCAP2[0] *984:SUMCAP2_EN 0.00174386
21 *984:FCAP1[5] *984:SUMCAP2_EN 0.000456104
22 *19:44 *772:21 0
23 *20:23 *772:21 7.85736e-05
24 *20:34 *772:21 0.00851659
25 *704:15 *772:5 5.22517e-05
26 *728:22 *772:19 0.00195056
27 *732:9 *772:19 0.0295826
28 *734:22 *984:SUMCAP2_EN 0.00163758
29 *771:13 *772:19 0.00184609
30 *771:19 *772:19 4.21127e-05
31 *771:21 *772:21 0.0363208
*RES
1 *988:analog_ctrl[191] *772:5 218.842 
2 *772:5 *772:19 49.9611 
3 *772:19 *772:21 413.332 
4 *772:21 *984:SUMCAP2_EN 41.2052 
*END

*D_NET *773 0.156434
*CONN
*I *984:SUMCAP3[0] I *D CF_ADC_DSM20
*I *988:analog_ctrl[192] O *D soc_sys
*CAP
1 *984:SUMCAP3[0] 0.00135155
2 *988:analog_ctrl[192] 1.46343e-05
3 *773:22 0.00482282
4 *773:20 0.00347127
5 *773:18 0.0177568
6 *773:16 0.0178616
7 *773:10 0.0229719
8 *773:8 0.0228817
9 *984:SUMCAP3[0] *984:SUMCAP3[2] 2.88589e-05
10 *773:10 *774:10 0
11 *773:18 *774:32 0
12 *773:22 *777:22 0.0260208
13 *984:refsel[11] *984:SUMCAP3[0] 0.000389646
14 *984:refsel[10] *984:SUMCAP3[0] 0.000770614
15 *671:10 *773:8 1.21573e-05
16 *700:6 *773:8 4.21127e-05
17 *706:22 *773:22 0.000716479
18 *721:22 *773:22 0.00663776
19 *743:22 *984:SUMCAP3[0] 0.00290453
20 *752:22 *773:22 0.0277373
21 *767:28 *984:SUMCAP3[0] 4.16231e-05
*RES
1 *988:analog_ctrl[192] *773:8 1.06713 
2 *773:8 *773:10 59.3839 
3 *773:10 *773:16 1.24193 
4 *773:16 *773:18 319.237 
5 *773:18 *773:20 2 
6 *773:20 *773:22 250.92 
7 *773:22 *984:SUMCAP3[0] 20.4259 
*END

*D_NET *774 0.159701
*CONN
*I *984:SUMCAP3[1] I *D CF_ADC_DSM20
*I *988:analog_ctrl[193] O *D soc_sys
*CAP
1 *984:SUMCAP3[1] 0.000540896
2 *988:analog_ctrl[193] 2.46512e-05
3 *774:32 0.00891842
4 *774:10 0.0523992
5 *774:8 0.0440463
6 *984:SUMCAP3[1] *984:SUMCAPIN[3] 4.11124e-05
7 *984:SUMCAP3[1] *984:SUMCAPIN[1] 1.79536e-05
8 *984:SUMCAP3[1] *984:SUMCAPFB[2] 0.000654169
9 *774:32 *984:SUMCAPFB[2] 0.00582895
10 *774:32 *778:38 0.00180324
11 *774:32 *784:34 0.000127015
12 *774:32 *787:22 0.00939134
13 *984:refsel[8] *984:SUMCAP3[1] 0.000243002
14 *984:refsel[8] *774:32 0.000752778
15 *984:SUMCAP2[2] *984:SUMCAP3[1] 0.000199767
16 *984:FCAP3[3] *984:SUMCAP3[1] 0.000671897
17 *984:FCAP3[1] *984:SUMCAP3[1] 1.69574e-05
18 *984:FCAP2[2] *984:SUMCAP3[1] 0.000128502
19 *984:FCAP2[2] *774:32 4.69684e-06
20 *984:DACCAP[4] *984:SUMCAP3[1] 0.00095961
21 *984:FCAP1[5] *774:32 0.0006112
22 *984:IPCAP1EN *984:SUMCAP3[1] 1.09137e-05
23 *671:10 *774:8 2.27088e-05
24 *700:6 *774:8 8.02886e-05
25 *718:22 *774:32 0
26 *719:22 *774:32 0.00592859
27 *741:22 *984:SUMCAP3[1] 0.000372616
28 *745:14 *774:32 4.21127e-05
29 *768:26 *774:32 0.0258616
30 *773:10 *774:10 0
31 *773:18 *774:32 0
*RES
1 *988:analog_ctrl[193] *774:8 1.1254 
2 *774:8 *774:10 111.581 
3 *774:10 *774:32 49.4542 
4 *774:32 *984:SUMCAP3[1] 12.6005 
*END

*D_NET *775 0.181882
*CONN
*I *984:SUMCAP3[2] I *D CF_ADC_DSM20
*I *988:analog_ctrl[194] O *D soc_sys
*CAP
1 *984:SUMCAP3[2] 0.00151527
2 *988:analog_ctrl[194] 0.000102417
3 *775:18 0.00623854
4 *775:16 0.0156387
5 *775:10 0.0386432
6 *775:8 0.0278302
7 *984:SUMCAP3[2] *780:30 0.000222987
8 *775:10 *776:5 0.000279836
9 *775:10 *777:10 0
10 *984:refsel[11] *984:SUMCAP3[2] 0.000977472
11 *984:refsel[10] *984:SUMCAP3[2] 0.000715436
12 *984:refsel[8] *984:SUMCAP3[2] 0.000515269
13 *984:SUMCAP3[0] *984:SUMCAP3[2] 2.88589e-05
14 *984:SUMCAP2[1] *984:SUMCAP3[2] 0.000382746
15 *984:SUMCAP2[0] *984:SUMCAP3[2] 0.00145725
16 *984:DACCAP[0] *984:SUMCAP3[2] 0.00261637
17 *984:FCAP1[5] *984:SUMCAP3[2] 0.00198401
18 *671:10 *775:8 6.86145e-05
19 *700:6 *775:8 0.000265354
20 *703:18 *775:18 0.0275485
21 *735:18 *775:18 0.0275261
22 *764:14 *775:16 0.0273253
*RES
1 *988:analog_ctrl[194] *775:8 1.41673 
2 *775:8 *775:10 57.8335 
3 *775:10 *775:16 42.0869 
4 *775:16 *775:18 310.823 
5 *775:18 *984:SUMCAP3[2] 38.0783 
*END

*D_NET *776 0.150128
*CONN
*I *984:SUMCAP3_EN I *D CF_ADC_DSM20
*I *988:analog_ctrl[195] O *D soc_sys
*CAP
1 *984:SUMCAP3_EN 0.000301026
2 *988:analog_ctrl[195] 0.012379
3 *776:13 0.0203646
4 *776:11 0.0267928
5 *776:5 0.0191083
6 *984:SUMCAP3_EN *783:26 9.53594e-05
7 *776:5 *808:15 0
8 *776:13 *783:26 0
9 *984:SUMCAP1[2] *984:SUMCAP3_EN 0.000463113
10 *984:IPCAP3[0] *984:SUMCAP3_EN 0.00117414
11 *37:25 *776:11 0.000407627
12 *711:18 *776:13 0
13 *715:9 *776:11 0
14 *716:19 *776:11 0.000432647
15 *716:45 *984:SUMCAP3_EN 0
16 *720:9 *776:11 0.000221087
17 *728:22 *776:11 0.00168877
18 *732:9 *776:11 0.000523039
19 *746:14 *984:SUMCAP3_EN 3.63906e-05
20 *753:14 *984:SUMCAP3_EN 0.000270564
21 *758:13 *776:13 0.0222052
22 *766:13 *776:13 0
23 *771:13 *776:11 0.0154969
24 *772:19 *776:11 0.0278873
25 *775:10 *776:5 0.000279836
*RES
1 *988:analog_ctrl[195] *776:5 218.333 
2 *776:5 *776:11 44.3593 
3 *776:11 *776:13 72.3039 
4 *776:13 *984:SUMCAP3_EN 4.9957 
*END

*D_NET *777 0.153467
*CONN
*I *984:SUMCAPFB[0] I *D CF_ADC_DSM20
*I *988:analog_ctrl[196] O *D soc_sys
*CAP
1 *984:SUMCAPFB[0] 0.000622689
2 *988:analog_ctrl[196] 1.46343e-05
3 *777:22 0.00428816
4 *777:20 0.00366547
5 *777:18 0.0177849
6 *777:16 0.01791
7 *777:10 0.0230047
8 *777:8 0.0228942
9 *777:10 *778:10 0
10 *777:18 *778:10 0.00733097
11 *777:22 *823:25 0.00843101
12 *984:refsel[12] *984:SUMCAPFB[0] 0.0003009
13 *984:SUMCAP2[1] *984:SUMCAPFB[0] 5.59282e-06
14 *984:SUMCAP2[0] *984:SUMCAPFB[0] 0.00266342
15 *984:DACCAP[0] *984:SUMCAPFB[0] 0
16 *671:10 *777:8 1.21573e-05
17 *700:6 *777:8 4.21127e-05
18 *706:22 *777:22 0.0106071
19 *727:22 *777:22 0.00571232
20 *744:22 *984:SUMCAPFB[0] 0.00207179
21 *752:22 *777:22 8.43862e-05
22 *773:22 *777:22 0.0260208
23 *775:10 *777:10 0
*RES
1 *988:analog_ctrl[196] *777:8 1.06713 
2 *777:8 *777:10 59.3839 
3 *777:10 *777:16 1.3002 
4 *777:16 *777:18 319.492 
5 *777:18 *777:20 2 
6 *777:20 *777:22 236.775 
7 *777:22 *984:SUMCAPFB[0] 15.4964 
*END

*D_NET *778 0.171845
*CONN
*I *984:SUMCAPFB[1] I *D CF_ADC_DSM20
*I *988:analog_ctrl[197] O *D soc_sys
*CAP
1 *984:SUMCAPFB[1] 0
2 *988:analog_ctrl[197] 1.46343e-05
3 *778:38 0.0130557
4 *778:10 0.0598894
5 *778:8 0.0468484
6 *778:38 *784:34 0.000629145
7 *984:IPCAP2[2] *778:38 7.18359e-05
8 *984:FCAP3[0] *778:38 0.000106292
9 *984:FCAP2[2] *778:38 2.01848e-05
10 *984:DACCAP[4] *778:38 0.0023473
11 *984:DACCAP[2] *778:38 0.00649892
12 *671:10 *778:8 1.21573e-05
13 *700:6 *778:8 4.21127e-05
14 *705:22 *778:38 0.0110566
15 *723:22 *778:38 0.0059938
16 *730:22 *778:38 0.00549386
17 *738:22 *778:38 0.00548686
18 *745:14 *778:38 0.00500151
19 *756:14 *778:38 1.74774e-05
20 *768:26 *778:38 0.000124252
21 *774:32 *778:38 0.00180324
22 *777:10 *778:10 0
23 *777:18 *778:10 0.00733097
*RES
1 *988:analog_ctrl[197] *778:8 1.06713 
2 *778:8 *778:10 111.408 
3 *778:10 *778:38 49.0628 
4 *778:38 *984:SUMCAPFB[1] 2 
*END

*D_NET *779 0.153154
*CONN
*I *984:SUMCAPFB[2] I *D CF_ADC_DSM20
*I *988:analog_ctrl[198] O *D soc_sys
*CAP
1 *984:SUMCAPFB[2] 0.00695193
2 *988:analog_ctrl[198] 0.0182905
3 *779:26 0.0179372
4 *779:24 0.0111682
5 *779:18 0.00620545
6 *779:16 0.024313
7 *984:SUMCAPFB[2] *984:SUMCAPIN[3] 0.00112879
8 *779:16 *780:10 0
9 *779:16 *844:9 0.000434755
10 *779:18 *780:10 0.00405436
11 *779:26 *780:18 0.0280049
12 *984:SUMCAP3[1] *984:SUMCAPFB[2] 0.000654169
13 *984:SUMCAP2[2] *984:SUMCAPFB[2] 0.000692671
14 *984:IPCAP3[2] *984:SUMCAPFB[2] 0.000408816
15 *984:FCAP3[3] *984:SUMCAPFB[2] 2.35371e-05
16 *984:FCAP2[2] *984:SUMCAPFB[2] 9.63898e-05
17 *984:FCAP1[5] *984:SUMCAPFB[2] 0.000164547
18 *984:FCAP1[6] *984:SUMCAPFB[2] 0.00109221
19 *671:10 *779:16 3.32604e-05
20 *700:6 *779:16 0.000118803
21 *718:22 *984:SUMCAPFB[2] 0.0248382
22 *724:22 *984:SUMCAPFB[2] 0.000160648
23 *731:22 *984:SUMCAPFB[2] 9.17259e-05
24 *741:22 *984:SUMCAPFB[2] 0.000460637
25 *774:32 *984:SUMCAPFB[2] 0.00582895
*RES
1 *988:analog_ctrl[198] *779:16 43.3541 
2 *779:16 *779:18 108.353 
3 *779:18 *779:24 7.165 
4 *779:24 *779:26 314.647 
5 *779:26 *984:SUMCAPFB[2] 44.8286 
*END

*D_NET *780 0.164834
*CONN
*I *984:SUMCAPFB[3] I *D CF_ADC_DSM20
*I *988:analog_ctrl[199] O *D soc_sys
*CAP
1 *984:SUMCAPFB[3] 0.000401224
2 *988:analog_ctrl[199] 2.46512e-05
3 *780:30 0.00385647
4 *780:18 0.0153865
5 *780:16 0.0119755
6 *780:10 0.0221322
7 *780:8 0.0221126
8 *780:10 *783:10 0
9 *780:10 *875:13 0.0021031
10 *984:refsel[11] *984:SUMCAPFB[3] 0.000602583
11 *984:refsel[11] *780:30 5.57496e-05
12 *984:refsel[10] *984:SUMCAPFB[3] 0.000659022
13 *984:refsel[10] *780:30 0.00026015
14 *984:SUMCAP3[2] *780:30 0.000222987
15 *984:SUMCAP2[1] *984:SUMCAPFB[3] 0
16 *984:SUMCAP1_EN *984:SUMCAPFB[3] 0.00110669
17 *984:DACCAP[0] *780:30 4.55864e-06
18 *671:10 *780:8 2.27088e-05
19 *700:6 *780:8 8.02886e-05
20 *743:22 *780:30 0.0259211
21 *767:28 *780:30 0.0258463
22 *779:16 *780:10 0
23 *779:18 *780:10 0.00405436
24 *779:26 *780:18 0.0280049
*RES
1 *988:analog_ctrl[199] *780:8 1.1254 
2 *780:8 *780:10 59.3839 
3 *780:10 *780:16 1.06713 
4 *780:16 *780:18 329.055 
5 *780:18 *780:30 40.2711 
6 *780:30 *984:SUMCAPFB[3] 19.385 
*END

*D_NET *781 0.217996
*CONN
*I *984:MODBIT I *D CF_ADC_DSM20
*I *988:analog_ctrl[19] O *D soc_sys
*CAP
1 *984:MODBIT 0.00396471
2 *988:analog_ctrl[19] 0.00734009
3 *781:13 0.0287323
4 *781:11 0.0247676
5 *781:9 0.0541623
6 *781:7 0.0541623
7 *781:5 0.00734009
8 *984:MODBIT *875:17 0.0161601
9 *781:9 *795:9 0
10 *781:9 *801:9 0
11 *781:9 *806:9 0
12 *781:13 *806:13 0
13 *781:13 *825:19 0
14 *984:MODINPUT *984:MODBIT 0.00158525
15 *646:20 *984:MODBIT 0.00232934
16 *659:20 *984:MODBIT 0.00351038
17 *673:11 *781:9 0.0139421
*RES
1 *988:analog_ctrl[19] *781:5 131.633 
2 *781:5 *781:7 0.5 
3 *781:7 *781:9 137.751 
4 *781:9 *781:11 0.5 
5 *781:11 *781:13 58.3503 
6 *781:13 *984:MODBIT 25.3067 
*END

*D_NET *782 0.295576
*CONN
*I *986:enable_hv I *D CF_BUF_HIZ
*I *988:analog_ctrl[1] O *D soc_sys
*CAP
1 *986:enable_hv 0.00811821
2 *988:analog_ctrl[1] 0.00328944
3 *782:9 0.0993457
4 *782:7 0.0912275
5 *782:5 0.00328944
6 *986:enable_hv *986:disable_n 4.21127e-05
7 *986:enable_hv *986:disable_p 0.00351975
8 *986:enable_hv *986:gain[1] 0.00452927
9 *782:9 *800:9 0
10 *782:9 *821:9 0
11 *782:9 *874:9 0
12 *782:9 *877:9 0.0822148
*RES
1 *988:analog_ctrl[1] *782:5 59.2125 
2 *782:5 *782:7 0.5 
3 *782:7 *782:9 267.686 
4 *782:9 *986:enable_hv 32.4082 
*END

*D_NET *783 0.131926
*CONN
*I *984:SUMCAPFB_EN I *D CF_ADC_DSM20
*I *988:analog_ctrl[200] O *D soc_sys
*CAP
1 *984:SUMCAPFB_EN 0
2 *988:analog_ctrl[200] 1.46343e-05
3 *783:26 0.0179084
4 *783:10 0.05015
5 *783:8 0.0322562
6 *783:10 *784:10 0
7 *783:10 *875:13 0.0283475
8 *984:SUMCAP3_EN *783:26 9.53594e-05
9 *984:IPCAP3[0] *783:26 5.35057e-06
10 *984:DACCAP[1] *783:26 5.7398e-06
11 *671:10 *783:8 1.21573e-05
12 *700:6 *783:8 4.21127e-05
13 *710:18 *783:26 0.00106331
14 *711:18 *783:26 0.00191821
15 *746:14 *783:26 9.25979e-05
16 *763:14 *783:26 0
17 *766:13 *783:26 1.47751e-05
18 *776:13 *783:26 0
19 *780:10 *783:10 0
*RES
1 *988:analog_ctrl[200] *783:8 1.06713 
2 *783:8 *783:10 102.881 
3 *783:10 *783:26 49.5868 
4 *783:26 *984:SUMCAPFB_EN 2 
*END

*D_NET *784 0.151258
*CONN
*I *984:SUMCAPIN[0] I *D CF_ADC_DSM20
*I *988:analog_ctrl[201] O *D soc_sys
*CAP
1 *984:SUMCAPIN[0] 0
2 *988:analog_ctrl[201] 2.46512e-05
3 *784:34 0.00649141
4 *784:10 0.0405802
5 *784:8 0.0341134
6 *784:10 *785:10 0
7 *784:10 *877:13 0.0223443
8 *784:34 *984:SUMCAPIN[4] 0.000123776
9 *784:34 *984:SUMCAPIN[1] 0.000922118
10 *784:34 *984:SUMCAPIN_EN 0.022168
11 *984:refsel[8] *784:34 1.9488e-05
12 *984:SUMCAP2_EN *784:34 9.38065e-05
13 *984:SUMCAP2[2] *784:34 0.000407118
14 *984:IPCAP2[2] *784:34 3.99991e-05
15 *984:FCAP2[2] *784:34 6.09653e-05
16 *984:IPCAP1[6] *784:34 0.000484846
17 *984:IPCAP1[4] *784:34 0.000641241
18 *671:10 *784:8 2.27088e-05
19 *700:6 *784:8 8.02886e-05
20 *716:45 *784:34 0.0218839
21 *747:14 *784:34 0
22 *774:32 *784:34 0.000127015
23 *778:38 *784:34 0.000629145
24 *783:10 *784:10 0
*RES
1 *988:analog_ctrl[201] *784:8 1.1254 
2 *784:8 *784:10 110.03 
3 *784:10 *784:34 49.6878 
4 *784:34 *984:SUMCAPIN[0] 2 
*END

*D_NET *785 0.121613
*CONN
*I *984:SUMCAPIN[1] I *D CF_ADC_DSM20
*I *988:analog_ctrl[202] O *D soc_sys
*CAP
1 *984:SUMCAPIN[1] 0.000916653
2 *988:analog_ctrl[202] 1.46343e-05
3 *785:22 0.00364112
4 *785:20 0.0173608
5 *785:10 0.0409379
6 *785:8 0.0263161
7 *785:10 *812:13 0
8 *785:10 *877:13 0.0153968
9 *984:refsel[8] *984:SUMCAPIN[1] 6.00201e-05
10 *984:SUMCAP3[1] *984:SUMCAPIN[1] 1.79536e-05
11 *984:SUMCAP2_EN *984:SUMCAPIN[1] 0.00100929
12 *984:SUMCAP2[2] *984:SUMCAPIN[1] 0.000463773
13 *984:FCAP2[2] *984:SUMCAPIN[1] 0.00091811
14 *984:FCAP1[5] *984:SUMCAPIN[1] 2.52525e-06
15 *984:vpwr_ext *785:22 0.000139198
16 *20:17 *785:10 0.00975796
17 *671:10 *785:8 1.21573e-05
18 *700:6 *785:8 4.21127e-05
19 *771:21 *785:20 0
20 *771:21 *785:22 0.00348337
21 *772:21 *984:SUMCAPIN[1] 0.000145858
22 *772:21 *785:22 5.48962e-05
23 *784:10 *785:10 0
24 *784:34 *984:SUMCAPIN[1] 0.000922118
*RES
1 *988:analog_ctrl[202] *785:8 1.06713 
2 *785:8 *785:10 97.7132 
3 *785:10 *785:20 42.2947 
4 *785:20 *785:22 70.455 
5 *785:22 *984:SUMCAPIN[1] 29.3037 
*END

*D_NET *786 0.128378
*CONN
*I *984:SUMCAPIN[2] I *D CF_ADC_DSM20
*I *988:analog_ctrl[203] O *D soc_sys
*CAP
1 *984:SUMCAPIN[2] 0.000445514
2 *988:analog_ctrl[203] 0.00780475
3 *786:25 0.00163004
4 *786:23 0.00118452
5 *786:21 0.0250471
6 *786:19 0.0355668
7 *786:5 0.0183245
8 *984:SUMCAPIN[2] *984:bw[0] 0.00137169
9 *984:SUMCAPIN[2] *984:bw[1] 0.000260317
10 *786:19 *790:9 0
11 *786:19 *797:13 0.0030885
12 *786:19 *816:9 0.0164448
13 *786:19 *817:13 0.00360822
14 *786:19 *819:13 0.000163936
15 *786:19 *844:9 0.000587747
16 *786:25 *821:25 0.00289373
17 *984:refsel[7] *984:SUMCAPIN[2] 9.44275e-05
18 *984:SUMCAP1[1] *984:SUMCAPIN[2] 1.16534e-05
19 *984:DACCAP[0] *984:SUMCAPIN[2] 3.14571e-05
20 *984:IPCAP1[2] *984:SUMCAPIN[2] 2.70838e-05
21 *984:FCAP1[6] *984:SUMCAPIN[2] 7.13246e-06
22 *984:IPCAP1OFFSET *984:SUMCAPIN[2] 0.000204148
23 *984:FCAP1OFFSET *984:SUMCAPIN[2] 4.37156e-05
24 *702:22 *984:SUMCAPIN[2] 0.00109499
25 *708:22 *786:25 0.00146189
26 *727:22 *984:SUMCAPIN[2] 4.31143e-05
27 *742:22 *786:25 0.00693617
*RES
1 *988:analog_ctrl[203] *786:5 137.753 
2 *786:5 *786:19 44.6031 
3 *786:19 *786:21 430.163 
4 *786:21 *786:23 2 
5 *786:23 *786:25 62.895 
6 *786:25 *984:SUMCAPIN[2] 9.66553 
*END

*D_NET *787 0.14922
*CONN
*I *984:SUMCAPIN[3] I *D CF_ADC_DSM20
*I *988:analog_ctrl[204] O *D soc_sys
*CAP
1 *984:SUMCAPIN[3] 0.000633289
2 *988:analog_ctrl[204] 0.0113298
3 *787:22 0.00808966
4 *787:20 0.00745637
5 *787:18 0.0235726
6 *787:16 0.0349023
7 *787:16 *788:10 0
8 *787:16 *812:13 0.0186662
9 *787:16 *844:9 0.000281181
10 *787:18 *788:10 0.00895117
11 *984:SUMCAPFB[2] *984:SUMCAPIN[3] 0.00112879
12 *984:refsel[8] *984:SUMCAPIN[3] 5.13964e-05
13 *984:SUMCAP3[1] *984:SUMCAPIN[3] 4.11124e-05
14 *984:SUMCAP2[2] *984:SUMCAPIN[3] 2.27087e-05
15 *984:SUMCAP1[1] *984:SUMCAPIN[3] 4.60123e-05
16 *984:IPCAP3[2] *984:SUMCAPIN[3] 0.00112485
17 *984:FCAP1[6] *984:SUMCAPIN[3] 0.000323607
18 *984:IPCAP1OFFSET *984:SUMCAPIN[3] 0
19 *984:IPCAP1EN *984:SUMCAPIN[3] 4.86419e-05
20 *984:FCAP2EN *984:SUMCAPIN[3] 0
21 *671:10 *787:16 1.21573e-05
22 *700:6 *787:16 4.21127e-05
23 *719:22 *787:22 0.0228741
24 *735:58 *984:SUMCAPIN[3] 0.000230099
25 *774:32 *787:22 0.00939134
*RES
1 *988:analog_ctrl[204] *787:16 43.0045 
2 *787:16 *787:18 424.297 
3 *787:18 *787:20 2 
4 *787:20 *787:22 207.105 
5 *787:22 *984:SUMCAPIN[3] 21.6045 
*END

*D_NET *788 0.129294
*CONN
*I *984:SUMCAPIN[4] I *D CF_ADC_DSM20
*I *988:analog_ctrl[205] O *D soc_sys
*CAP
1 *984:SUMCAPIN[4] 0.00132752
2 *988:analog_ctrl[205] 2.46512e-05
3 *788:18 0.0042594
4 *788:16 0.0166406
5 *788:10 0.0477066
6 *788:8 0.0340225
7 *788:10 *789:10 0.00662036
8 *788:10 *812:13 0
9 *984:refsel[8] *984:SUMCAPIN[4] 0.00035145
10 *984:SUMCAP2_EN *984:SUMCAPIN[4] 6.5449e-05
11 *984:IPCAP3[1] *984:SUMCAPIN[4] 4.30369e-05
12 *984:FCAP2[1] *984:SUMCAPIN[4] 0.000669354
13 *984:DACCAP[4] *984:SUMCAPIN[4] 0.00075774
14 *984:IPCAP1[6] *984:SUMCAPIN[4] 8.31907e-05
15 *984:IPCAP1[4] *984:SUMCAPIN[4] 0.000339858
16 *668:20 *788:16 0
17 *671:10 *788:8 2.27088e-05
18 *700:6 *788:8 8.02886e-05
19 *703:18 *788:18 0.00708933
20 *735:58 *984:SUMCAPIN[4] 0.000114737
21 *784:34 *984:SUMCAPIN[4] 0.000123776
22 *787:16 *788:10 0
23 *787:18 *788:10 0.00895117
*RES
1 *988:analog_ctrl[205] *788:8 1.1254 
2 *788:8 *788:10 96.7657 
3 *788:10 *788:16 35.4445 
4 *788:16 *788:18 80.175 
5 *788:18 *984:SUMCAPIN[4] 25.0955 
*END

*D_NET *789 0.129082
*CONN
*I *984:SUMCAPIN_EN I *D CF_ADC_DSM20
*I *988:analog_ctrl[206] O *D soc_sys
*CAP
1 *984:SUMCAPIN_EN 0.00874134
2 *988:analog_ctrl[206] 2.46442e-05
3 *789:10 0.0451299
4 *789:8 0.0364132
5 *789:10 *820:13 0.00540264
6 *984:IPCAP3[0] *984:SUMCAPIN_EN 5.43636e-05
7 *984:FCAP3[0] *984:SUMCAPIN_EN 0.0019498
8 *984:IPCAP1[6] *984:SUMCAPIN_EN 3.99991e-05
9 *671:10 *789:8 2.27088e-05
10 *700:6 *789:8 8.02929e-05
11 *716:45 *984:SUMCAPIN_EN 0.00239878
12 *747:14 *984:SUMCAPIN_EN 3.57002e-05
13 *784:34 *984:SUMCAPIN_EN 0.022168
14 *788:10 *789:10 0.00662036
*RES
1 *988:analog_ctrl[206] *789:8 1.1254 
2 *789:8 *789:10 110.116 
3 *789:10 *984:SUMCAPIN_EN 42.4476 
*END

*D_NET *790 0.208529
*CONN
*I *984:SIGN I *D CF_ADC_DSM20
*I *988:analog_ctrl[20] O *D soc_sys
*CAP
1 *984:SIGN 1.70536e-05
2 *988:analog_ctrl[20] 0.0081966
3 *790:13 0.0211577
4 *790:11 0.0211406
5 *790:9 0.0666495
6 *790:7 0.0666495
7 *790:5 0.0081966
8 *984:SIGN *875:17 2.13276e-05
9 *790:9 *796:9 0
10 *790:9 *801:9 0
11 *790:9 *816:9 0
12 *790:13 *802:25 0
13 *646:20 *984:SIGN 4.41554e-05
14 *675:11 *790:9 0.016456
15 *786:19 *790:9 0
*RES
1 *988:analog_ctrl[20] *790:5 141.833 
2 *790:5 *790:7 0.5 
3 *790:7 *790:9 174.518 
4 *790:9 *790:11 0.5 
5 *790:11 *790:13 56.5358 
6 *790:13 *984:SIGN 1.06713 
*END

*D_NET *791 0.266725
*CONN
*I *984:CHOP_EN I *D CF_ADC_DSM20
*I *988:analog_ctrl[21] O *D soc_sys
*CAP
1 *984:CHOP_EN 0.000237764
2 *988:analog_ctrl[21] 0.00275105
3 *791:17 0.0223462
4 *791:15 0.0221085
5 *791:13 0.0248084
6 *791:11 0.0248084
7 *791:9 0.0353845
8 *791:7 0.0381356
9 *791:9 *800:9 0
10 *791:9 *819:9 0.0728911
11 *791:13 *874:13 0
12 *115:14 *791:7 0.00184309
13 *652:17 *791:17 0
14 *653:17 *791:17 0
15 *660:18 *791:13 0.0214104
16 *693:9 *791:9 0
*RES
1 *988:analog_ctrl[21] *791:7 49.5125 
2 *791:7 *791:9 125.981 
3 *791:9 *791:11 0.5 
4 *791:11 *791:13 83.9319 
5 *791:13 *791:15 0.5 
6 *791:15 *791:17 55.6244 
7 *791:17 *984:CHOP_EN 1.1726 
*END

*D_NET *792 0.220601
*CONN
*I *984:BUF_CHOP_EN I *D CF_ADC_DSM20
*I *988:analog_ctrl[22] O *D soc_sys
*CAP
1 *984:BUF_CHOP_EN 0.00110935
2 *988:analog_ctrl[22] 0.00879205
3 *792:13 0.0144569
4 *792:11 0.0133476
5 *792:9 0.0597275
6 *792:7 0.0597275
7 *792:5 0.00879205
8 *984:BUF_CHOP_EN *874:17 3.75165e-05
9 *792:9 *797:9 0
10 *792:9 *876:11 0
11 *74:14 *792:5 0.00328447
12 *647:24 *792:9 0.0102787
13 *650:24 *792:9 0
14 *667:14 *984:BUF_CHOP_EN 0.00213355
15 *667:14 *792:13 0.015763
16 *674:11 *792:9 0.0231506
*RES
1 *988:analog_ctrl[22] *792:5 157.643 
2 *792:5 *792:7 0.5 
3 *792:7 *792:9 166.244 
4 *792:9 *792:11 0.5 
5 *792:11 *792:13 50.2993 
6 *792:13 *984:BUF_CHOP_EN 5.19013 
*END

*D_NET *793 0.264878
*CONN
*I *984:bypass_p I *D CF_ADC_DSM20
*I *988:analog_ctrl[23] O *D soc_sys
*CAP
1 *984:bypass_p 3.48835e-05
2 *988:analog_ctrl[23] 0.00963688
3 *793:13 0.0139781
4 *793:11 0.0139432
5 *793:9 0.0554984
6 *793:7 0.0554984
7 *793:5 0.00963688
8 *793:9 *794:9 0
9 *793:9 *873:9 0.0834908
10 *793:9 *875:9 0
11 *793:13 *984:qlev[0] 0.0140278
12 *793:13 *809:13 0.00185512
13 *75:14 *793:5 0.00727774
14 *748:9 *793:9 0
*RES
1 *988:analog_ctrl[23] *793:5 172.943 
2 *793:5 *793:7 0.5 
3 *793:7 *793:9 178.888 
4 *793:9 *793:11 0.5 
5 *793:11 *793:13 52.9416 
6 *793:13 *984:bypass_p 1.06713 
*END

*D_NET *794 0.248842
*CONN
*I *984:bypass_n I *D CF_ADC_DSM20
*I *988:analog_ctrl[24] O *D soc_sys
*CAP
1 *984:bypass_n 3.48835e-05
2 *988:analog_ctrl[24] 0.0093567
3 *794:13 0.0129804
4 *794:11 0.0129455
5 *794:9 0.0623345
6 *794:7 0.0623345
7 *794:5 0.0093567
8 *794:9 *875:9 0.0434624
9 *794:9 *876:11 0
10 *794:13 *809:13 0
11 *794:13 *829:13 0.000507524
12 *104:22 *794:5 0.00704143
13 *650:24 *794:9 0
14 *748:13 *794:13 0.0284878
15 *793:9 *794:9 0
*RES
1 *988:analog_ctrl[24] *794:5 167.842 
2 *794:5 *794:7 0.5 
3 *794:7 *794:9 176.732 
4 *794:9 *794:11 0.5 
5 *794:11 *794:13 53.7561 
6 *794:13 *984:bypass_n 1.06713 
*END

*D_NET *795 0.253139
*CONN
*I *984:ODET I *D CF_ADC_DSM20
*I *988:analog_ctrl[25] O *D soc_sys
*CAP
1 *984:ODET 3.48835e-05
2 *988:analog_ctrl[25] 0.00706601
3 *795:13 0.0159913
4 *795:11 0.0159564
5 *795:9 0.0494265
6 *795:7 0.0494265
7 *795:5 0.00706601
8 *795:9 *806:9 0.0856058
9 *795:9 *807:9 0
10 *795:13 *799:13 0.01878
11 *984:itrim_1[1] *795:9 0
12 *141:23 *795:5 0.00378551
13 *781:9 *795:9 0
*RES
1 *988:analog_ctrl[25] *795:5 126.533 
2 *795:5 *795:7 0.5 
3 *795:7 *795:9 168.283 
4 *795:9 *795:11 0.5 
5 *795:11 *795:13 59.9197 
6 *795:13 *984:ODET 1.06713 
*END

*D_NET *796 0.281612
*CONN
*I *984:TESTMODE I *D CF_ADC_DSM20
*I *988:analog_ctrl[26] O *D soc_sys
*CAP
1 *984:TESTMODE 0.000945636
2 *988:analog_ctrl[26] 0.00820359
3 *796:13 0.0301199
4 *796:11 0.0291743
5 *796:9 0.0496222
6 *796:7 0.0496222
7 *796:5 0.00820359
8 *984:TESTMODE *984:SCANCLK 0.00319923
9 *984:TESTMODE *866:41 0.00179369
10 *796:9 *855:9 0
11 *796:9 *872:9 0.0754897
12 *796:13 *984:ODET_TH[3] 8.51445e-05
13 *796:13 *984:SCANCLK 0
14 *796:13 *866:13 0
15 *984:IPCAP1[0] *796:13 0
16 *984:FCAP1[0] *796:13 0.000673204
17 *105:14 *796:5 0.00609624
18 *661:16 *984:TESTMODE 0.00077125
19 *662:16 *984:TESTMODE 0.00103154
20 *663:16 *984:TESTMODE 0.000173398
21 *663:16 *796:13 0.0164068
22 *675:11 *796:9 0
23 *790:9 *796:9 0
*RES
1 *988:analog_ctrl[26] *796:5 146.932 
2 *796:5 *796:7 0.5 
3 *796:7 *796:9 160.417 
4 *796:9 *796:11 0.5 
5 *796:11 *796:13 88.8415 
6 *796:13 *984:TESTMODE 11.9833 
*END

*D_NET *797 0.279979
*CONN
*I *984:RESET1 I *D CF_ADC_DSM20
*I *988:analog_ctrl[27] O *D soc_sys
*CAP
1 *984:RESET1 0.00265099
2 *988:analog_ctrl[27] 0.00852445
3 *797:13 0.0161575
4 *797:11 0.0135065
5 *797:9 0.0359182
6 *797:7 0.0359182
7 *797:5 0.00852445
8 *984:RESET1 *984:ODET_TH[4] 0.000507148
9 *984:RESET1 *984:ODET_TH[3] 0.000605292
10 *984:RESET1 *984:ODET_TH[2] 0.0103288
11 *984:RESET1 *984:ODET_TH[1] 0.00962342
12 *984:RESET1 *984:disable_mod 0.00222044
13 *984:RESET1 *984:dig_test_sel[2] 0.00145767
14 *984:RESET1 *984:FCHOP[2] 0.000105576
15 *797:9 *855:9 0.0914254
16 *797:13 *817:13 0
17 *797:13 *819:13 0.0302775
18 *37:29 *797:13 0.000854451
19 *38:25 *797:13 0.000718474
20 *40:41 *797:13 0.00325512
21 *143:31 *797:5 0.00431088
22 *786:19 *797:13 0.0030885
23 *792:9 *797:9 0
*RES
1 *988:analog_ctrl[27] *797:5 152.542 
2 *797:5 *797:7 0.5 
3 *797:7 *797:9 137.169 
4 *797:9 *797:11 0.5 
5 *797:11 *797:13 55.8524 
6 *797:13 *984:RESET1 20.6447 
*END

*D_NET *798 0.220567
*CONN
*I *984:RESET2 I *D CF_ADC_DSM20
*I *988:analog_ctrl[28] O *D soc_sys
*CAP
1 *984:RESET2 0.0115644
2 *988:analog_ctrl[28] 0.0113964
3 *798:9 0.0737814
4 *798:7 0.062217
5 *798:5 0.0113964
6 *984:RESET2 *801:13 0.0253911
7 *798:9 *825:9 0
8 *20:11 *798:9 0
9 *65:17 *798:9 0
10 *109:14 *798:5 0.00553649
11 *679:11 *798:9 0.0192834
*RES
1 *988:analog_ctrl[28] *798:5 204.053 
2 *798:5 *798:7 0.5 
3 *798:7 *798:9 164.496 
4 *798:9 *984:RESET2 48.7758 
*END

*D_NET *799 0.271418
*CONN
*I *984:RESET3 I *D CF_ADC_DSM20
*I *988:analog_ctrl[29] O *D soc_sys
*CAP
1 *984:RESET3 3.48835e-05
2 *988:analog_ctrl[29] 0.00103831
3 *799:13 0.0146051
4 *799:11 0.0145703
5 *799:9 0.0491365
6 *799:7 0.0501748
7 *799:9 *817:9 0
8 *799:9 *820:9 0.0678483
9 *988:adc_chopclk *799:9 0.0017088
10 *988:adc_dout[1] *799:9 0.000745166
11 *988:adc_dout[4] *799:9 0.0180037
12 *66:13 *799:9 0
13 *688:11 *799:9 0
14 *726:11 *799:9 0
15 *759:13 *799:13 0.0347722
16 *795:13 *799:13 0.01878
*RES
1 *988:analog_ctrl[29] *799:7 18.4025 
2 *799:7 *799:9 165.486 
3 *799:9 *799:11 0.5 
4 *799:11 *799:13 78.7018 
5 *799:13 *984:RESET3 1.06713 
*END

*D_NET *800 0.282707
*CONN
*I *986:disable_p I *D CF_BUF_HIZ
*I *988:analog_ctrl[2] O *D soc_sys
*CAP
1 *986:disable_p 0.00814504
2 *988:analog_ctrl[2] 0.00301072
3 *800:9 0.106654
4 *800:7 0.0985089
5 *800:5 0.00301072
6 *986:disable_p *986:disable_n 0.000166732
7 *986:disable_p *986:gain[0] 3.81927e-05
8 *986:disable_p *986:gain[1] 0.00811125
9 *800:9 *819:9 0
10 *800:9 *874:9 0.0496399
11 *986:enable_hv *986:disable_p 0.00351975
12 *127:25 *800:5 0.0019019
13 *667:20 *800:9 0
14 *782:9 *800:9 0
15 *791:9 *800:9 0
*RES
1 *988:analog_ctrl[2] *800:5 54.1125 
2 *800:5 *800:7 0.5 
3 *800:7 *800:9 266.695 
4 *800:9 *986:disable_p 33.3995 
*END

*D_NET *801 0.255138
*CONN
*I *984:RESET_DEC_INPUT I *D CF_ADC_DSM20
*I *988:analog_ctrl[30] O *D soc_sys
*CAP
1 *984:RESET_DEC_INPUT 3.00583e-05
2 *988:analog_ctrl[30] 0.00764396
3 *801:13 0.0156532
4 *801:11 0.0156231
5 *801:9 0.0486401
6 *801:7 0.0486401
7 *801:5 0.00764396
8 *984:RESET_DEC_INPUT *874:17 1.14079e-05
9 *801:9 *816:9 0.0858616
10 *984:RESET2 *801:13 0.0253911
11 *673:11 *801:9 0
12 *781:9 *801:9 0
13 *790:9 *801:9 0
*RES
1 *988:analog_ctrl[30] *801:5 136.732 
2 *801:5 *801:7 0.5 
3 *801:7 *801:9 163.097 
4 *801:9 *801:11 0.5 
5 *801:11 *801:13 57.9791 
6 *801:13 *984:RESET_DEC_INPUT 1.06713 
*END

*D_NET *802 0.211024
*CONN
*I *984:FCHOP[0] I *D CF_ADC_DSM20
*I *988:analog_ctrl[31] O *D soc_sys
*CAP
1 *984:FCHOP[0] 0
2 *988:analog_ctrl[31] 0.010841
3 *802:25 0.0185651
4 *802:9 0.082925
5 *802:7 0.0643598
6 *802:5 0.010841
7 *802:9 *824:9 0
8 *802:25 *874:17 2.16583e-05
9 *984:itrim_1[2] *802:9 0
10 *20:11 *802:9 0
11 *81:48 *802:5 0.00492531
12 *683:11 *802:9 0.0185448
13 *790:13 *802:25 0
*RES
1 *988:analog_ctrl[31] *802:5 193.852 
2 *802:5 *802:7 0.5 
3 *802:7 *802:9 166.418 
4 *802:9 *802:25 49.9478 
5 *802:25 *984:FCHOP[0] 0.5 
*END

*D_NET *803 0.252895
*CONN
*I *984:FCHOP[1] I *D CF_ADC_DSM20
*I *988:analog_ctrl[32] O *D soc_sys
*CAP
1 *984:FCHOP[1] 0.00133277
2 *988:analog_ctrl[32] 0.0120186
3 *803:15 0.0184286
4 *803:9 0.0521261
5 *803:7 0.0350303
6 *803:5 0.0120186
7 *984:FCHOP[1] *984:ODET_TH[4] 0.0075144
8 *984:FCHOP[1] *984:BUF_FCHOP[1] 1.33206e-05
9 *984:FCHOP[1] *984:BUF_FCHOP[0] 2.86445e-05
10 *984:FCHOP[1] *984:FCHOP[2] 0.00741273
11 *803:9 *808:9 0
12 *984:MODINPUT *984:FCHOP[1] 0.0001465
13 *114:14 *803:5 0.00513497
14 *704:9 *803:9 0
15 *715:9 *803:9 0.0954874
16 *728:22 *803:15 0.000211972
17 *740:13 *803:15 0
18 *771:13 *803:9 0.0059899
*RES
1 *988:analog_ctrl[32] *803:5 214.762 
2 *803:5 *803:7 0.5 
3 *803:7 *803:9 143.403 
4 *803:9 *803:15 45.9996 
5 *803:15 *984:FCHOP[1] 11.9165 
*END

*D_NET *804 0.220321
*CONN
*I *984:FCHOP[2] I *D CF_ADC_DSM20
*I *988:analog_ctrl[33] O *D soc_sys
*CAP
1 *984:FCHOP[2] 0.00348788
2 *988:analog_ctrl[33] 0.00165635
3 *804:13 0.0257709
4 *804:11 0.022283
5 *804:9 0.0545756
6 *804:7 0.056232
7 *984:FCHOP[2] *984:ODET_TH[4] 0.00333075
8 *984:FCHOP[2] *984:dig_test_sel[2] 0
9 *984:FCHOP[2] *984:BUF_FCHOP[1] 6.23438e-05
10 *984:FCHOP[2] *984:BUF_FCHOP[0] 0.0147701
11 *804:9 *812:9 0
12 *804:9 *817:9 0
13 *804:13 *805:13 0
14 *804:13 *821:19 0.00911318
15 *804:13 *823:19 0
16 *804:13 *823:21 0.00476785
17 *984:FCHOP[1] *984:FCHOP[2] 0.00741273
18 *984:RESET1 *984:FCHOP[2] 0.000105576
19 *984:MODINPUT *984:FCHOP[2] 0.0001465
20 *40:53 *804:13 0
21 *67:17 *804:13 0.0166066
22 *650:18 *804:13 0
23 *659:28 *804:9 0
*RES
1 *988:analog_ctrl[33] *804:7 28.6025 
2 *804:7 *804:9 131.692 
3 *804:9 *804:11 0.5 
4 *804:11 *804:13 76.4383 
5 *804:13 *984:FCHOP[2] 24.7455 
*END

*D_NET *805 0.205578
*CONN
*I *984:BUF_FCHOP[0] I *D CF_ADC_DSM20
*I *988:analog_ctrl[34] O *D soc_sys
*CAP
1 *984:BUF_FCHOP[0] 0.00293607
2 *988:analog_ctrl[34] 0.00217052
3 *805:13 0.0305648
4 *805:11 0.0276287
5 *805:9 0.0538686
6 *805:7 0.0560391
7 *984:BUF_FCHOP[0] *984:dig_test_sel[2] 0
8 *984:BUF_FCHOP[0] *984:BUF_FCHOP[1] 0.0156139
9 *805:9 *812:9 0
10 *805:9 *818:9 0
11 *805:13 *806:13 0
12 *805:13 *823:19 0
13 *805:13 *824:19 0.00181135
14 *984:FCHOP[1] *984:BUF_FCHOP[0] 2.86445e-05
15 *984:MODINPUT *984:BUF_FCHOP[0] 0.0001465
16 *984:FCHOP[2] *984:BUF_FCHOP[0] 0.0147701
17 *65:21 *805:13 0
18 *659:28 *805:9 0
19 *681:11 *805:9 0
20 *804:13 *805:13 0
*RES
1 *988:analog_ctrl[34] *805:7 38.8025 
2 *805:7 *805:9 129.885 
3 *805:9 *805:11 0.5 
4 *805:11 *805:13 74.6295 
5 *805:13 *984:BUF_FCHOP[0] 24.4929 
*END

*D_NET *806 0.258463
*CONN
*I *984:BUF_FCHOP[1] I *D CF_ADC_DSM20
*I *988:analog_ctrl[35] O *D soc_sys
*CAP
1 *984:BUF_FCHOP[1] 0.00353102
2 *988:analog_ctrl[35] 0.00712071
3 *806:13 0.0258369
4 *806:11 0.0223059
5 *806:9 0.0336114
6 *806:7 0.0336114
7 *806:5 0.00712071
8 *984:BUF_FCHOP[1] *984:ODET_TH[3] 2.49535e-06
9 *984:BUF_FCHOP[1] *984:dig_test_sel[2] 0
10 *984:BUF_FCHOP[1] *984:BUF_FCHOP[2] 0.00801281
11 *984:BUF_FCHOP[1] *874:17 0.00313798
12 *806:13 *824:19 0.000582187
13 *806:13 *825:19 0.0010217
14 *806:13 *825:21 0.00572963
15 *984:FCHOP[1] *984:BUF_FCHOP[1] 1.33206e-05
16 *984:MODINPUT *984:BUF_FCHOP[1] 0.000580516
17 *984:BUF_FCHOP[0] *984:BUF_FCHOP[1] 0.0156139
18 *984:FCHOP[2] *984:BUF_FCHOP[1] 6.23438e-05
19 *78:31 *806:5 0.004962
20 *781:9 *806:9 0
21 *781:13 *806:13 0
22 *795:9 *806:9 0.0856058
23 *805:13 *806:13 0
*RES
1 *988:analog_ctrl[35] *806:5 127.043 
2 *806:5 *806:7 0.5 
3 *806:7 *806:9 128.429 
4 *806:9 *806:11 0.5 
5 *806:11 *806:13 59.5561 
6 *806:13 *984:BUF_FCHOP[1] 25.814 
*END

*D_NET *807 0.213647
*CONN
*I *984:BUF_FCHOP[2] I *D CF_ADC_DSM20
*I *988:analog_ctrl[36] O *D soc_sys
*CAP
1 *984:BUF_FCHOP[2] 0.00232475
2 *988:analog_ctrl[36] 0.00680523
3 *807:13 0.0178519
4 *807:11 0.0155271
5 *807:9 0.0550553
6 *807:7 0.0550553
7 *807:5 0.00680523
8 *984:BUF_FCHOP[2] *984:ODET_TH[3] 2.0178e-06
9 *984:BUF_FCHOP[2] *984:ODET_TH[2] 0
10 *984:BUF_FCHOP[2] *874:17 0.00698794
11 *984:MODINPUT *984:BUF_FCHOP[2] 0.000960348
12 *984:itrim_1[1] *807:9 0.0055629
13 *984:BUF_FCHOP[1] *984:BUF_FCHOP[2] 0.00801281
14 *651:10 *807:13 0.0326959
15 *795:9 *807:9 0
*RES
1 *988:analog_ctrl[36] *807:5 121.433 
2 *807:5 *807:7 0.5 
3 *807:7 *807:9 139.208 
4 *807:9 *807:11 0.5 
5 *807:11 *807:13 60.4175 
6 *807:13 *984:BUF_FCHOP[2] 16.2849 
*END

*D_NET *808 0.29628
*CONN
*I *984:qlev[0] I *D CF_ADC_DSM20
*I *988:analog_ctrl[37] O *D soc_sys
*CAP
1 *984:qlev[0] 0.00605511
2 *988:analog_ctrl[37] 0.0126537
3 *808:17 0.0200689
4 *808:15 0.0142837
5 *808:9 0.026267
6 *808:7 0.0259971
7 *808:5 0.0126537
8 *984:qlev[0] *809:13 0.0243048
9 *36:9 *808:17 1.91597e-05
10 *38:21 *808:17 0.0253885
11 *39:9 *984:qlev[0] 2.47677e-05
12 *698:11 *808:9 0.00053468
13 *704:9 *808:9 0.0658224
14 *704:17 *808:17 0.0222138
15 *716:9 *808:9 0.0100119
16 *728:22 *808:9 0.00140914
17 *732:9 *808:9 5.38299e-06
18 *766:9 *808:17 0.0117793
19 *771:13 *808:9 0.00191053
20 *772:19 *808:9 0.000849242
21 *776:5 *808:15 0
22 *793:13 *984:qlev[0] 0.0140278
23 *803:9 *808:9 0
*RES
1 *988:analog_ctrl[37] *808:5 217.822 
2 *808:5 *808:7 0.5 
3 *808:7 *808:9 100.956 
4 *808:9 *808:15 6.5575 
5 *808:15 *808:17 406.515 
6 *808:17 *984:qlev[0] 49.0003 
*END

*D_NET *809 0.223666
*CONN
*I *984:qlev[1] I *D CF_ADC_DSM20
*I *988:analog_ctrl[38] O *D soc_sys
*CAP
1 *984:qlev[1] 3.48835e-05
2 *988:analog_ctrl[38] 0.00621213
3 *809:13 0.01715
4 *809:11 0.0171151
5 *809:9 0.0650117
6 *809:7 0.0650117
7 *809:5 0.00621213
8 *809:9 *829:9 0
9 *984:qlev[0] *809:13 0.0243048
10 *684:11 *809:9 0.0207581
11 *759:9 *809:9 0
12 *770:9 *809:9 0
13 *793:13 *809:13 0.00185512
14 *794:13 *809:13 0
*RES
1 *988:analog_ctrl[38] *809:5 110.723 
2 *809:5 *809:7 0.5 
3 *809:7 *809:9 168.924 
4 *809:9 *809:11 0.5 
5 *809:11 *809:13 63.2979 
6 *809:13 *984:qlev[1] 1.06713 
*END

*D_NET *810 0.295023
*CONN
*I *984:NONOV[0] I *D CF_ADC_DSM20
*I *988:analog_ctrl[39] O *D soc_sys
*CAP
1 *984:NONOV[0] 0.0125868
2 *988:analog_ctrl[39] 0.00567522
3 *810:13 0.0312839
4 *810:11 0.0186971
5 *810:9 0.0292556
6 *810:7 0.0292556
7 *810:5 0.00567522
8 *984:NONOV[0] *812:17 0.0309119
9 *810:9 *866:9 0.0821805
10 *142:34 *810:5 0.00285273
11 *647:18 *810:13 0.0323525
12 *654:13 *984:NONOV[0] 3.53025e-05
13 *676:11 *810:9 0.0142611
14 *759:9 *810:9 0
*RES
1 *988:analog_ctrl[39] *810:5 101.033 
2 *810:5 *810:7 0.5 
3 *810:7 *810:9 123.301 
4 *810:9 *810:11 0.5 
5 *810:11 *810:13 69.3753 
6 *810:13 *984:NONOV[0] 49.4256 
*END

*D_NET *811 0.347241
*CONN
*I *986:disable_n I *D CF_BUF_HIZ
*I *988:analog_ctrl[3] O *D soc_sys
*CAP
1 *986:disable_n 0.000632856
2 *988:analog_ctrl[3] 0.0130802
3 *811:9 0.0652042
4 *811:7 0.0645714
5 *811:5 0.0130802
6 *986:disable_n *986:gain[0] 0.000569799
7 *986:disable_n *986:gain[1] 6.44935e-05
8 *811:9 *986:gain[0] 0.000144614
9 *811:9 *844:9 0.174995
10 *811:9 *867:11 0.00491134
11 *986:disable_p *986:disable_n 0.000166732
12 *986:enable_hv *986:disable_n 4.21127e-05
13 *986:vpwr_core *986:disable_n 0.000542914
14 *986:vpwr_core *811:9 0
15 *94:14 *811:5 0.00923498
16 *112:18 *811:9 0
*RES
1 *988:analog_ctrl[3] *811:5 237.202 
2 *811:5 *811:7 0.5 
3 *811:7 *811:9 263.491 
4 *811:9 *986:disable_n 3.89593 
*END

*D_NET *812 0.239039
*CONN
*I *984:NONOV[1] I *D CF_ADC_DSM20
*I *988:analog_ctrl[40] O *D soc_sys
*CAP
1 *984:NONOV[1] 2.36e-05
2 *988:analog_ctrl[40] 0.0018907
3 *812:17 0.0168533
4 *812:15 0.0168297
5 *812:13 0.0262147
6 *812:11 0.0262147
7 *812:9 0.0413999
8 *812:7 0.0432906
9 *984:NONOV[0] *812:17 0.0309119
10 *20:17 *812:13 0
11 *649:14 *812:17 0.00698829
12 *654:13 *984:NONOV[1] 1.26226e-05
13 *681:11 *812:9 0.00974248
14 *785:10 *812:13 0
15 *787:16 *812:13 0.0186662
16 *788:10 *812:13 0
17 *804:9 *812:9 0
18 *805:9 *812:9 0
*RES
1 *988:analog_ctrl[40] *812:7 33.7025 
2 *812:7 *812:9 105.064 
3 *812:9 *812:11 0.5 
4 *812:11 *812:13 80.9172 
5 *812:13 *812:15 0.5 
6 *812:15 *812:17 64.9762 
7 *812:17 *984:NONOV[1] 0.9425 
*END

*D_NET *813 0.22062
*CONN
*I *984:ODET_TH[0] I *D CF_ADC_DSM20
*I *988:analog_ctrl[41] O *D soc_sys
*CAP
1 *984:ODET_TH[0] 0.00251505
2 *988:analog_ctrl[41] 0.00464536
3 *813:13 0.0199207
4 *813:11 0.0174056
5 *813:9 0.0545315
6 *813:7 0.0545315
7 *813:5 0.00464536
8 *984:ODET_TH[0] *984:ODET_TH[1] 0.0116161
9 *984:ODET_TH[0] *984:disable_mod 0.0015174
10 *984:ODET_TH[0] *984:dig_test_sel[2] 0.0128149
11 *984:ODET_TH[0] *984:dig_test_sel[1] 0.00023871
12 *984:ODET_TH[0] *874:17 0
13 *813:9 *815:9 0
14 *651:10 *813:13 0
15 *659:22 *813:13 0.0361919
16 *672:11 *813:9 0
17 *739:18 *984:ODET_TH[0] 4.61315e-05
*RES
1 *988:analog_ctrl[41] *813:5 79.6125 
2 *813:5 *813:7 0.5 
3 *813:7 *813:9 135.188 
4 *813:9 *813:11 0.5 
5 *813:11 *813:13 68.3417 
6 *813:13 *984:ODET_TH[0] 23.0931 
*END

*D_NET *814 0.231765
*CONN
*I *984:ODET_TH[1] I *D CF_ADC_DSM20
*I *988:analog_ctrl[42] O *D soc_sys
*CAP
1 *984:ODET_TH[1] 0.0027448
2 *988:analog_ctrl[42] 0.00537267
3 *814:13 0.0194473
4 *814:11 0.0167025
5 *814:9 0.051927
6 *814:7 0.051927
7 *814:5 0.00537267
8 *984:ODET_TH[1] *984:ODET_TH[2] 0.00363066
9 *984:ODET_TH[1] *984:disable_mod 0.00164246
10 *984:ODET_TH[1] *984:dig_test_sel[2] 0.000807416
11 *814:5 *853:31 0.00202858
12 *814:9 *833:9 0
13 *814:9 *866:9 0
14 *984:ODET_TH[0] *984:ODET_TH[1] 0.0116161
15 *984:RESET1 *984:ODET_TH[1] 0.00962342
16 *669:14 *814:13 0.0346637
17 *680:11 *814:9 0.0142584
18 *704:29 *814:13 0
*RES
1 *988:analog_ctrl[42] *814:5 95.4225 
2 *814:5 *814:7 0.5 
3 *814:7 *814:9 132.799 
4 *814:9 *814:11 0.5 
5 *814:11 *814:13 65.5855 
6 *814:13 *984:ODET_TH[1] 22.5207 
*END

*D_NET *815 0.213479
*CONN
*I *984:ODET_TH[2] I *D CF_ADC_DSM20
*I *988:analog_ctrl[43] O *D soc_sys
*CAP
1 *984:ODET_TH[2] 0.00307351
2 *988:analog_ctrl[43] 0.00421128
3 *815:13 0.0294321
4 *815:11 0.0263586
5 *815:9 0.050239
6 *815:7 0.050239
7 *815:5 0.00421128
8 *984:ODET_TH[2] *984:ODET_TH[3] 0.0121435
9 *984:ODET_TH[2] *984:disable_mod 0.001577
10 *984:ODET_TH[2] *874:17 0
11 *815:9 *822:9 0
12 *984:ODET_TH[1] *984:ODET_TH[2] 0.00363066
13 *984:RESET1 *984:ODET_TH[2] 0.0103288
14 *984:BUF_FCHOP[2] *984:ODET_TH[2] 0
15 *70:14 *815:5 0.00262266
16 *669:14 *815:13 0
17 *672:11 *815:9 0.0123925
18 *704:29 *815:13 0.00301883
19 *813:9 *815:9 0
*RES
1 *988:analog_ctrl[43] *815:5 74.5125 
2 *815:5 *815:7 0.5 
3 *815:7 *815:9 131.109 
4 *815:9 *815:11 0.5 
5 *815:11 *815:13 68.9447 
6 *815:13 *984:ODET_TH[2] 23.1527 
*END

*D_NET *816 0.262231
*CONN
*I *984:ODET_TH[3] I *D CF_ADC_DSM20
*I *988:analog_ctrl[44] O *D soc_sys
*CAP
1 *984:ODET_TH[3] 0.00274119
2 *988:analog_ctrl[44] 0.00801093
3 *816:13 0.0133885
4 *816:11 0.0106473
5 *816:9 0.0302399
6 *816:7 0.0302399
7 *816:5 0.00801093
8 *984:ODET_TH[3] *984:ODET_TH[4] 0.0121718
9 *984:ODET_TH[3] *984:disable_mod 0.00135806
10 *984:ODET_TH[3] *866:13 1.52314e-05
11 *984:ODET_TH[2] *984:ODET_TH[3] 0.0121435
12 *984:RESET1 *984:ODET_TH[3] 0.000605292
13 *984:BUF_FCHOP[2] *984:ODET_TH[3] 2.0178e-06
14 *984:BUF_FCHOP[1] *984:ODET_TH[3] 2.49535e-06
15 *540:37 *816:13 0.0124466
16 *770:13 *816:13 0.0178153
17 *786:19 *816:9 0.0164448
18 *790:9 *816:9 0
19 *796:13 *984:ODET_TH[3] 8.51445e-05
20 *801:9 *816:9 0.0858616
*RES
1 *988:analog_ctrl[44] *816:5 137.242 
2 *816:5 *816:7 0.5 
3 *816:7 *816:9 128.836 
4 *816:9 *816:11 0.5 
5 *816:11 *816:13 58.2641 
6 *816:13 *984:ODET_TH[3] 22.5289 
*END

*D_NET *817 0.196012
*CONN
*I *984:ODET_TH[4] I *D CF_ADC_DSM20
*I *988:analog_ctrl[45] O *D soc_sys
*CAP
1 *984:ODET_TH[4] 0.00267254
2 *988:analog_ctrl[45] 0.00132569
3 *817:13 0.0308359
4 *817:11 0.0281634
5 *817:9 0.0517093
6 *817:7 0.053035
7 *984:ODET_TH[4] *984:disable_mod 0.00113821
8 *817:9 *820:9 0
9 *817:13 *819:13 0
10 *984:FCHOP[1] *984:ODET_TH[4] 0.0075144
11 *984:ODET_TH[3] *984:ODET_TH[4] 0.0121718
12 *984:RESET1 *984:ODET_TH[4] 0.000507148
13 *984:FCHOP[2] *984:ODET_TH[4] 0.00333075
14 *988:adc_dout[1] *817:9 0
15 *988:adc_dout[4] *817:9 0
16 *40:53 *817:13 0
17 *677:11 *817:9 0
18 *786:19 *817:13 0.00360822
19 *797:13 *817:13 0
20 *799:9 *817:9 0
21 *804:9 *817:9 0
*RES
1 *988:analog_ctrl[45] *817:7 23.5025 
2 *817:7 *817:9 126.331 
3 *817:9 *817:11 0.5 
4 *817:11 *817:13 77.4719 
5 *817:13 *984:ODET_TH[4] 21.1995 
*END

*D_NET *818 0.247025
*CONN
*I *984:dig_test_sel[0] I *D CF_ADC_DSM20
*I *988:analog_ctrl[46] O *D soc_sys
*CAP
1 *984:dig_test_sel[0] 3.48835e-05
2 *988:analog_ctrl[46] 0.00246864
3 *818:13 0.0292565
4 *818:11 0.0292216
5 *818:9 0.0495137
6 *818:7 0.0519823
7 *103:23 *818:7 0.000204604
8 *669:20 *818:9 0.013267
9 *693:9 *818:9 0.071076
10 *805:9 *818:9 0
*RES
1 *988:analog_ctrl[46] *818:7 43.9025 
2 *818:7 *818:9 166.011 
3 *818:9 *818:11 0.5 
4 *818:11 *818:13 74.6105 
5 *818:13 *984:dig_test_sel[0] 1.06713 
*END

*D_NET *819 0.268763
*CONN
*I *984:dig_test_sel[1] I *D CF_ADC_DSM20
*I *988:analog_ctrl[47] O *D soc_sys
*CAP
1 *984:dig_test_sel[1] 0.00708993
2 *988:analog_ctrl[47] 0.00282516
3 *819:13 0.0279422
4 *819:11 0.0208522
5 *819:9 0.0331482
6 *819:7 0.0331482
7 *819:5 0.00282516
8 *984:dig_test_sel[1] *984:disable_mod 0.00255726
9 *984:dig_test_sel[1] *984:dig_test_sel[2] 0.0150694
10 *984:ODET_TH[0] *984:dig_test_sel[1] 0.00023871
11 *14:37 *984:dig_test_sel[1] 0
12 *36:13 *819:13 0.0029738
13 *37:29 *819:13 0.000279836
14 *38:25 *819:13 0.000637629
15 *39:13 *819:13 0.00266254
16 *40:53 *819:13 0.00679477
17 *650:18 *819:13 0
18 *667:20 *819:9 0.00638517
19 *786:19 *819:13 0.000163936
20 *791:9 *819:9 0.0728911
21 *797:13 *819:13 0.0302775
22 *800:9 *819:9 0
23 *817:13 *819:13 0
*RES
1 *988:analog_ctrl[47] *819:5 49.5225 
2 *819:5 *819:7 0.5 
3 *819:7 *819:9 124.233 
4 *819:9 *819:11 0.5 
5 *819:11 *819:13 73.5959 
6 *819:13 *984:dig_test_sel[1] 28.2042 
*END

*D_NET *820 0.250429
*CONN
*I *984:dig_test_sel[2] I *D CF_ADC_DSM20
*I *988:analog_ctrl[48] O *D soc_sys
*CAP
1 *984:dig_test_sel[2] 0.0123751
2 *988:analog_ctrl[48] 0.0011033
3 *820:13 0.0407017
4 *820:11 0.0283266
5 *820:9 0.0238942
6 *820:7 0.0249975
7 *984:dig_test_sel[2] *984:disable_mod 0.00361751
8 *984:ODET_TH[1] *984:dig_test_sel[2] 0.000807416
9 *984:ODET_TH[0] *984:dig_test_sel[2] 0.0128149
10 *984:RESET1 *984:dig_test_sel[2] 0.00145767
11 *984:dig_test_sel[1] *984:dig_test_sel[2] 0.0150694
12 *984:BUF_FCHOP[1] *984:dig_test_sel[2] 0
13 *984:BUF_FCHOP[0] *984:dig_test_sel[2] 0
14 *984:FCHOP[2] *984:dig_test_sel[2] 0
15 *677:11 *820:9 0.0120125
16 *789:10 *820:13 0.00540264
17 *799:9 *820:9 0.0678483
18 *817:9 *820:9 0
*RES
1 *988:analog_ctrl[48] *820:7 18.9125 
2 *820:7 *820:9 101.684 
3 *820:9 *820:11 0.5 
4 *820:11 *820:13 78.7639 
5 *820:13 *984:dig_test_sel[2] 49.7958 
*END

*D_NET *821 0.196775
*CONN
*I *984:bw[0] I *D CF_ADC_DSM20
*I *988:analog_ctrl[49] O *D soc_sys
*CAP
1 *984:bw[0] 0.000380328
2 *988:analog_ctrl[49] 0.00366888
3 *821:25 0.00341852
4 *821:23 0.0030382
5 *821:21 0.0240772
6 *821:19 0.0313392
7 *821:9 0.0562643
8 *821:7 0.0490023
9 *821:5 0.00366888
10 *821:9 *822:9 0
11 *821:9 *877:9 0
12 *821:19 *823:19 5.56205e-06
13 *821:19 *844:9 0.000338621
14 *984:SUMCAPIN[2] *984:bw[0] 0.00137169
15 *984:SUMCAP1[1] *984:bw[0] 3.10119e-05
16 *984:FCAP3[1] *821:25 0.000202785
17 *984:IPCAP1[2] *984:bw[0] 0.000113747
18 *984:IPCAP1OFFSET *984:bw[0] 4.95896e-05
19 *40:53 *821:19 0
20 *650:18 *821:19 0.00273962
21 *727:22 *984:bw[0] 0.00116122
22 *735:58 *984:bw[0] 0.000147669
23 *741:22 *821:25 0.000227313
24 *742:22 *821:25 0.000403985
25 *750:22 *821:25 0.00311727
26 *782:9 *821:9 0
27 *786:25 *821:25 0.00289373
28 *804:13 *821:19 0.00911318
*RES
1 *988:analog_ctrl[49] *821:5 64.3125 
2 *821:5 *821:7 0.5 
3 *821:7 *821:9 121.67 
4 *821:9 *821:19 31.8785 
5 *821:19 *821:21 428.888 
6 *821:21 *821:23 2 
7 *821:23 *821:25 73.59 
8 *821:25 *984:bw[0] 10.0322 
*END

*D_NET *822 0.292901
*CONN
*I *986:bypass_p I *D CF_BUF_HIZ
*I *988:analog_ctrl[4] O *D soc_sys
*CAP
1 *986:bypass_p 3.10285e-05
2 *988:analog_ctrl[4] 0.00386457
3 *822:13 0.0211638
4 *822:11 0.0211328
5 *822:9 0.121418
6 *822:7 0.121418
7 *822:5 0.00386457
8 *23:13 *986:bypass_p 8.26224e-06
9 *815:9 *822:9 0
10 *821:9 *822:9 0
*RES
1 *988:analog_ctrl[4] *822:5 69.4125 
2 *822:5 *822:7 0.5 
3 *822:7 *822:9 309.114 
4 *822:9 *822:11 0.5 
5 *822:11 *822:13 57.3319 
6 *822:13 *986:bypass_p 1.06713 
*END

*D_NET *823 0.228494
*CONN
*I *984:bw[1] I *D CF_ADC_DSM20
*I *988:analog_ctrl[50] O *D soc_sys
*CAP
1 *984:bw[1] 0.000366088
2 *988:analog_ctrl[50] 0.010346
3 *823:25 0.00150409
4 *823:23 0.00113801
5 *823:21 0.0242543
6 *823:19 0.0276005
7 *823:9 0.0451718
8 *823:7 0.0418255
9 *823:5 0.010346
10 *984:bw[1] *984:bw[2] 5.45102e-05
11 *984:bw[1] *984:bw[3] 0.00110037
12 *823:5 *854:18 0.00585955
13 *823:19 *844:9 0.000551196
14 *823:25 *825:25 6.3124e-06
15 *984:SUMCAPIN[2] *984:bw[1] 0.000260317
16 *984:refsel[12] *984:bw[1] 1.35034e-05
17 *984:refsel[7] *984:bw[1] 6.95846e-06
18 *984:DACCAP[0] *984:bw[1] 0.000149804
19 *984:FCAP1OFFSET *984:bw[1] 0.000283174
20 *65:21 *823:19 0.000992001
21 *67:17 *823:19 6.83049e-06
22 *682:9 *823:9 0.0318585
23 *702:22 *984:bw[1] 0.00113493
24 *706:22 *823:25 0.00832291
25 *727:22 *823:25 0.00199135
26 *742:22 *823:25 1.33293e-05
27 *748:9 *823:9 0
28 *752:22 *823:25 5.36281e-05
29 *765:28 *823:25 7.76137e-05
30 *777:22 *823:25 0.00843101
31 *804:13 *823:19 0
32 *804:13 *823:21 0.00476785
33 *805:13 *823:19 0
34 *821:19 *823:19 5.56205e-06
*RES
1 *988:analog_ctrl[50] *823:5 183.143 
2 *823:5 *823:7 0.5 
3 *823:7 *823:9 120.213 
4 *823:9 *823:19 11.665 
5 *823:19 *823:21 431.438 
6 *823:21 *823:23 2 
7 *823:23 *823:25 78.075 
8 *823:25 *984:bw[1] 9.19647 
*END

*D_NET *824 0.20264
*CONN
*I *984:bw[2] I *D CF_ADC_DSM20
*I *988:analog_ctrl[51] O *D soc_sys
*CAP
1 *984:bw[2] 0.000350745
2 *988:analog_ctrl[51] 0.0106669
3 *824:25 0.00338844
4 *824:23 0.00303769
5 *824:21 0.0243174
6 *824:19 0.0267755
7 *824:9 0.0512635
8 *824:7 0.0488055
9 *824:5 0.0106669
10 *984:bw[2] *984:bw[3] 0.00111353
11 *824:5 *862:22 0.00124672
12 *824:19 *825:19 5.56205e-06
13 *824:19 *844:9 0.000338621
14 *824:25 *825:25 0.00922423
15 *984:bw[1] *984:bw[2] 5.45102e-05
16 *984:refsel[12] *984:bw[2] 0.00143417
17 *984:DACCAP[0] *984:bw[2] 5.20243e-05
18 *984:FCAP1OFFSET *984:bw[2] 0.000310502
19 *984:itrim_1[2] *824:9 0.00506464
20 *682:9 *824:9 0
21 *701:22 *824:25 0
22 *702:22 *824:25 0.00212964
23 *802:9 *824:9 0
24 *805:13 *824:19 0.00181135
25 *806:13 *824:19 0.000582187
*RES
1 *988:analog_ctrl[51] *824:5 188.753 
2 *824:5 *824:7 0.5 
3 *824:7 *824:9 118.64 
4 *824:9 *824:19 10.8619 
5 *824:19 *824:21 432.457 
6 *824:21 *824:23 2 
7 *824:23 *824:25 83.595 
8 *824:25 *984:bw[2] 8.67887 
*END

*D_NET *825 0.20713
*CONN
*I *984:bw[3] I *D CF_ADC_DSM20
*I *988:analog_ctrl[52] O *D soc_sys
*CAP
1 *984:bw[3] 0.000370075
2 *988:analog_ctrl[52] 0.0122188
3 *825:25 0.00211374
4 *825:23 0.00174367
5 *825:21 0.024326
6 *825:19 0.0260756
7 *825:9 0.0470017
8 *825:7 0.0452522
9 *825:5 0.0122188
10 *825:19 *844:9 0.000551196
11 *984:bw[1] *984:bw[3] 0.00110037
12 *984:bw[2] *984:bw[3] 0.00111353
13 *984:refsel[13] *984:bw[3] 0
14 *984:refsel[7] *984:bw[3] 3.72462e-05
15 *678:15 *825:9 0.0099948
16 *679:11 *825:9 0
17 *701:22 *825:25 0
18 *702:22 *825:25 0.0020703
19 *715:9 *825:9 0
20 *742:22 *825:25 0
21 *765:22 *825:25 0.00192909
22 *765:28 *825:25 0.00302572
23 *781:13 *825:19 0
24 *798:9 *825:9 0
25 *806:13 *825:19 0.0010217
26 *806:13 *825:21 0.00572963
27 *823:25 *825:25 6.3124e-06
28 *824:19 *825:19 5.56205e-06
29 *824:25 *825:25 0.00922423
*RES
1 *988:analog_ctrl[52] *825:5 209.152 
2 *825:5 *825:7 0.5 
3 *825:7 *825:9 117.183 
4 *825:9 *825:19 7.2722 
5 *825:19 *825:21 432.712 
6 *825:21 *825:23 2 
7 *825:23 *825:25 89.115 
8 *825:25 *984:bw[3] 10.0537 
*END

*D_NET *826 0.232627
*CONN
*I *984:SCANINPUT I *D CF_ADC_DSM20
*I *988:analog_ctrl[53] O *D soc_sys
*CAP
1 *984:SCANINPUT 0.000677646
2 *988:analog_ctrl[53] 0.0112511
3 *826:21 0.0190671
4 *826:19 0.0196812
5 *826:9 0.05517
6 *826:7 0.0538782
7 *826:5 0.0112511
8 *984:SCANINPUT *984:SCANCLK 0.000127128
9 *984:SCANINPUT *984:reset_b 0.00139734
10 *826:19 *873:13 0.000623417
11 *826:21 *873:13 0.0235785
12 *984:EN_DWA *984:SCANINPUT 0.000151875
13 *984:phi2_buffer *826:21 0.00934296
14 *20:11 *826:9 0.0242064
15 *715:19 *826:19 0.000825909
16 *759:27 *984:SCANINPUT 0.00139735
*RES
1 *988:analog_ctrl[53] *826:5 199.08 
2 *826:5 *826:7 2 
3 *826:7 *826:9 922.98 
4 *826:9 *826:19 26.2277 
5 *826:19 *826:21 75.2324 
6 *826:21 *984:SCANINPUT 28.8471 
*END

*D_NET *827 0.26631
*CONN
*I *984:SCANMODE I *D CF_ADC_DSM20
*I *988:analog_ctrl[54] O *D soc_sys
*CAP
1 *984:SCANMODE 0.00149713
2 *988:analog_ctrl[54] 0.0356544
3 *827:35 0.00783414
4 *827:33 0.00650336
5 *827:21 0.00232244
6 *827:19 0.00217818
7 *827:17 0.0166899
8 *827:15 0.0166678
9 *827:13 0.0113314
10 *827:5 0.0469858
11 *984:refsel[2] *827:33 2.40097e-05
12 *984:vgndd_vnb *984:SCANMODE 0
13 *984:EN_ADWA *984:SCANMODE 9.53648e-05
14 *40:25 *827:35 0
15 *40:35 *827:33 0
16 *40:37 *827:17 0
17 *40:37 *827:21 0
18 *697:20 *827:13 0.000600714
19 *713:14 *827:17 0.0209189
20 *713:14 *827:21 0.001131
21 *713:14 *827:35 0.00093089
22 *737:9 *827:13 0.0303843
23 *737:15 *827:13 0.000172556
24 *737:17 *827:17 0.0503762
25 *737:17 *827:21 0.00340605
26 *737:27 *827:33 0.000139048
27 *737:29 *827:35 0.0102023
28 *748:13 *984:SCANMODE 0.000264011
*RES
1 *988:analog_ctrl[54] *827:5 642.143 
2 *827:5 *827:13 48.3287 
3 *827:13 *827:15 2 
4 *827:15 *827:17 464.302 
5 *827:17 *827:19 0.36 
6 *827:19 *827:21 53.7525 
7 *827:21 *827:33 7.69 
8 *827:33 *827:35 145.695 
9 *827:35 *984:SCANMODE 10.5918 
*END

*D_NET *828 0.244005
*CONN
*I *984:SCANCLK I *D CF_ADC_DSM20
*I *988:analog_ctrl[55] O *D soc_sys
*CAP
1 *984:SCANCLK 0.00585821
2 *988:analog_ctrl[55] 0.0049928
3 *828:13 0.0303727
4 *828:11 0.0245145
5 *828:9 0.0565075
6 *828:7 0.0565075
7 *828:5 0.0049928
8 *984:SCANCLK *984:SCANEN 9.45354e-06
9 *984:SCANCLK *984:reset_b 0.0035634
10 *984:SCANCLK *866:41 0.00077986
11 *828:9 *833:9 0
12 *828:13 *866:13 0.0514404
13 *984:IPCAP1[0] *984:SCANCLK 0.000234723
14 *984:FCAP1[1] *984:SCANCLK 0
15 *984:FCAP1[1] *828:13 0
16 *984:TESTMODE *984:SCANCLK 0.00319923
17 *984:SCANINPUT *984:SCANCLK 0.000127128
18 *661:16 *984:SCANCLK 0.000199595
19 *716:45 *984:SCANCLK 0.000689339
20 *716:45 *828:13 1.63588e-05
21 *796:13 *984:SCANCLK 0
*RES
1 *988:analog_ctrl[55] *828:5 85.2225 
2 *828:5 *828:7 0.5 
3 *828:7 *828:9 140.898 
4 *828:9 *828:11 0.5 
5 *828:11 *828:13 97.5409 
6 *828:13 *984:SCANCLK 44.193 
*END

*D_NET *829 0.296646
*CONN
*I *984:SCANEN I *D CF_ADC_DSM20
*I *988:analog_ctrl[56] O *D soc_sys
*CAP
1 *984:SCANEN 0.00059275
2 *988:analog_ctrl[56] 0.006019
3 *829:13 0.0252715
4 *829:11 0.0246788
5 *829:9 0.0445265
6 *829:7 0.0445265
7 *829:5 0.006019
8 *984:SCANCLK *984:SCANEN 9.45354e-06
9 *984:EN_ADWA *984:SCANEN 0
10 *54:15 *829:5 0.00302424
11 *658:12 *829:13 0
12 *660:12 *829:13 0
13 *748:13 *829:13 0.0451911
14 *759:9 *829:9 0.0962801
15 *794:13 *829:13 0.000507524
16 *809:9 *829:9 0
*RES
1 *988:analog_ctrl[56] *829:5 106.132 
2 *829:5 *829:7 0.5 
3 *829:7 *829:9 155.989 
4 *829:9 *829:11 0.5 
5 *829:11 *829:13 95.7321 
6 *829:13 *984:SCANEN 4.1825 
*END

*D_NET *830 0.136102
*CONN
*I *985:trimTC[0] I *D CF_BGR
*I *988:analog_ctrl[57] O *D soc_sys
*CAP
1 *985:trimTC[0] 0.00835079
2 *988:analog_ctrl[57] 1.22973e-05
3 *830:10 0.0666037
4 *830:8 0.0582652
5 *985:trimTC[0] *985:trimCurr[5] 0.000496363
6 *985:trimTC[0] *985:trimCurr[4] 0
7 *985:trimTC[0] *985:trimCurr[3] 0.00230659
8 *985:trimTC[0] *985:trimTC[5] 0
9 *830:8 *856:8 4.21127e-05
10 *830:8 *862:20 2.46013e-05
11 *830:10 *843:10 0
12 *54:15 *830:10 0
*RES
1 *988:analog_ctrl[57] *830:8 1.06713 
2 *830:8 *830:10 155.595 
3 *830:10 *985:trimTC[0] 26.111 
*END

*D_NET *831 0.176899
*CONN
*I *985:trimTC[1] I *D CF_BGR
*I *988:analog_ctrl[58] O *D soc_sys
*CAP
1 *985:trimTC[1] 0.0141118
2 *988:analog_ctrl[58] 0.0329036
3 *831:5 0.0470153
4 *985:trimTC[1] *985:finetune 0.000380172
5 *985:trimTC[1] *985:trimTC[2] 0
6 *831:5 *843:10 0.0256762
7 *81:52 *985:trimTC[1] 4.2782e-05
8 *726:13 *831:5 0.0567692
*RES
1 *988:analog_ctrl[58] *831:5 830.333 
2 *831:5 *985:trimTC[1] 39.9838 
*END

*D_NET *832 0.121054
*CONN
*I *985:trimTC[2] I *D CF_BGR
*I *988:analog_ctrl[59] O *D soc_sys
*CAP
1 *985:trimTC[2] 0.0123954
2 *988:analog_ctrl[59] 0.0457446
3 *832:5 0.05814
4 *985:trimTC[2] *985:trimTC[3] 6.8255e-05
5 *985:trimTC[2] *834:13 0.00469726
6 *985:trimTC[1] *985:trimTC[2] 0
7 *81:52 *985:trimTC[2] 8.37733e-06
8 *726:13 *832:5 0
*RES
1 *988:analog_ctrl[59] *832:5 825.232 
2 *832:5 *985:trimTC[2] 39.346 
*END

*D_NET *833 0.243558
*CONN
*I *986:bypass_n I *D CF_BUF_HIZ
*I *988:analog_ctrl[5] O *D soc_sys
*CAP
1 *986:bypass_n 3.48835e-05
2 *988:analog_ctrl[5] 0.00520757
3 *833:13 0.019163
4 *833:11 0.0191281
5 *833:9 0.0974083
6 *833:7 0.0974083
7 *833:5 0.00520757
8 *814:9 *833:9 0
9 *828:9 *833:9 0
*RES
1 *988:analog_ctrl[5] *833:5 90.3225 
2 *833:5 *833:7 0.5 
3 *833:7 *833:9 235.756 
4 *833:9 *833:11 0.5 
5 *833:11 *833:13 51.2202 
6 *833:13 *986:bypass_n 1.06713 
*END

*D_NET *834 0.151312
*CONN
*I *985:trimTC[3] I *D CF_BGR
*I *988:analog_ctrl[60] O *D soc_sys
*CAP
1 *985:trimTC[3] 9.73354e-05
2 *988:analog_ctrl[60] 0.0135916
3 *834:13 0.0400304
4 *834:11 0.0469638
5 *834:5 0.0206224
6 *985:trimTC[3] *985:trimTC[4] 0
7 *834:11 *844:9 0.0030324
8 *834:13 *985:trimTC[4] 0.00129814
9 *834:13 *869:5 0.0208792
10 *985:trimTC[2] *985:trimTC[3] 6.8255e-05
11 *985:trimTC[2] *834:13 0.00469726
12 *81:52 *985:trimTC[3] 3.14448e-05
*RES
1 *988:analog_ctrl[60] *834:5 240.262 
2 *834:5 *834:11 21.577 
3 *834:11 *834:13 113.562 
4 *834:13 *985:trimTC[3] 2.23717 
*END

*D_NET *835 0.118296
*CONN
*I *985:trimTC[4] I *D CF_BGR
*I *988:analog_ctrl[61] O *D soc_sys
*CAP
1 *985:trimTC[4] 0.00927712
2 *988:analog_ctrl[61] 0.0491785
3 *835:5 0.0584556
4 *985:trimTC[4] *985:trimTC[5] 7.20618e-05
5 *985:trimTC[4] *985:inl_ctrl[1] 0
6 *985:trimTC[3] *985:trimTC[4] 0
7 *81:52 *985:trimTC[4] 1.45731e-05
8 *834:13 *985:trimTC[4] 0.00129814
*RES
1 *988:analog_ctrl[61] *835:5 886.943 
2 *835:5 *985:trimTC[4] 28.0612 
*END

*D_NET *836 0.133565
*CONN
*I *985:trimTC[5] I *D CF_BGR
*I *988:analog_ctrl[62] O *D soc_sys
*CAP
1 *985:trimTC[5] 0.00741919
2 *988:analog_ctrl[62] 1.04996e-05
3 *836:10 0.0654141
4 *836:8 0.0580054
5 *985:trimTC[5] *985:trimCurr[4] 0.0025305
6 *985:trimTC[5] *985:pd 0
7 *985:trimTC[5] *985:trimTC[6] 0
8 *836:8 *843:8 4.43752e-05
9 *836:8 *856:8 4.21127e-05
10 *985:trimTC[4] *985:trimTC[5] 7.20618e-05
11 *985:trimTC[0] *985:trimTC[5] 0
12 *81:52 *985:trimTC[5] 2.71463e-05
*RES
1 *988:analog_ctrl[62] *836:8 1.06713 
2 *836:8 *836:10 154.992 
3 *836:10 *985:trimTC[5] 21.7191 
*END

*D_NET *837 0.124224
*CONN
*I *985:trimTC[6] I *D CF_BGR
*I *988:analog_ctrl[63] O *D soc_sys
*CAP
1 *985:trimTC[6] 0.00508351
2 *988:analog_ctrl[63] 0.0502602
3 *837:5 0.0553437
4 *985:trimTC[6] *985:CurrAbsTrim[5] 0.00520135
5 *985:trimTC[5] *985:trimTC[6] 0
6 *70:20 *985:trimTC[6] 0.00451046
7 *81:52 *985:trimTC[6] 0.000278893
8 *105:18 *985:trimTC[6] 0.00344893
9 *109:24 *837:5 9.65729e-05
*RES
1 *988:analog_ctrl[63] *837:5 906.833 
2 *837:5 *985:trimTC[6] 21.9363 
*END

*D_NET *838 0.139823
*CONN
*I *985:trimCurr[0] I *D CF_BGR
*I *988:analog_ctrl[64] O *D soc_sys
*CAP
1 *985:trimCurr[0] 0.00167462
2 *988:analog_ctrl[64] 1.04996e-05
3 *838:10 0.0453009
4 *838:8 0.0436368
5 *985:trimCurr[0] *985:trimCurr[5] 2.11032e-05
6 *985:trimCurr[0] *985:trimCurr[4] 0.00805698
7 *985:trimCurr[0] *985:trimCurr[3] 8.88511e-05
8 *985:trimCurr[0] *985:trimCurr[2] 4.27041e-05
9 *985:trimCurr[0] *985:trimCurr[1] 0.00730103
10 *838:8 *843:8 4.43752e-05
11 *838:8 *856:8 4.21127e-05
12 *838:10 *839:10 0.0336031
*RES
1 *988:analog_ctrl[64] *838:8 1.06713 
2 *838:8 *838:10 155.164 
3 *838:10 *985:trimCurr[0] 14.6179 
*END

*D_NET *839 0.159682
*CONN
*I *985:trimCurr[1] I *D CF_BGR
*I *988:analog_ctrl[65] O *D soc_sys
*CAP
1 *985:trimCurr[1] 0.00174181
2 *988:analog_ctrl[65] 4.63743e-05
3 *839:10 0.0550046
4 *839:8 0.0533092
5 *985:trimCurr[1] *985:trimCurr[4] 0.000123615
6 *985:trimCurr[1] *985:trimCurr[2] 0.00815782
7 *985:trimCurr[1] *985:CurrAbsTrim[2] 5.9286e-06
8 *985:trimCurr[1] *985:CurrAbsTrim[3] 1.33276e-06
9 *839:8 *843:8 0.00019485
10 *839:8 *856:8 0.000192253
11 *985:trimCurr[0] *985:trimCurr[1] 0.00730103
12 *838:10 *839:10 0.0336031
*RES
1 *988:analog_ctrl[65] *839:8 1.3002 
2 *839:8 *839:10 155.25 
3 *839:10 *985:trimCurr[1] 14.8586 
*END

*D_NET *840 0.149971
*CONN
*I *985:trimCurr[2] I *D CF_BGR
*I *988:analog_ctrl[66] O *D soc_sys
*CAP
1 *985:trimCurr[2] 0.00211986
2 *988:analog_ctrl[66] 1.69208e-05
3 *840:10 0.0664446
4 *840:8 0.0643416
5 *985:trimCurr[2] *985:trimCurr[4] 0.00018575
6 *985:trimCurr[2] *985:trimCurr[3] 0.00840967
7 *985:trimCurr[2] *985:CurrAbsTrim[0] 0
8 *985:trimCurr[2] *985:CurrAbsTrim[1] 1.44071e-06
9 *985:trimCurr[2] *985:inl_ctrl[0] 8.77136e-05
10 *840:8 *843:8 8.28896e-05
11 *840:8 *856:8 8.02929e-05
12 *840:10 *841:10 0
13 *985:trimCurr[0] *985:trimCurr[2] 4.27041e-05
14 *985:trimCurr[1] *985:trimCurr[2] 0.00815782
*RES
1 *988:analog_ctrl[66] *840:8 1.1254 
2 *840:8 *840:10 155.336 
3 *840:10 *985:trimCurr[2] 17.3953 
*END

*D_NET *841 0.136741
*CONN
*I *985:trimCurr[3] I *D CF_BGR
*I *988:analog_ctrl[67] O *D soc_sys
*CAP
1 *985:trimCurr[3] 0.00197871
2 *988:analog_ctrl[67] 1.69278e-05
3 *841:10 0.06019
4 *841:8 0.0582282
5 *985:trimCurr[3] *985:trimCurr[5] 0.00521481
6 *985:trimCurr[3] *985:trimCurr[4] 0.000144151
7 *985:trimCurr[3] *985:CurrAbsTrim[0] 0
8 *985:trimCurr[3] *985:inl_ctrl[0] 0
9 *841:8 *843:8 8.28896e-05
10 *841:8 *856:8 8.02886e-05
11 *841:10 *842:10 0
12 *985:trimCurr[2] *985:trimCurr[3] 0.00840967
13 *985:trimCurr[0] *985:trimCurr[3] 8.88511e-05
14 *985:trimTC[0] *985:trimCurr[3] 0.00230659
15 *840:10 *841:10 0
*RES
1 *988:analog_ctrl[67] *841:8 1.1254 
2 *841:8 *841:10 155.423 
3 *841:10 *985:trimCurr[3] 16.8409 
*END

*D_NET *842 0.140667
*CONN
*I *985:trimCurr[4] I *D CF_BGR
*I *988:analog_ctrl[68] O *D soc_sys
*CAP
1 *985:trimCurr[4] 0.00322085
2 *988:analog_ctrl[68] 1.04996e-05
3 *842:10 0.063698
4 *842:8 0.0604876
5 *985:trimCurr[4] *985:dft_sel 0
6 *985:trimCurr[4] *985:inl_ctrl[1] 0.000178435
7 *985:trimCurr[4] *985:inl_ctrl[3] 0.00194424
8 *842:8 *843:8 4.43752e-05
9 *842:8 *856:8 4.21127e-05
10 *985:trimCurr[3] *985:trimCurr[4] 0.000144151
11 *985:trimCurr[2] *985:trimCurr[4] 0.00018575
12 *985:trimCurr[0] *985:trimCurr[4] 0.00805698
13 *985:trimCurr[1] *985:trimCurr[4] 0.000123615
14 *985:trimTC[5] *985:trimCurr[4] 0.0025305
15 *985:trimTC[0] *985:trimCurr[4] 0
16 *841:10 *842:10 0
*RES
1 *988:analog_ctrl[68] *842:8 1.06713 
2 *842:8 *842:10 155.078 
3 *842:10 *985:trimCurr[4] 17.2845 
*END

*D_NET *843 0.182463
*CONN
*I *985:trimCurr[5] I *D CF_BGR
*I *988:analog_ctrl[69] O *D soc_sys
*CAP
1 *985:trimCurr[5] 0.00207347
2 *988:analog_ctrl[69] 0.000986445
3 *843:10 0.0657148
4 *843:8 0.0646278
5 *985:trimCurr[5] *985:CurrAbsTrim[0] 0.00119291
6 *843:8 *856:8 0.00228109
7 *843:8 *862:20 0.00463896
8 *985:trimCurr[3] *985:trimCurr[5] 0.00521481
9 *985:trimCurr[0] *985:trimCurr[5] 2.11032e-05
10 *985:trimTC[0] *985:trimCurr[5] 0.000496363
11 *726:13 *843:10 0.0090448
12 *830:10 *843:10 0
13 *831:5 *843:10 0.0256762
14 *836:8 *843:8 4.43752e-05
15 *838:8 *843:8 4.43752e-05
16 *839:8 *843:8 0.00019485
17 *840:8 *843:8 8.28896e-05
18 *841:8 *843:8 8.28896e-05
19 *842:8 *843:8 4.43752e-05
*RES
1 *988:analog_ctrl[69] *843:8 8.05913 
2 *843:8 *843:10 155.595 
3 *843:10 *985:trimCurr[5] 11.4525 
*END

*D_NET *844 0.348379
*CONN
*I *986:gain[0] I *D CF_BUF_HIZ
*I *988:analog_ctrl[6] O *D soc_sys
*CAP
1 *986:gain[0] 0.000910836
2 *988:analog_ctrl[6] 0.0131281
3 *844:9 0.0638581
4 *844:7 0.0629472
5 *844:5 0.0131281
6 *986:gain[0] *986:gain[1] 0.000508307
7 *986:disable_n *986:gain[0] 0.000569799
8 *986:disable_p *986:gain[0] 3.81927e-05
9 *986:vpwr_core *986:gain[0] 0
10 *986:vpwr_core *844:9 0.00103015
11 *40:51 *844:9 0.000507274
12 *87:25 *844:5 0.00890139
13 *112:18 *986:gain[0] 0.000880459
14 *700:20 *844:9 0.000553998
15 *728:22 *844:9 4.21127e-05
16 *771:19 *844:9 3.81927e-05
17 *772:19 *844:9 8.1472e-05
18 *779:16 *844:9 0.000434755
19 *786:19 *844:9 0.000587747
20 *787:16 *844:9 0.000281181
21 *811:9 *986:gain[0] 0.000144614
22 *811:9 *844:9 0.174995
23 *821:19 *844:9 0.000338621
24 *823:19 *844:9 0.000551196
25 *824:19 *844:9 0.000338621
26 *825:19 *844:9 0.000551196
27 *834:11 *844:9 0.0030324
*RES
1 *988:analog_ctrl[6] *844:5 237.712 
2 *844:5 *844:7 0.5 
3 *844:7 *844:9 261.102 
4 *844:9 *986:gain[0] 6.2462 
*END

*D_NET *845 0.180416
*CONN
*I *985:CurrAbsTrim[0] I *D CF_BGR
*I *988:analog_ctrl[70] O *D soc_sys
*CAP
1 *985:CurrAbsTrim[0] 0.00117238
2 *988:analog_ctrl[70] 0.00343232
3 *845:18 0.0394437
4 *845:16 0.0417037
5 *985:CurrAbsTrim[0] *985:inl_ctrl[0] 0
6 *845:16 *853:29 0.00834909
7 *845:16 *856:8 0.000171084
8 *845:16 *862:20 0.000311379
9 *845:18 *854:18 0.0846273
10 *845:18 *862:22 0
11 *985:trimCurr[5] *985:CurrAbsTrim[0] 0.00119291
12 *985:trimCurr[3] *985:CurrAbsTrim[0] 0
13 *985:trimCurr[2] *985:CurrAbsTrim[0] 0
14 *47:31 *845:18 1.18824e-05
*RES
1 *988:analog_ctrl[70] *845:16 15.4203 
2 *845:16 *845:18 156.284 
3 *845:18 *985:CurrAbsTrim[0] 5.71622 
*END

*D_NET *846 0.141481
*CONN
*I *985:CurrAbsTrim[1] I *D CF_BGR
*I *988:analog_ctrl[71] O *D soc_sys
*CAP
1 *985:CurrAbsTrim[1] 0.00197564
2 *988:analog_ctrl[71] 1.22973e-05
3 *846:10 0.0606698
4 *846:8 0.0587064
5 *985:CurrAbsTrim[1] *985:CurrAbsTrim[2] 0.0104357
6 *985:CurrAbsTrim[1] *985:mux1sel[1] 0.00739806
7 *985:CurrAbsTrim[1] *985:inl_ctrl[0] 0.00198191
8 *846:8 *856:8 4.21127e-05
9 *846:8 *862:20 2.46013e-05
10 *846:10 *985:CurrAbsTrim[2] 0.000233152
11 *846:10 *847:10 0
12 *985:trimCurr[2] *985:CurrAbsTrim[1] 1.44071e-06
*RES
1 *988:analog_ctrl[71] *846:8 1.06713 
2 *846:8 *846:10 156.973 
3 *846:10 *985:CurrAbsTrim[1] 19.5306 
*END

*D_NET *847 0.156075
*CONN
*I *985:CurrAbsTrim[2] I *D CF_BGR
*I *988:analog_ctrl[72] O *D soc_sys
*CAP
1 *985:CurrAbsTrim[2] 0.00345862
2 *988:analog_ctrl[72] 2.02787e-05
3 *847:10 0.0672098
4 *847:8 0.0637715
5 *985:CurrAbsTrim[2] *985:CurrAbsTrim[3] 0.010647
6 *985:CurrAbsTrim[2] *985:mux1sel[1] 0.000166319
7 *985:CurrAbsTrim[2] *985:pd 0
8 *985:CurrAbsTrim[2] *848:10 0
9 *847:8 *856:8 8.02929e-05
10 *847:8 *862:20 4.59533e-05
11 *847:10 *848:10 0
12 *985:trimCurr[1] *985:CurrAbsTrim[2] 5.9286e-06
13 *985:CurrAbsTrim[1] *985:CurrAbsTrim[2] 0.0104357
14 *846:10 *985:CurrAbsTrim[2] 0.000233152
15 *846:10 *847:10 0
*RES
1 *988:analog_ctrl[72] *847:8 1.1254 
2 *847:8 *847:10 153.125 
3 *847:10 *985:CurrAbsTrim[2] 23.3155 
*END

*D_NET *848 0.204829
*CONN
*I *985:CurrAbsTrim[3] I *D CF_BGR
*I *988:analog_ctrl[73] O *D soc_sys
*CAP
1 *985:CurrAbsTrim[3] 0.0021286
2 *988:analog_ctrl[73] 2.02858e-05
3 *848:10 0.0488384
4 *848:8 0.04673
5 *985:CurrAbsTrim[3] *985:mux1sel[1] 0.000232632
6 *985:CurrAbsTrim[3] *985:pd 0.000822284
7 *985:CurrAbsTrim[3] *985:inl_ctrl[0] 0.00923422
8 *848:8 *856:8 8.02886e-05
9 *848:8 *862:20 4.59533e-05
10 *848:10 *985:pd 0.000716456
11 *848:10 *851:10 0.0853317
12 *985:trimCurr[1] *985:CurrAbsTrim[3] 1.33276e-06
13 *985:CurrAbsTrim[2] *985:CurrAbsTrim[3] 0.010647
14 *985:CurrAbsTrim[2] *848:10 0
15 *847:10 *848:10 0
*RES
1 *988:analog_ctrl[73] *848:8 1.1254 
2 *848:8 *848:10 156.801 
3 *848:10 *985:CurrAbsTrim[3] 19.5412 
*END

*D_NET *849 0.131691
*CONN
*I *985:CurrAbsTrim[4] I *D CF_BGR
*I *988:analog_ctrl[74] O *D soc_sys
*CAP
1 *985:CurrAbsTrim[4] 0.00787239
2 *988:analog_ctrl[74] 0.0352241
3 *849:5 0.0430965
4 *985:CurrAbsTrim[4] *985:CurrAbsTrim[5] 0.000108549
5 *985:CurrAbsTrim[4] *985:mux2sel 0.000116022
6 *985:CurrAbsTrim[4] *985:mux1sel[0] 0.00141227
7 *985:CurrAbsTrim[4] *985:inl_ctrl[1] 0.000140419
8 *985:CurrAbsTrim[4] *985:inl_ctrl[3] 0
9 *849:5 *851:10 0.00940454
10 *849:5 *863:22 0.0342982
11 *81:52 *985:CurrAbsTrim[4] 1.75162e-05
*RES
1 *988:analog_ctrl[74] *849:5 897.653 
2 *849:5 *985:CurrAbsTrim[4] 23.3537 
*END

*D_NET *850 0.128061
*CONN
*I *985:CurrAbsTrim[5] I *D CF_BGR
*I *988:analog_ctrl[75] O *D soc_sys
*CAP
1 *985:CurrAbsTrim[5] 0.00244982
2 *988:analog_ctrl[75] 0.050311
3 *850:5 0.0527609
4 *985:CurrAbsTrim[5] *985:mux2sel 3.33419e-05
5 *985:CurrAbsTrim[5] *985:mux1sel[0] 4.72528e-05
6 *985:CurrAbsTrim[4] *985:CurrAbsTrim[5] 0.000108549
7 *985:trimTC[6] *985:CurrAbsTrim[5] 0.00520135
8 *70:20 *985:CurrAbsTrim[5] 0.00231968
9 *72:24 *985:CurrAbsTrim[5] 0.000177524
10 *105:18 *985:CurrAbsTrim[5] 0.0118898
11 *109:24 *985:CurrAbsTrim[5] 0.00276218
*RES
1 *988:analog_ctrl[75] *850:5 907.343 
2 *850:5 *985:CurrAbsTrim[5] 25.0358 
*END

*D_NET *851 0.229708
*CONN
*I *985:inl_ctrl[0] I *D CF_BGR
*I *988:analog_ctrl[76] O *D soc_sys
*CAP
1 *985:inl_ctrl[0] 0.00282218
2 *988:analog_ctrl[76] 0.000208558
3 *851:10 0.045532
4 *851:8 0.0429184
5 *985:inl_ctrl[0] *985:mux1sel[1] 0.00150158
6 *985:inl_ctrl[0] *985:pd 0.00937964
7 *851:8 *856:8 0.0011503
8 *851:8 *862:20 7.47321e-05
9 *851:8 *863:20 0.00102094
10 *851:10 *863:22 0.0190594
11 *985:trimCurr[3] *985:inl_ctrl[0] 0
12 *985:trimCurr[2] *985:inl_ctrl[0] 8.77136e-05
13 *985:CurrAbsTrim[0] *985:inl_ctrl[0] 0
14 *985:CurrAbsTrim[1] *985:inl_ctrl[0] 0.00198191
15 *985:CurrAbsTrim[3] *985:inl_ctrl[0] 0.00923422
16 *848:10 *851:10 0.0853317
17 *849:5 *851:10 0.00940454
*RES
1 *988:analog_ctrl[76] *851:8 2.75687 
2 *851:8 *851:10 156.715 
3 *851:10 *985:inl_ctrl[0] 26.1894 
*END

*D_NET *852 0.119393
*CONN
*I *985:inl_ctrl[1] I *D CF_BGR
*I *988:analog_ctrl[77] O *D soc_sys
*CAP
1 *985:inl_ctrl[1] 0.0102767
2 *988:analog_ctrl[77] 0.0488911
3 *852:5 0.0591678
4 *985:inl_ctrl[1] *985:mux1sel[0] 0
5 *985:inl_ctrl[1] *985:inl_ctrl[5] 0.000268206
6 *985:inl_ctrl[1] *985:inl_ctrl[3] 4.21127e-05
7 *985:inl_ctrl[1] *985:inl_ctrl[2] 9.3291e-05
8 *985:trimCurr[4] *985:inl_ctrl[1] 0.000178435
9 *985:CurrAbsTrim[4] *985:inl_ctrl[1] 0.000140419
10 *985:trimTC[4] *985:inl_ctrl[1] 0
11 *81:52 *985:inl_ctrl[1] 0.000334767
*RES
1 *988:analog_ctrl[77] *852:5 881.843 
2 *852:5 *985:inl_ctrl[1] 29.9473 
*END

*D_NET *853 0.152962
*CONN
*I *985:inl_ctrl[2] I *D CF_BGR
*I *988:analog_ctrl[78] O *D soc_sys
*CAP
1 *985:inl_ctrl[2] 0.000470826
2 *988:analog_ctrl[78] 0.00474341
3 *853:31 0.0587722
4 *853:29 0.0630448
5 *985:inl_ctrl[2] *985:inl_ctrl[6] 4.21127e-05
6 *985:inl_ctrl[2] *985:inl_ctrl[5] 7.84209e-05
7 *985:inl_ctrl[2] *985:inl_ctrl[3] 4.66037e-05
8 *985:inl_ctrl[2] *985:inl_ctrl[4] 4.4197e-05
9 *853:29 *854:16 6.49226e-05
10 *853:29 *856:8 4.21127e-05
11 *853:29 *863:20 4.21127e-05
12 *853:31 *856:10 0
13 *985:inl_ctrl[1] *985:inl_ctrl[2] 9.3291e-05
14 *45:17 *853:31 0
15 *70:14 *853:31 0
16 *81:52 *985:inl_ctrl[2] 0.000531803
17 *671:10 *853:29 0.0145676
18 *814:5 *853:31 0.00202858
19 *845:16 *853:29 0.00834909
*RES
1 *988:analog_ctrl[78] *853:29 34.0253 
2 *853:29 *853:31 154.647 
3 *853:31 *985:inl_ctrl[2] 4.96852 
*END

*D_NET *854 0.197709
*CONN
*I *985:inl_ctrl[3] I *D CF_BGR
*I *988:analog_ctrl[79] O *D soc_sys
*CAP
1 *985:inl_ctrl[3] 0.00132718
2 *988:analog_ctrl[79] 0.00302893
3 *854:18 0.0395338
4 *854:16 0.0412355
5 *985:inl_ctrl[3] *985:mux2sel 0
6 *985:inl_ctrl[3] *985:mux1sel[0] 0
7 *985:inl_ctrl[3] *985:dft_sel 0
8 *985:inl_ctrl[3] *985:pd_ibg 0
9 *985:inl_ctrl[3] *985:inl_ctrl[5] 4.15221e-06
10 *985:inl_ctrl[3] *985:inl_ctrl[4] 3.7429e-05
11 *854:16 *856:8 8.14667e-05
12 *854:16 *862:20 0.00686188
13 *854:16 *863:20 0.000812065
14 *854:18 *985:pd_ibg 0.000528121
15 *985:trimCurr[4] *985:inl_ctrl[3] 0.00194424
16 *985:CurrAbsTrim[4] *985:inl_ctrl[3] 0
17 *985:inl_ctrl[1] *985:inl_ctrl[3] 4.21127e-05
18 *985:inl_ctrl[2] *985:inl_ctrl[3] 4.66037e-05
19 *47:31 *854:18 0.000219422
20 *671:10 *854:16 0.0114538
21 *823:5 *854:18 0.00585955
22 *845:18 *854:18 0.0846273
23 *853:29 *854:16 6.49226e-05
*RES
1 *988:analog_ctrl[79] *854:16 21.0469 
2 *854:16 *854:18 155.336 
3 *854:18 *985:inl_ctrl[3] 17.2304 
*END

*D_NET *855 0.302694
*CONN
*I *986:gain[1] I *D CF_BUF_HIZ
*I *988:analog_ctrl[7] O *D soc_sys
*CAP
1 *986:gain[1] 0.00196305
2 *988:analog_ctrl[7] 0.00841042
3 *855:9 0.0887099
4 *855:7 0.0867469
5 *855:5 0.00841042
6 *855:9 *872:9 0
7 *986:disable_n *986:gain[1] 6.44935e-05
8 *986:disable_p *986:gain[1] 0.00811125
9 *986:enable_hv *986:gain[1] 0.00452927
10 *986:gain[0] *986:gain[1] 0.000508307
11 *986:vpwr_core *986:gain[1] 0
12 *76:22 *855:5 0.00381481
13 *796:9 *855:9 0
14 *797:9 *855:9 0.0914254
*RES
1 *988:analog_ctrl[7] *855:5 152.033 
2 *855:5 *855:7 0.5 
3 *855:7 *855:9 263.607 
4 *855:9 *986:gain[1] 16.7063 
*END

*D_NET *856 0.187637
*CONN
*I *985:inl_ctrl[4] I *D CF_BGR
*I *988:analog_ctrl[80] O *D soc_sys
*CAP
1 *985:inl_ctrl[4] 0.000151456
2 *988:analog_ctrl[80] 0.00644692
3 *856:10 0.0265781
4 *856:8 0.0328735
5 *985:inl_ctrl[4] *985:inl_ctrl[6] 2.20023e-05
6 *985:inl_ctrl[4] *985:inl_ctrl[5] 0.000113986
7 *856:8 *862:20 0.00155216
8 *856:8 *863:20 0.0013045
9 *856:10 *858:13 0.0630597
10 *985:inl_ctrl[3] *985:inl_ctrl[4] 3.7429e-05
11 *985:inl_ctrl[2] *985:inl_ctrl[4] 4.4197e-05
12 *70:14 *856:10 0.0482812
13 *111:13 *856:8 0.00272236
14 *671:10 *856:8 0
15 *830:8 *856:8 4.21127e-05
16 *836:8 *856:8 4.21127e-05
17 *838:8 *856:8 4.21127e-05
18 *839:8 *856:8 0.000192253
19 *840:8 *856:8 8.02929e-05
20 *841:8 *856:8 8.02886e-05
21 *842:8 *856:8 4.21127e-05
22 *843:8 *856:8 0.00228109
23 *845:16 *856:8 0.000171084
24 *846:8 *856:8 4.21127e-05
25 *847:8 *856:8 8.02929e-05
26 *848:8 *856:8 8.02886e-05
27 *851:8 *856:8 0.0011503
28 *853:29 *856:8 4.21127e-05
29 *853:31 *856:10 0
30 *854:16 *856:8 8.14667e-05
*RES
1 *988:analog_ctrl[80] *856:8 24.4321 
2 *856:8 *856:10 154.303 
3 *856:10 *985:inl_ctrl[4] 1.92667 
*END

*D_NET *857 0.123396
*CONN
*I *985:inl_ctrl[5] I *D CF_BGR
*I *988:analog_ctrl[81] O *D soc_sys
*CAP
1 *985:inl_ctrl[5] 0.0142573
2 *988:analog_ctrl[81] 0.0471693
3 *857:5 0.0614266
4 *985:inl_ctrl[5] *985:mux1sel[0] 0
5 *985:inl_ctrl[5] *985:inl_ctrl[6] 6.61064e-05
6 *985:inl_ctrl[1] *985:inl_ctrl[5] 0.000268206
7 *985:inl_ctrl[3] *985:inl_ctrl[5] 4.15221e-06
8 *985:inl_ctrl[2] *985:inl_ctrl[5] 7.84209e-05
9 *985:inl_ctrl[4] *985:inl_ctrl[5] 0.000113986
10 *81:52 *985:inl_ctrl[5] 1.18044e-05
*RES
1 *988:analog_ctrl[81] *857:5 850.732 
2 *857:5 *985:inl_ctrl[5] 37.3941 
*END

*D_NET *858 0.175998
*CONN
*I *985:inl_ctrl[6] I *D CF_BGR
*I *988:analog_ctrl[82] O *D soc_sys
*CAP
1 *985:inl_ctrl[6] 0.000109863
2 *988:analog_ctrl[82] 0.0129989
3 *858:13 0.0335795
4 *858:11 0.0432952
5 *858:5 0.0228245
6 *985:inl_ctrl[5] *985:inl_ctrl[6] 6.61064e-05
7 *985:inl_ctrl[2] *985:inl_ctrl[6] 4.21127e-05
8 *985:inl_ctrl[4] *985:inl_ctrl[6] 2.20023e-05
9 *112:18 *858:11 0
10 *856:10 *858:13 0.0630597
*RES
1 *988:analog_ctrl[82] *858:5 230.062 
2 *858:5 *858:11 25.5974 
3 *858:11 *858:13 115.198 
4 *858:13 *985:inl_ctrl[6] 3.01338 
*END

*D_NET *859 0.125197
*CONN
*I *985:mux1sel[0] I *D CF_BGR
*I *988:analog_ctrl[83] O *D soc_sys
*CAP
1 *985:mux1sel[0] 0.0117966
2 *988:analog_ctrl[83] 0.0468777
3 *859:5 0.0586743
4 *985:mux1sel[0] *985:mux2sel 0.00621587
5 *985:mux1sel[0] *985:dft_sel 6.82494e-05
6 *985:CurrAbsTrim[5] *985:mux1sel[0] 4.72528e-05
7 *985:CurrAbsTrim[4] *985:mux1sel[0] 0.00141227
8 *985:inl_ctrl[1] *985:mux1sel[0] 0
9 *985:inl_ctrl[5] *985:mux1sel[0] 0
10 *985:inl_ctrl[3] *985:mux1sel[0] 0
11 *81:52 *985:mux1sel[0] 0.000104904
*RES
1 *988:analog_ctrl[83] *859:5 845.633 
2 *859:5 *985:mux1sel[0] 38.6263 
*END

*D_NET *860 0.143523
*CONN
*I *985:mux1sel[1] I *D CF_BGR
*I *988:analog_ctrl[84] O *D soc_sys
*CAP
1 *985:mux1sel[1] 0.00701112
2 *988:analog_ctrl[84] 0.00024155
3 *860:10 0.0664918
4 *860:8 0.0597222
5 *985:mux1sel[1] *985:pd 4.74478e-05
6 *860:8 *862:20 0.000606391
7 *985:CurrAbsTrim[1] *985:mux1sel[1] 0.00739806
8 *985:CurrAbsTrim[2] *985:mux1sel[1] 0.000166319
9 *985:CurrAbsTrim[3] *985:mux1sel[1] 0.000232632
10 *985:inl_ctrl[0] *985:mux1sel[1] 0.00150158
11 *111:13 *860:8 0.000103899
*RES
1 *988:analog_ctrl[84] *860:8 1.94113 
2 *860:8 *860:10 156.973 
3 *860:10 *985:mux1sel[1] 27.9196 
*END

*D_NET *861 0.127189
*CONN
*I *985:mux2sel I *D CF_BGR
*I *988:analog_ctrl[85] O *D soc_sys
*CAP
1 *985:mux2sel 0.0152616
2 *988:analog_ctrl[85] 0.0451502
3 *861:5 0.0604117
4 *985:mux2sel *985:pd_ibg 0
5 *985:CurrAbsTrim[5] *985:mux2sel 3.33419e-05
6 *985:CurrAbsTrim[4] *985:mux2sel 0.000116022
7 *985:mux1sel[0] *985:mux2sel 0.00621587
8 *985:inl_ctrl[3] *985:mux2sel 0
*RES
1 *988:analog_ctrl[85] *861:5 814.523 
2 *861:5 *985:mux2sel 43.6937 
*END

*D_NET *862 0.162559
*CONN
*I *985:dft_sel I *D CF_BGR
*I *988:analog_ctrl[86] O *D soc_sys
*CAP
1 *985:dft_sel 0.00050439
2 *988:analog_ctrl[86] 0.00443815
3 *862:22 0.0663414
4 *862:20 0.0702752
5 *985:dft_sel *985:pd_ibg 0.000583463
6 *862:20 *863:20 0.0037505
7 *862:22 *867:13 0
8 *985:trimCurr[4] *985:dft_sel 0
9 *985:mux1sel[0] *985:dft_sel 6.82494e-05
10 *985:inl_ctrl[3] *985:dft_sel 0
11 *81:52 *985:dft_sel 0.000417803
12 *111:13 *862:20 0
13 *671:10 *862:20 0.000746131
14 *824:5 *862:22 0.00124672
15 *830:8 *862:20 2.46013e-05
16 *843:8 *862:20 0.00463896
17 *845:16 *862:20 0.000311379
18 *845:18 *862:22 0
19 *846:8 *862:20 2.46013e-05
20 *847:8 *862:20 4.59533e-05
21 *848:8 *862:20 4.59533e-05
22 *851:8 *862:20 7.47321e-05
23 *854:16 *862:20 0.00686188
24 *856:8 *862:20 0.00155216
25 *860:8 *862:20 0.000606391
*RES
1 *988:analog_ctrl[86] *862:20 24.9963 
2 *862:20 *862:22 154.475 
3 *862:22 *985:dft_sel 4.05863 
*END

*D_NET *863 0.157452
*CONN
*I *985:pd I *D CF_BGR
*I *988:analog_ctrl[87] O *D soc_sys
*CAP
1 *985:pd 0.00458881
2 *988:analog_ctrl[87] 0.0019573
3 *863:22 0.0407066
4 *863:20 0.0380751
5 *985:CurrAbsTrim[2] *985:pd 0
6 *985:CurrAbsTrim[3] *985:pd 0.000822284
7 *985:mux1sel[1] *985:pd 4.74478e-05
8 *985:trimTC[5] *985:pd 0
9 *985:inl_ctrl[0] *985:pd 0.00937964
10 *81:52 *985:pd 0.000126649
11 *111:13 *863:20 0
12 *671:10 *863:20 0.000743816
13 *848:10 *985:pd 0.000716456
14 *849:5 *863:22 0.0342982
15 *851:8 *863:20 0.00102094
16 *851:10 *863:22 0.0190594
17 *853:29 *863:20 4.21127e-05
18 *854:16 *863:20 0.000812065
19 *856:8 *863:20 0.0013045
20 *862:20 *863:20 0.0037505
*RES
1 *988:analog_ctrl[87] *863:20 11.8025 
2 *863:20 *863:22 912.705 
3 *863:22 *985:pd 21.9515 
*END

*D_NET *864 0.122958
*CONN
*I *985:pd_ibg I *D CF_BGR
*I *988:analog_ctrl[88] O *D soc_sys
*CAP
1 *985:pd_ibg 0.0129074
2 *988:analog_ctrl[88] 0.0480156
3 *864:5 0.0609231
4 *985:mux2sel *985:pd_ibg 0
5 *985:dft_sel *985:pd_ibg 0.000583463
6 *985:inl_ctrl[3] *985:pd_ibg 0
7 *854:18 *985:pd_ibg 0.000528121
*RES
1 *988:analog_ctrl[88] *864:5 866.542 
2 *864:5 *985:pd_ibg 36.4674 
*END

*D_NET *865 0.104634
*CONN
*I *985:finetune I *D CF_BGR
*I *988:analog_ctrl[89] O *D soc_sys
*CAP
1 *985:finetune 0.00221111
2 *988:analog_ctrl[89] 0.0499028
3 *865:5 0.0521139
4 *985:trimTC[1] *985:finetune 0.000380172
5 *81:52 *985:finetune 2.59868e-05
*RES
1 *988:analog_ctrl[89] *865:5 900.713 
2 *865:5 *985:finetune 8.50397 
*END

*D_NET *866 0.317195
*CONN
*I *984:reset_b I *D CF_ADC_DSM20
*I *988:analog_ctrl[8] O *D soc_sys
*CAP
1 *984:reset_b 0.00172967
2 *988:analog_ctrl[8] 0.00558779
3 *866:41 0.0039555
4 *866:25 0.00291735
5 *866:13 0.0238194
6 *866:11 0.0231279
7 *866:9 0.0515281
8 *866:7 0.0515281
9 *866:5 0.00558779
10 *984:IPCAP1[0] *866:13 0.000206613
11 *984:FCAP1[0] *866:13 2.0806e-05
12 *984:FCAP1[0] *866:25 7.0957e-06
13 *984:ODET_TH[3] *866:13 1.52314e-05
14 *984:TESTMODE *866:41 0.00179369
15 *984:SCANINPUT *984:reset_b 0.00139734
16 *984:SCANCLK *984:reset_b 0.0035634
17 *984:SCANCLK *866:41 0.00077986
18 *76:22 *866:5 0.00232715
19 *661:16 *866:41 0.000105914
20 *662:16 *866:41 2.22804e-05
21 *663:16 *866:41 1.54524e-05
22 *666:16 *866:41 2.2282e-05
23 *680:11 *866:9 0
24 *716:45 *866:13 0.00118122
25 *759:9 *866:9 0
26 *759:27 *984:reset_b 0.00233448
27 *796:13 *866:13 0
28 *810:9 *866:9 0.0821805
29 *814:9 *866:9 0
30 *828:13 *866:13 0.0514404
*RES
1 *988:analog_ctrl[8] *866:5 100.522 
2 *866:5 *866:7 0.5 
3 *866:7 *866:9 171.138 
4 *866:9 *866:11 0.5 
5 *866:11 *866:13 94.8708 
6 *866:13 *866:25 13.6238 
7 *866:25 *866:41 43.3387 
8 *866:41 *984:reset_b 54.3225 
*END

*D_NET *867 0.160774
*CONN
*I *985:en_startb I *D CF_BGR
*I *988:analog_ctrl[90] O *D soc_sys
*CAP
1 *985:en_startb 0.000118876
2 *988:analog_ctrl[90] 0.0132863
3 *867:13 0.0564291
4 *867:11 0.0612202
5 *867:5 0.0181963
6 *1:17 *867:13 0
7 *112:18 *867:11 0.0066121
8 *811:9 *867:11 0.00491134
9 *862:22 *867:13 0
*RES
1 *988:analog_ctrl[90] *867:5 235.163 
2 *867:5 *867:11 24.8982 
3 *867:11 *867:13 151.891 
4 *867:13 *985:en_startb 4.29713 
*END

*D_NET *868 0.143594
*CONN
*I *987:pd I *D CF_REFBUF
*I *988:analog_ctrl[91] O *D soc_sys
*CAP
1 *987:pd 0.0127016
2 *988:analog_ctrl[91] 0.00136598
3 *868:13 0.0611722
4 *868:11 0.051226
5 *868:7 0.00412148
6 *670:26 *987:pd 0.00160074
7 *670:71 *987:pd 0.000848137
8 *675:5 *868:13 0.0105579
9 *676:5 *868:13 0
*RES
1 *988:analog_ctrl[91] *868:7 25.13 
2 *868:7 *868:11 47.99 
3 *868:11 *868:13 918.487 
4 *868:13 *987:pd 39.2015 
*END

*D_NET *869 0.176908
*CONN
*I *987:switchon I *D CF_REFBUF
*I *988:analog_ctrl[92] O *D soc_sys
*CAP
1 *987:switchon 0.0176754
2 *988:analog_ctrl[92] 0.041757
3 *869:11 0.0362572
4 *869:5 0.0603388
5 *987:switchon *870:19 0
6 *834:13 *869:5 0.0208792
*RES
1 *988:analog_ctrl[92] *869:5 752.812 
2 *869:5 *869:11 49.8946 
3 *869:11 *987:switchon 49.1042 
*END

*D_NET *870 0.155836
*CONN
*I *987:boost I *D CF_REFBUF
*I *988:analog_ctrl[93] O *D soc_sys
*CAP
1 *987:boost 6.24221e-05
2 *988:analog_ctrl[93] 0.0414412
3 *870:19 0.0178923
4 *870:11 0.0364144
5 *870:5 0.0600257
6 *987:switchon *870:19 0
*RES
1 *988:analog_ctrl[93] *870:5 747.203 
2 *870:5 *870:11 49.9529 
3 *870:11 *870:19 49.5982 
4 *870:19 *987:boost 1.0725 
*END

*D_NET *871 0.142244
*CONN
*I *987:ch_cont I *D CF_REFBUF
*I *988:analog_ctrl[94] O *D soc_sys
*CAP
1 *987:ch_cont 0.0109949
2 *988:analog_ctrl[94] 0.0127167
3 *871:13 0.054394
4 *871:11 0.0433991
5 *871:9 0.00401147
6 *871:7 0.00401147
7 *871:5 0.0127167
*RES
1 *988:analog_ctrl[94] *871:5 224.835 
2 *871:5 *871:7 2 
3 *871:7 *871:9 70.83 
4 *871:9 *871:11 2 
5 *871:11 *871:13 787.672 
6 *871:13 *987:ch_cont 33.0835 
*END

*D_NET *872 0.209713
*CONN
*I *984:itrim_comp[0] I *D CF_ADC_DSM20
*I *988:analog_ctrl[95] O *D soc_sys
*CAP
1 *984:itrim_comp[0] 3.48835e-05
2 *988:analog_ctrl[95] 0.00835313
3 *872:13 0.0209781
4 *872:11 0.0209432
5 *872:9 0.0377803
6 *872:7 0.0377803
7 *872:5 0.00835313
8 *872:13 *873:13 0
9 *796:9 *872:9 0.0754897
10 *855:9 *872:9 0
*RES
1 *988:analog_ctrl[95] *872:5 147.443 
2 *872:5 *872:7 0.5 
3 *872:7 *872:9 128.429 
4 *872:9 *872:11 0.5 
5 *872:11 *872:13 55.8955 
6 *872:13 *984:itrim_comp[0] 1.06713 
*END

*D_NET *873 0.227843
*CONN
*I *984:itrim_comp[1] I *D CF_ADC_DSM20
*I *988:analog_ctrl[96] O *D soc_sys
*CAP
1 *984:itrim_comp[1] 3.48835e-05
2 *988:analog_ctrl[96] 0.0098195
3 *873:13 0.0140421
4 *873:11 0.0140072
5 *873:9 0.0361087
6 *873:7 0.0361087
7 *873:5 0.0098195
8 *984:phi2_buffer *873:13 4.67438e-06
9 *715:19 *873:13 0.000204604
10 *748:9 *873:9 0
11 *793:9 *873:9 0.0834908
12 *826:19 *873:13 0.000623417
13 *826:21 *873:13 0.0235785
14 *872:13 *873:13 0
*RES
1 *988:analog_ctrl[96] *873:5 173.452 
2 *873:5 *873:7 0.5 
3 *873:7 *873:9 128.487 
4 *873:9 *873:11 0.5 
5 *873:11 *873:13 51.4507 
6 *873:13 *984:itrim_comp[1] 1.06713 
*END

*D_NET *874 0.236905
*CONN
*I *984:itrim_comp[2] I *D CF_ADC_DSM20
*I *988:analog_ctrl[97] O *D soc_sys
*CAP
1 *984:itrim_comp[2] 0.000158333
2 *988:analog_ctrl[97] 0.0031085
3 *874:17 0.00998698
4 *874:15 0.00982864
5 *874:13 0.0181721
6 *874:11 0.0181721
7 *874:9 0.0215952
8 *874:7 0.0215952
9 *874:5 0.0031085
10 *984:itrim_comp[2] *984:itrim_comp[3] 1.45385e-05
11 *874:17 *875:17 0.0336621
12 *984:ODET_TH[2] *874:17 0
13 *984:ODET_TH[0] *874:17 0
14 *984:MODINPUT *874:17 0.000327933
15 *984:BUF_CHOP_EN *874:17 3.75165e-05
16 *984:BUF_FCHOP[2] *874:17 0.00698794
17 *984:BUF_FCHOP[1] *874:17 0.00313798
18 *984:RESET_DEC_INPUT *874:17 1.14079e-05
19 *646:20 *984:itrim_comp[2] 5.11295e-05
20 *658:18 *874:13 0.0372871
21 *660:18 *874:13 0
22 *782:9 *874:9 0
23 *791:13 *874:13 0
24 *800:9 *874:9 0.0496399
25 *802:25 *874:17 2.16583e-05
*RES
1 *988:analog_ctrl[97] *874:5 54.6225 
2 *874:5 *874:7 0.5 
3 *874:7 *874:9 76.4547 
4 *874:9 *874:11 0.5 
5 *874:11 *874:13 71.5287 
6 *874:13 *874:15 0.5 
7 *874:15 *874:17 50.3221 
8 *874:17 *984:itrim_comp[2] 1.20807 
*END

*D_NET *875 0.231438
*CONN
*I *984:itrim_comp[3] I *D CF_ADC_DSM20
*I *988:analog_ctrl[98] O *D soc_sys
*CAP
1 *984:itrim_comp[3] 2.72315e-05
2 *988:analog_ctrl[98] 0.00953969
3 *875:17 0.0118432
4 *875:15 0.011816
5 *875:13 0.011947
6 *875:11 0.011947
7 *875:9 0.0173178
8 *875:7 0.0173178
9 *875:5 0.00953969
10 *984:MODBIT *875:17 0.0161601
11 *984:SIGN *875:17 2.13276e-05
12 *984:MODINPUT *875:17 0.00177989
13 *984:itrim_comp[2] *984:itrim_comp[3] 1.45385e-05
14 *646:20 *984:itrim_comp[3] 2.18475e-05
15 *646:20 *875:17 0.00299192
16 *659:20 *875:17 0.00157748
17 *780:10 *875:13 0.0021031
18 *783:10 *875:13 0.0283475
19 *793:9 *875:9 0
20 *794:9 *875:9 0.0434624
21 *874:17 *875:17 0.0336621
*RES
1 *988:analog_ctrl[98] *875:5 168.352 
2 *875:5 *875:7 0.5 
3 *875:7 *875:9 65.3258 
4 *875:9 *875:11 0.5 
5 *875:11 *875:13 52.2348 
6 *875:13 *875:15 0.5 
7 *875:15 *875:17 60.8101 
8 *875:17 *984:itrim_comp[3] 0.633 
*END

*D_NET *876 0.0777447
*CONN
*I *984:itrim_2_3[0] I *D CF_ADC_DSM20
*I *988:analog_ctrl[99] O *D soc_sys
*CAP
1 *984:itrim_2_3[0] 0.00767212
2 *988:analog_ctrl[99] 0.0092253
3 *876:11 0.02086
4 *876:5 0.0224132
5 *119:17 *876:5 0.000633896
6 *674:11 *876:11 0
7 *724:10 *984:itrim_2_3[0] 0.0169402
8 *725:10 *984:itrim_2_3[0] 0
9 *792:9 *876:11 0
10 *794:9 *876:11 0
*RES
1 *988:analog_ctrl[99] *876:5 162.742 
2 *876:5 *876:11 32.5894 
3 *876:11 *984:itrim_2_3[0] 32.21 
*END

*D_NET *877 0.285501
*CONN
*I *984:disable_mod I *D CF_ADC_DSM20
*I *988:analog_ctrl[9] O *D soc_sys
*CAP
1 *984:disable_mod 0.0252337
2 *988:analog_ctrl[9] 0.00345562
3 *877:13 0.0380365
4 *877:11 0.0128028
5 *877:9 0.0324358
6 *877:7 0.0324358
7 *877:5 0.00345562
8 *984:ODET_TH[4] *984:disable_mod 0.00113821
9 *984:ODET_TH[3] *984:disable_mod 0.00135806
10 *984:ODET_TH[2] *984:disable_mod 0.001577
11 *984:ODET_TH[1] *984:disable_mod 0.00164246
12 *984:ODET_TH[0] *984:disable_mod 0.0015174
13 *984:RESET1 *984:disable_mod 0.00222044
14 *984:dig_test_sel[2] *984:disable_mod 0.00361751
15 *984:dig_test_sel[1] *984:disable_mod 0.00255726
16 *984:MODINPUT *984:disable_mod 0.00206059
17 *47:23 *877:5 0
18 *782:9 *877:9 0.0822148
19 *784:10 *877:13 0.0223443
20 *785:10 *877:13 0.0153968
21 *821:9 *877:9 0
*RES
1 *988:analog_ctrl[9] *877:5 59.7225 
2 *877:5 *877:7 0.5 
3 *877:7 *877:9 123.418 
4 *877:9 *877:11 0.5 
5 *877:11 *877:13 71.7009 
6 *877:13 *984:disable_mod 5.93641 
*END

*D_NET *880 0.0476585
*CONN
*I *988:sram_ack_i I *D soc_sys
*I *989:wbs_ack_o O *D CF_SRAM_1024x32_wb_wrapper
*CAP
1 *988:sram_ack_i 0.00343653
2 *989:wbs_ack_o 0.00353413
3 *880:15 0.00697066
4 *988:sram_ack_i *913:7 0
5 *988:sram_ack_i *941:13 0.00313722
6 *880:15 *989:wbs_adr_i[1] 0.000104749
7 *880:15 *989:wbs_adr_i[3] 0.0111068
8 *880:15 *989:wbs_adr_i[4] 0.00918156
9 *880:15 *989:wbs_cyc_i 0
10 *880:15 *989:wbs_dat_i[3] 3.67011e-06
11 *880:15 *989:wbs_we_i 6.34234e-05
12 *880:15 *885:19 0.00230645
13 *880:15 *886:13 0.000123839
14 *880:15 *887:19 0.000176307
15 *880:15 *887:21 0.000115549
16 *880:15 *888:19 0.000449149
17 *880:15 *888:21 0.00201961
18 *880:15 *889:17 0.0022034
19 *880:15 *894:19 0.00055479
20 *880:15 *896:19 2.34629e-05
21 *880:15 *928:19 0.00185998
22 *989:wb_rst_i *880:15 0
23 *40:53 *988:sram_ack_i 0.000287211
*RES
1 *989:wbs_ack_o *880:15 27.8386 
2 *880:15 *988:sram_ack_i 41.3058 
*END

*D_NET *881 0.0469341
*CONN
*I *989:wbs_adr_i[0] I *D CF_SRAM_1024x32_wb_wrapper
*I *988:sram_adr_o[0] O *D soc_sys
*CAP
1 *989:wbs_adr_i[0] 0.00423483
2 *988:sram_adr_o[0] 0.000145838
3 *881:9 0.00710286
4 *881:7 0.00301387
5 *989:wbs_adr_i[0] *989:wbs_adr_i[10] 0.0162037
6 *989:wbs_adr_i[0] *989:wbs_adr_i[11] 0.00354354
7 *989:wbs_adr_i[0] *989:wbs_adr_i[6] 0.000224964
8 *989:wbs_adr_i[0] *989:wbs_cyc_i 0.00460996
9 *989:wbs_adr_i[0] *989:wbs_dat_i[0] 0
10 *989:wbs_adr_i[0] *989:wbs_stb_i 0
11 *989:wbs_adr_i[0] *989:wbs_we_i 0
12 *989:wbs_adr_i[0] *884:19 0.00381533
13 *989:wbs_adr_i[0] *885:19 0.000499808
14 *989:wbs_adr_i[0] *895:19 6.6621e-05
15 *881:7 *988:sram_dat_i[0] 0
16 *881:7 *983:7 0
17 *881:9 *978:11 0
18 *881:9 *979:11 0
19 *36:23 *989:wbs_adr_i[0] 0.000202785
20 *36:25 *989:wbs_adr_i[0] 0.00265601
21 *39:17 *989:wbs_adr_i[0] 0.000104651
22 *40:57 *989:wbs_adr_i[0] 0.000346791
23 *67:21 *989:wbs_adr_i[0] 0.000162573
*RES
1 *988:sram_adr_o[0] *881:7 0.897733 
2 *881:7 *881:9 50.085 
3 *881:9 *989:wbs_adr_i[0] 35.9949 
*END

*D_NET *882 0.0752405
*CONN
*I *989:wbs_adr_i[10] I *D CF_SRAM_1024x32_wb_wrapper
*I *988:sram_adr_o[10] O *D soc_sys
*CAP
1 *989:wbs_adr_i[10] 0.00700061
2 *988:sram_adr_o[10] 0.00121317
3 *882:9 0.0130794
4 *882:7 0.00729199
5 *989:wbs_adr_i[10] *989:wbs_adr_i[11] 0.00564697
6 *989:wbs_adr_i[10] *989:wbs_adr_i[2] 0.00852633
7 *989:wbs_adr_i[10] *989:wbs_adr_i[4] 0.000638146
8 *989:wbs_adr_i[10] *989:wbs_adr_i[6] 0.000965019
9 *989:wbs_adr_i[10] *989:wbs_dat_i[10] 0
10 *989:wbs_adr_i[10] *989:wbs_dat_i[4] 0
11 *989:wbs_adr_i[10] *989:wbs_dat_i[8] 0
12 *989:wbs_adr_i[10] *884:21 0.000202629
13 *989:wbs_adr_i[10] *885:19 0.00301236
14 *989:wbs_adr_i[10] *924:23 4.2145e-05
15 *989:wbs_adr_i[10] *929:11 0
16 *989:wbs_adr_i[10] *945:7 0
17 *882:7 *988:sram_dat_i[10] 0
18 *882:7 *982:7 0
19 *882:9 *932:13 0
20 *882:9 *943:21 0.011418
21 *989:wbs_adr_i[0] *989:wbs_adr_i[10] 0.0162037
*RES
1 *988:sram_adr_o[10] *882:7 3.51973 
2 *882:7 *882:9 153.615 
3 *882:9 *989:wbs_adr_i[10] 42.7682 
*END

*D_NET *883 0.0898474
*CONN
*I *989:wbs_adr_i[11] I *D CF_SRAM_1024x32_wb_wrapper
*I *988:sram_adr_o[11] O *D soc_sys
*CAP
1 *989:wbs_adr_i[11] 0.025797
2 *988:sram_adr_o[11] 0.025797
3 *989:wbs_adr_i[11] *988:sram_dat_i[11] 0
4 *989:wbs_adr_i[11] *989:wbs_adr_i[6] 0.00012615
5 *989:wbs_adr_i[11] *989:wbs_adr_i[7] 0.000113257
6 *989:wbs_adr_i[11] *989:wbs_adr_i[8] 0.000113257
7 *989:wbs_adr_i[11] *989:wbs_adr_i[9] 0.0139803
8 *989:wbs_adr_i[11] *989:wbs_dat_i[10] 0.000119906
9 *989:wbs_adr_i[11] *989:wbs_dat_i[25] 0.000277825
10 *989:wbs_adr_i[11] *884:19 0.000698163
11 *989:wbs_adr_i[11] *915:7 0.000138465
12 *989:wbs_adr_i[11] *917:19 0.000320135
13 *989:wbs_adr_i[11] *918:19 0.000113257
14 *989:wbs_adr_i[11] *930:13 0.00164822
15 *989:wbs_adr_i[11] *931:13 0.00181939
16 *989:wbs_adr_i[11] *952:7 0
17 *989:wbs_adr_i[11] *976:9 0.000760724
18 *989:wbs_adr_i[0] *989:wbs_adr_i[11] 0.00354354
19 *989:wbs_adr_i[10] *989:wbs_adr_i[11] 0.00564697
20 *39:17 *989:wbs_adr_i[11] 0.000222987
21 *40:53 *989:wbs_adr_i[11] 0
22 *40:57 *989:wbs_adr_i[11] 0.000154607
23 *65:21 *989:wbs_adr_i[11] 6.8232e-05
24 *67:17 *989:wbs_adr_i[11] 0.00838797
*RES
1 *988:sram_adr_o[11] *989:wbs_adr_i[11] 38.8515 
*END

*D_NET *884 0.0800455
*CONN
*I *989:wbs_adr_i[12] I *D CF_SRAM_1024x32_wb_wrapper
*I *988:sram_adr_o[12] O *D soc_sys
*CAP
1 *989:wbs_adr_i[12] 0.000458779
2 *988:sram_adr_o[12] 0.00239149
3 *884:21 0.00636891
4 *884:19 0.0068962
5 *884:9 0.00526835
6 *884:7 0.00667377
7 *989:wbs_adr_i[12] *989:wbs_dat_i[12] 0
8 *989:wbs_adr_i[12] *916:7 0
9 *884:7 *988:sram_dat_i[12] 0
10 *884:7 *953:7 0
11 *884:9 *894:9 0
12 *884:9 *915:21 0.0139615
13 *884:9 *942:52 0.000476635
14 *884:9 *949:9 0.00853109
15 *884:19 *989:wbs_cyc_i 0.000439707
16 *884:19 *895:19 0.00125686
17 *884:19 *915:19 0.000293863
18 *884:19 *916:19 0.00161898
19 *884:19 *925:15 0.000188622
20 *884:21 *989:wbs_adr_i[2] 0.00164227
21 *884:21 *989:wbs_adr_i[4] 0.000715261
22 *884:21 *885:21 0.0173695
23 *884:21 *895:21 0
24 *989:wbs_adr_i[0] *884:19 0.00381533
25 *989:wbs_adr_i[10] *884:21 0.000202629
26 *989:wbs_adr_i[11] *884:19 0.000698163
27 *37:29 *884:9 0.000777617
*RES
1 *988:sram_adr_o[12] *884:7 6.49133 
2 *884:7 *884:9 172.995 
3 *884:9 *884:19 11.0789 
4 *884:19 *884:21 160.185 
5 *884:21 *989:wbs_adr_i[12] 8.555 
*END

*D_NET *885 0.0792145
*CONN
*I *989:wbs_adr_i[13] I *D CF_SRAM_1024x32_wb_wrapper
*I *988:sram_adr_o[13] O *D soc_sys
*CAP
1 *989:wbs_adr_i[13] 0.000446469
2 *988:sram_adr_o[13] 0.000529949
3 *885:21 0.00314743
4 *885:19 0.00459586
5 *885:9 0.0121655
6 *885:7 0.0108006
7 *989:wbs_adr_i[13] *989:wbs_dat_i[13] 0
8 *989:wbs_adr_i[13] *917:7 0
9 *885:7 *988:sram_dat_i[13] 0
10 *885:7 *954:7 0
11 *885:19 *989:wbs_adr_i[2] 9.96619e-05
12 *885:19 *989:wbs_adr_i[3] 0.00141838
13 *885:19 *924:23 3.92756e-05
14 *885:19 *928:19 7.52092e-05
15 *885:19 *962:35 3.91137e-05
16 *885:21 *989:wbs_adr_i[2] 0.00180073
17 *885:21 *989:wbs_adr_i[4] 0.000693287
18 *885:21 *886:13 0.0182221
19 *989:wbs_adr_i[0] *885:19 0.000499808
20 *989:wbs_adr_i[10] *885:19 0.00301236
21 *38:29 *885:19 0.000173694
22 *67:21 *885:19 0.00177909
23 *880:15 *885:19 0.00230645
24 *884:21 *885:21 0.0173695
*RES
1 *988:sram_adr_o[13] *885:7 1.77173 
2 *885:7 *885:9 180.135 
3 *885:9 *885:19 13.5474 
4 *885:19 *885:21 168.12 
5 *885:21 *989:wbs_adr_i[13] 8.3 
*END

*D_NET *886 0.0957674
*CONN
*I *989:wbs_adr_i[14] I *D CF_SRAM_1024x32_wb_wrapper
*I *988:sram_adr_o[14] O *D soc_sys
*CAP
1 *989:wbs_adr_i[14] 0.000421713
2 *988:sram_adr_o[14] 0.00427501
3 *886:13 0.00336284
4 *886:11 0.00294113
5 *886:9 0.00324123
6 *886:7 0.00751624
7 *989:wbs_adr_i[14] *989:wbs_dat_i[14] 0
8 *989:wbs_adr_i[14] *918:7 0
9 *886:7 *988:sram_dat_i[14] 0
10 *886:7 *955:7 0
11 *886:9 *919:13 0.0167818
12 *886:9 *924:23 0.00223878
13 *886:9 *953:9 0.0148494
14 *886:9 *958:9 0
15 *886:13 *989:wbs_adr_i[4] 0.00229217
16 *886:13 *887:21 0.0189987
17 *886:13 *888:21 0.000198547
18 *886:13 *913:19 0.000303911
19 *880:15 *886:13 0.000123839
20 *885:21 *886:13 0.0182221
*RES
1 *988:sram_adr_o[14] *886:7 10.8613 
2 *886:7 *886:9 188.678 
3 *886:9 *886:11 2 
4 *886:11 *886:13 178.815 
5 *886:13 *989:wbs_adr_i[14] 8.045 
*END

*D_NET *887 0.098115
*CONN
*I *989:wbs_adr_i[15] I *D CF_SRAM_1024x32_wb_wrapper
*I *988:sram_adr_o[15] O *D soc_sys
*CAP
1 *989:wbs_adr_i[15] 0.000409499
2 *988:sram_adr_o[15] 0.00382582
3 *887:21 0.00326922
4 *887:19 0.00337973
5 *887:9 0.00446874
6 *887:7 0.00777454
7 *989:wbs_adr_i[15] *989:wbs_dat_i[15] 0
8 *989:wbs_adr_i[15] *919:7 0
9 *989:wbs_adr_i[15] *920:7 0
10 *887:7 *988:sram_dat_i[15] 0
11 *887:7 *956:7 0
12 *887:9 *927:13 0.016908
13 *887:9 *954:9 0.0150602
14 *887:19 *989:wbs_adr_i[1] 4.04441e-06
15 *887:19 *989:wbs_dat_i[3] 0.000997963
16 *887:19 *888:19 0.000462229
17 *887:19 *896:19 4.4533e-05
18 *887:19 *907:9 1.3729e-05
19 *887:19 *922:15 0.000140251
20 *887:19 *980:31 0
21 *887:21 *989:wbs_adr_i[4] 0.00251058
22 *887:21 *888:21 0.0195554
23 *880:15 *887:19 0.000176307
24 *880:15 *887:21 0.000115549
25 *886:13 *887:21 0.0189987
*RES
1 *988:sram_adr_o[15] *887:7 9.8708 
2 *887:7 *887:9 195.945 
3 *887:9 *887:19 6.3737 
4 *887:19 *887:21 180.54 
5 *887:21 *989:wbs_adr_i[15] 7.79 
*END

*D_NET *888 0.10238
*CONN
*I *989:wbs_adr_i[16] I *D CF_SRAM_1024x32_wb_wrapper
*I *988:sram_adr_o[16] O *D soc_sys
*CAP
1 *989:wbs_adr_i[16] 0.000385171
2 *988:sram_adr_o[16] 0.00348439
3 *888:21 0.00353673
4 *888:19 0.00363629
5 *888:9 0.00450585
6 *888:7 0.00750551
7 *989:wbs_adr_i[16] *989:wbs_dat_i[16] 0
8 *989:wbs_adr_i[16] *920:7 0
9 *888:7 *988:sram_dat_i[16] 0
10 *888:7 *989:wbs_dat_i[15] 0
11 *888:9 *893:9 0.000218592
12 *888:9 *916:21 0.000313452
13 *888:9 *952:9 0.0139062
14 *888:9 *960:9 0.0178483
15 *888:19 *989:wbs_dat_i[3] 0.000310549
16 *888:19 *889:15 6.14702e-05
17 *888:19 *890:9 1.88602e-05
18 *888:19 *894:19 0.000209315
19 *888:19 *914:21 7.82798e-06
20 *888:19 *923:19 3.2701e-05
21 *888:21 *989:wbs_adr_i[3] 0.000258101
22 *888:21 *889:17 0.0206524
23 *540:37 *888:9 0.0028033
24 *880:15 *888:19 0.000449149
25 *880:15 *888:21 0.00201961
26 *886:13 *888:21 0.000198547
27 *887:19 *888:19 0.000462229
28 *887:21 *888:21 0.0195554
*RES
1 *988:sram_adr_o[16] *888:7 8.93853 
2 *888:7 *888:9 205.635 
3 *888:9 *888:19 5.66697 
4 *888:19 *888:21 190.89 
5 *888:21 *989:wbs_adr_i[16] 7.535 
*END

*D_NET *889 0.104536
*CONN
*I *989:wbs_adr_i[17] I *D CF_SRAM_1024x32_wb_wrapper
*I *988:sram_adr_o[17] O *D soc_sys
*CAP
1 *989:wbs_adr_i[17] 0.000369623
2 *988:sram_adr_o[17] 0.00433271
3 *889:17 0.00360048
4 *889:15 0.0036235
5 *889:9 0.00324964
6 *889:7 0.0071897
7 *989:wbs_adr_i[17] *989:wbs_dat_i[17] 0
8 *989:wbs_adr_i[17] *921:7 0
9 *989:wbs_adr_i[17] *922:7 0
10 *889:7 *988:sram_dat_i[17] 0
11 *889:7 *958:7 0
12 *889:9 *890:9 0.0178972
13 *889:9 *923:21 0.0178646
14 *889:9 *959:19 1.40378e-05
15 *889:15 *890:9 0.000169693
16 *889:15 *914:21 0.00011369
17 *889:15 *926:19 0.000877526
18 *889:15 *959:19 0.00105876
19 *889:17 *989:wbs_adr_i[3] 0.000236573
20 *889:17 *890:13 0.000216673
21 *889:17 *891:21 0.0207787
22 *889:17 *893:13 2.52029e-05
23 *880:15 *889:17 0.0022034
24 *888:19 *889:15 6.14702e-05
25 *888:21 *889:17 0.0206524
*RES
1 *988:sram_adr_o[17] *889:7 10.57 
2 *889:7 *889:9 200.535 
3 *889:9 *889:15 17.4725 
4 *889:15 *889:17 196.41 
5 *889:17 *989:wbs_adr_i[17] 7.28 
*END

*D_NET *890 0.10633
*CONN
*I *989:wbs_adr_i[18] I *D CF_SRAM_1024x32_wb_wrapper
*I *988:sram_adr_o[18] O *D soc_sys
*CAP
1 *989:wbs_adr_i[18] 0.000331171
2 *988:sram_adr_o[18] 0.004108
3 *890:13 0.00350596
4 *890:11 0.00317478
5 *890:9 0.00367643
6 *890:7 0.00778443
7 *989:wbs_adr_i[18] *989:wbs_dat_i[18] 0
8 *989:wbs_adr_i[18] *922:7 0
9 *989:wbs_adr_i[18] *923:7 0
10 *890:7 *988:sram_dat_i[18] 0
11 *890:9 *921:15 2.65983e-05
12 *890:9 *921:17 0.0172728
13 *890:9 *923:19 0.00126523
14 *890:9 *923:21 0.000471034
15 *890:9 *926:19 0.000876244
16 *890:13 *989:wbs_adr_i[3] 0.00246911
17 *890:13 *891:21 0.0213343
18 *890:13 *893:13 0.0217316
19 *888:19 *890:9 1.88602e-05
20 *889:9 *890:9 0.0178972
21 *889:15 *890:9 0.000169693
22 *889:17 *890:13 0.000216673
*RES
1 *988:sram_adr_o[18] *890:7 10.6283 
2 *890:7 *890:9 224.122 
3 *890:9 *890:11 2 
4 *890:11 *890:13 200.895 
5 *890:13 *989:wbs_adr_i[18] 6.77 
*END

*D_NET *891 0.107205
*CONN
*I *989:wbs_adr_i[19] I *D CF_SRAM_1024x32_wb_wrapper
*I *988:sram_adr_o[19] O *D soc_sys
*CAP
1 *989:wbs_adr_i[19] 0.000343787
2 *988:sram_adr_o[19] 0.00935321
3 *891:21 0.00370485
4 *891:19 0.00356966
5 *891:9 0.00956181
6 *989:wbs_adr_i[19] *989:wbs_dat_i[19] 0
7 *989:wbs_adr_i[19] *923:7 0
8 *989:wbs_adr_i[19] *924:7 0
9 *891:9 *988:sram_dat_i[19] 0
10 *891:9 *892:9 0.00104389
11 *891:9 *896:19 0.0121634
12 *891:9 *924:23 0.0210214
13 *891:9 *950:15 0.00061284
14 *891:9 *960:7 0
15 *891:19 *989:wbs_sel_i[0] 1.09082e-05
16 *891:19 *920:23 0.000538588
17 *891:19 *939:23 0.000542199
18 *891:19 *961:19 4.2145e-05
19 *891:21 *989:wbs_adr_i[3] 0.00225619
20 *891:21 *893:13 0.000326753
21 *889:17 *891:21 0.0207787
22 *890:13 *891:21 0.0213343
*RES
1 *988:sram_adr_o[19] *891:9 49.6074 
2 *891:9 *891:19 9.67463 
3 *891:19 *891:21 202.275 
4 *891:21 *989:wbs_adr_i[19] 7.025 
*END

*D_NET *892 0.0540754
*CONN
*I *989:wbs_adr_i[1] I *D CF_SRAM_1024x32_wb_wrapper
*I *988:sram_adr_o[1] O *D soc_sys
*CAP
1 *989:wbs_adr_i[1] 0.00325215
2 *988:sram_adr_o[1] 0.00479767
3 *892:9 0.00438119
4 *892:7 0.00592672
5 *989:wbs_adr_i[1] *989:wbs_adr_i[3] 0.000523431
6 *989:wbs_adr_i[1] *989:wbs_adr_i[4] 0.000107655
7 *989:wbs_adr_i[1] *989:wbs_dat_i[1] 0
8 *989:wbs_adr_i[1] *989:wbs_dat_i[3] 0.011353
9 *989:wbs_adr_i[1] *989:wbs_we_i 0.00992188
10 *989:wbs_adr_i[1] *894:21 0.00204496
11 *989:wbs_adr_i[1] *907:9 0.000634773
12 *989:wbs_adr_i[1] *914:19 0
13 *989:wbs_adr_i[1] *920:23 6.50311e-05
14 *989:wbs_adr_i[1] *922:15 4.81337e-05
15 *989:wbs_adr_i[1] *922:17 6.32345e-05
16 *989:wbs_adr_i[1] *928:9 0.00219099
17 *989:wbs_adr_i[1] *980:31 0.000496024
18 *892:7 *988:sram_dat_i[1] 0
19 *892:9 *920:23 3.91137e-05
20 *892:9 *922:17 0.000193586
21 *892:9 *939:23 1.68627e-05
22 *892:9 *950:15 0.00274789
23 *892:9 *953:9 0
24 *892:9 *958:9 0.00411838
25 *880:15 *989:wbs_adr_i[1] 0.000104749
26 *887:19 *989:wbs_adr_i[1] 4.04441e-06
27 *891:9 *892:9 0.00104389
*RES
1 *988:sram_adr_o[1] *892:7 11.3275 
2 *892:7 *892:9 50.085 
3 *892:9 *989:wbs_adr_i[1] 36.3774 
*END

*D_NET *893 0.103123
*CONN
*I *989:wbs_adr_i[20] I *D CF_SRAM_1024x32_wb_wrapper
*I *988:sram_adr_o[20] O *D soc_sys
*CAP
1 *989:wbs_adr_i[20] 0.000310347
2 *988:sram_adr_o[20] 0.00342803
3 *893:13 0.00431697
4 *893:11 0.00400663
5 *893:9 0.00776088
6 *893:7 0.0111889
7 *989:wbs_adr_i[20] *989:wbs_dat_i[20] 0
8 *989:wbs_adr_i[20] *924:7 0
9 *893:7 *961:7 0
10 *893:9 *928:19 0
11 *893:9 *960:9 0.0200175
12 *893:9 *961:9 0
13 *893:9 *973:9 0.002745
14 *893:9 *981:9 0
15 *893:13 *989:wbs_adr_i[3] 0.000119028
16 *893:13 *989:wbs_we_i 0.00204496
17 *893:13 *894:21 0.000790981
18 *893:13 *896:21 0.022307
19 *893:13 *928:9 9.09183e-05
20 *540:37 *893:9 0.00169379
21 *888:9 *893:9 0.000218592
22 *889:17 *893:13 2.52029e-05
23 *890:13 *893:13 0.0217316
24 *891:21 *893:13 0.000326753
*RES
1 *988:sram_adr_o[20] *893:7 8.822 
2 *893:7 *893:9 242.227 
3 *893:9 *893:11 2 
4 *893:11 *893:13 221.94 
5 *893:13 *989:wbs_adr_i[20] 6.515 
*END

*D_NET *894 0.108604
*CONN
*I *989:wbs_adr_i[21] I *D CF_SRAM_1024x32_wb_wrapper
*I *988:sram_adr_o[21] O *D soc_sys
*CAP
1 *989:wbs_adr_i[21] 0.000271182
2 *988:sram_adr_o[21] 0.00253865
3 *894:21 0.00392034
4 *894:19 0.00412447
5 *894:9 0.00957932
6 *894:7 0.0116427
7 *989:wbs_adr_i[21] *927:7 0
8 *894:7 *988:sram_dat_i[21] 0
9 *894:7 *963:7 0
10 *894:9 *989:wbs_adr_i[9] 0.00199664
11 *894:9 *944:21 0.000145291
12 *894:9 *949:9 0
13 *894:9 *963:9 0.0218388
14 *894:19 *989:wbs_dat_i[3] 0.000246612
15 *894:19 *928:19 0.000886713
16 *894:19 *947:13 0.000103782
17 *894:19 *951:9 0
18 *894:21 *989:wbs_dat_i[23] 0.000109729
19 *894:21 *989:wbs_dat_i[3] 0.00012905
20 *894:21 *896:21 0.0228691
21 *894:21 *928:9 0.0242884
22 *989:wbs_adr_i[1] *894:21 0.00204496
23 *108:21 *894:19 0.000312718
24 *880:15 *894:19 0.00055479
25 *884:9 *894:9 0
26 *888:19 *894:19 0.000209315
27 *893:13 *894:21 0.000790981
*RES
1 *988:sram_adr_o[21] *894:7 7.01573 
2 *894:7 *894:9 252.045 
3 *894:9 *894:19 6.50463 
4 *894:19 *894:21 224.7 
5 *894:21 *989:wbs_adr_i[21] 6.005 
*END

*D_NET *895 0.108896
*CONN
*I *989:wbs_adr_i[22] I *D CF_SRAM_1024x32_wb_wrapper
*I *988:sram_adr_o[22] O *D soc_sys
*CAP
1 *989:wbs_adr_i[22] 0.000546204
2 *988:sram_adr_o[22] 0.00227736
3 *895:21 0.00954691
4 *895:19 0.00928921
5 *895:9 0.00442231
6 *895:7 0.00641116
7 *989:wbs_adr_i[22] *927:7 0
8 *989:wbs_adr_i[22] *928:7 0
9 *895:7 *988:sram_dat_i[22] 0
10 *895:7 *964:7 0
11 *895:9 *915:21 0.000206609
12 *895:9 *942:52 0.00122485
13 *895:19 *989:wbs_adr_i[6] 4.70134e-05
14 *895:19 *915:19 0.00129681
15 *895:19 *981:9 1.92979e-05
16 *895:21 *989:wbs_adr_i[6] 0.000542761
17 *895:21 *989:wbs_cyc_i 0.000566154
18 *895:21 *927:9 0.0247348
19 *989:wbs_adr_i[0] *895:19 6.6621e-05
20 *36:13 *895:9 0.000118234
21 *37:29 *895:9 0.0231177
22 *38:25 *895:9 0.0231601
23 *39:13 *895:9 4.52842e-05
24 *884:19 *895:19 0.00125686
25 *884:21 *895:21 0
*RES
1 *988:sram_adr_o[22] *895:7 6.31653 
2 *895:7 *895:9 265.305 
3 *895:9 *895:19 5.30983 
4 *895:19 *895:21 235.05 
5 *895:21 *989:wbs_adr_i[22] 11.105 
*END

*D_NET *896 0.125053
*CONN
*I *989:wbs_adr_i[23] I *D CF_SRAM_1024x32_wb_wrapper
*I *988:sram_adr_o[23] O *D soc_sys
*CAP
1 *989:wbs_adr_i[23] 0.00028093
2 *988:sram_adr_o[23] 0.00378428
3 *896:21 0.00408715
4 *896:19 0.0170673
5 *896:7 0.0170453
6 *989:wbs_adr_i[23] *928:7 0
7 *896:7 *988:sram_dat_i[23] 0.0018725
8 *896:19 *989:wbs_dat_i[3] 1.84761e-05
9 *896:19 *989:wbs_dat_i[5] 0
10 *896:19 *903:9 0.000766652
11 *896:19 *907:9 0.00173136
12 *896:19 *920:25 0.00378269
13 *896:19 *922:17 0.00425814
14 *896:19 *924:23 0.000265542
15 *896:19 *939:25 0.00142064
16 *896:19 *958:9 0.00492387
17 *896:19 *962:9 0.000736446
18 *896:19 *980:9 0.00261109
19 *896:21 *989:wbs_adr_i[3] 0.000109729
20 *896:21 *989:wbs_dat_i[23] 0.00010605
21 *896:21 *989:wbs_we_i 0.00223105
22 *896:21 *928:9 0.00054681
23 *880:15 *896:19 2.34629e-05
24 *887:19 *896:19 4.4533e-05
25 *891:9 *896:19 0.0121634
26 *893:13 *896:21 0.022307
27 *894:21 *896:21 0.0228691
*RES
1 *988:sram_adr_o[23] *896:7 11.4731 
2 *896:7 *896:19 49.1572 
3 *896:19 *896:21 221.595 
4 *896:21 *989:wbs_adr_i[23] 6.26 
*END

*D_NET *897 0.0861467
*CONN
*I *989:wbs_adr_i[24] I *D CF_SRAM_1024x32_wb_wrapper
*I *988:sram_adr_o[24] O *D soc_sys
*CAP
1 *989:wbs_adr_i[24] 0.00419536
2 *988:sram_adr_o[24] 0.0101656
3 *897:11 0.0213477
4 *897:7 0.027318
5 *989:wbs_adr_i[24] *989:wbs_adr_i[25] 0.00174047
6 *989:wbs_adr_i[24] *989:wbs_adr_i[9] 8.51041e-05
7 *989:wbs_adr_i[24] *989:wbs_dat_i[15] 0.000256575
8 *989:wbs_adr_i[24] *989:wbs_dat_i[25] 0.00166976
9 *989:wbs_adr_i[24] *989:wbs_dat_i[29] 0.000528597
10 *989:wbs_adr_i[24] *989:wbs_dat_i[30] 0.00118982
11 *989:wbs_adr_i[24] *989:wbs_dat_i[9] 0.000357641
12 *989:wbs_adr_i[24] *929:11 0.0100503
13 *989:wbs_adr_i[24] *942:52 1.00909e-05
14 *989:wbs_adr_i[24] *960:21 0.000258101
15 *989:wbs_adr_i[24] *961:21 0.000238056
16 *989:wbs_adr_i[24] *963:21 0.000219457
17 *897:7 *988:sram_dat_i[24] 0
18 *897:7 *966:7 0
19 *897:7 *967:15 0.00651599
*RES
1 *988:sram_adr_o[24] *897:7 34.0806 
2 *897:7 *897:11 47.2223 
3 *897:11 *989:wbs_adr_i[24] 18.3334 
*END

*D_NET *898 0.0983821
*CONN
*I *989:wbs_adr_i[25] I *D CF_SRAM_1024x32_wb_wrapper
*I *988:sram_adr_o[25] O *D soc_sys
*CAP
1 *989:wbs_adr_i[25] 0.00166529
2 *988:sram_adr_o[25] 0.0118956
3 *898:11 0.0135627
4 *898:7 0.023793
5 *989:wbs_adr_i[25] *989:wbs_dat_i[25] 0.00475373
6 *989:wbs_adr_i[25] *989:wbs_dat_i[29] 0.000630833
7 *989:wbs_adr_i[25] *989:wbs_dat_i[30] 0.00177795
8 *898:7 *967:11 0
9 *898:7 *968:17 0.0143108
10 *898:11 *989:wbs_dat_i[22] 0.0242518
11 *989:wbs_adr_i[24] *989:wbs_adr_i[25] 0.00174047
*RES
1 *988:sram_adr_o[25] *898:7 43.6363 
2 *898:7 *898:11 48.6004 
3 *898:11 *989:wbs_adr_i[25] 8.63163 
*END

*D_NET *899 0.137569
*CONN
*I *989:wbs_adr_i[26] I *D CF_SRAM_1024x32_wb_wrapper
*I *988:sram_adr_o[26] O *D soc_sys
*CAP
1 *989:wbs_adr_i[26] 0.00124914
2 *988:sram_adr_o[26] 0.00166512
3 *899:15 0.00571096
4 *899:9 0.0103124
5 *899:7 0.00751572
6 *989:wbs_adr_i[26] *989:wbs_dat_i[26] 0
7 *989:wbs_adr_i[26] *931:7 0
8 *899:7 *988:sram_dat_i[26] 0
9 *899:9 *901:9 0.00628797
10 *899:9 *917:21 0.0157889
11 *899:9 *918:21 0.0167868
12 *899:9 *931:13 0.00656787
13 *899:15 *901:15 0.0318875
14 *899:15 *931:11 0.0316201
15 *67:17 *899:9 0.00217648
*RES
1 *988:sram_adr_o[26] *899:7 4.51027 
2 *899:7 *899:9 314.775 
3 *899:9 *899:15 48.0592 
4 *899:15 *989:wbs_adr_i[26] 21.9825 
*END

*D_NET *900 0.0989434
*CONN
*I *989:wbs_adr_i[27] I *D CF_SRAM_1024x32_wb_wrapper
*I *988:sram_adr_o[27] O *D soc_sys
*CAP
1 *989:wbs_adr_i[27] 0.000802445
2 *988:sram_adr_o[27] 0.0107496
3 *900:11 0.0193593
4 *900:9 0.0293065
5 *989:wbs_adr_i[27] *989:wbs_dat_i[25] 0.00300981
6 *989:wbs_adr_i[27] *989:wbs_dat_i[28] 0.0015395
7 *989:wbs_adr_i[27] *989:wbs_dat_i[29] 0.000975995
8 *989:wbs_adr_i[27] *989:wbs_dat_i[30] 0.000420472
9 *989:wbs_adr_i[27] *933:12 0.00170008
10 *900:9 *933:18 0.0310796
11 *900:11 *966:11 0
12 *900:11 *972:9 0
*RES
1 *988:sram_adr_o[27] *900:9 46.613 
2 *900:9 *900:11 50.6844 
3 *900:11 *989:wbs_adr_i[27] 7.289 
*END

*D_NET *901 0.133386
*CONN
*I *989:wbs_adr_i[28] I *D CF_SRAM_1024x32_wb_wrapper
*I *988:sram_adr_o[28] O *D soc_sys
*CAP
1 *989:wbs_adr_i[28] 0.00121525
2 *988:sram_adr_o[28] 0.00147251
3 *901:15 0.00616253
4 *901:9 0.0177856
5 *901:7 0.0143109
6 *989:wbs_adr_i[28] *989:wbs_dat_i[27] 0
7 *989:wbs_adr_i[28] *934:7 0
8 *901:7 *988:sram_dat_i[28] 0
9 *901:7 *970:7 0
10 *901:9 *918:21 0.0167853
11 *901:15 *932:11 0.000117533
12 *901:15 *934:9 9.95677e-05
13 *901:15 *969:15 0.0321631
14 *901:15 *970:13 0.000174488
15 *65:21 *901:9 0.00492348
16 *899:9 *901:9 0.00628797
17 *899:15 *901:15 0.0318875
*RES
1 *988:sram_adr_o[28] *901:7 4.39373 
2 *901:7 *901:9 332.625 
3 *901:9 *901:15 49.9237 
4 *901:15 *989:wbs_adr_i[28] 21.4725 
*END

*D_NET *902 0.100965
*CONN
*I *989:wbs_adr_i[29] I *D CF_SRAM_1024x32_wb_wrapper
*I *988:sram_adr_o[29] O *D soc_sys
*CAP
1 *989:wbs_adr_i[29] 0.00110017
2 *988:sram_adr_o[29] 0.0171814
3 *902:9 0.00709555
4 *902:7 0.00599538
5 *902:5 0.0171814
6 *989:wbs_adr_i[29] *989:wbs_dat_i[29] 0.000225757
7 *989:wbs_adr_i[29] *989:wbs_dat_i[30] 0.000568757
8 *989:wbs_adr_i[29] *935:11 0.00313815
9 *902:5 *988:sram_dat_i[29] 0
10 *902:5 *971:17 0.0150544
11 *902:9 *904:9 0.0166985
12 *902:9 *935:13 0.0167254
*RES
1 *988:sram_adr_o[29] *902:5 58.7809 
2 *902:5 *902:7 0.5 
3 *902:7 *902:9 321.405 
4 *902:9 *989:wbs_adr_i[29] 6.8901 
*END

*D_NET *903 0.0523413
*CONN
*I *989:wbs_adr_i[2] I *D CF_SRAM_1024x32_wb_wrapper
*I *988:sram_adr_o[2] O *D soc_sys
*CAP
1 *989:wbs_adr_i[2] 0.00342013
2 *988:sram_adr_o[2] 0.00512842
3 *903:9 0.00561587
4 *903:7 0.00732416
5 *989:wbs_adr_i[2] *989:wbs_adr_i[3] 2.47823e-05
6 *989:wbs_adr_i[2] *989:wbs_adr_i[4] 0.0110728
7 *989:wbs_adr_i[2] *989:wbs_adr_i[5] 0.000281956
8 *989:wbs_adr_i[2] *989:wbs_dat_i[2] 0
9 *989:wbs_adr_i[2] *989:wbs_sel_i[1] 0
10 *989:wbs_adr_i[2] *907:9 6.49583e-05
11 *989:wbs_adr_i[2] *962:35 0.000709958
12 *989:wbs_adr_i[2] *980:31 0.000405433
13 *903:7 *947:11 0
14 *903:9 *925:15 0
15 *903:9 *925:19 0
16 *903:9 *936:19 5.65453e-05
17 *903:9 *939:25 0.000310233
18 *903:9 *962:9 0.00509041
19 *989:wbs_adr_i[10] *989:wbs_adr_i[2] 0.00852633
20 *884:21 *989:wbs_adr_i[2] 0.00164227
21 *885:19 *989:wbs_adr_i[2] 9.96619e-05
22 *885:21 *989:wbs_adr_i[2] 0.00180073
23 *896:19 *903:9 0.000766652
*RES
1 *988:sram_adr_o[2] *903:7 11.7936 
2 *903:7 *903:9 62.9625 
3 *903:9 *989:wbs_adr_i[2] 41.3626 
*END

*D_NET *904 0.108454
*CONN
*I *989:wbs_adr_i[30] I *D CF_SRAM_1024x32_wb_wrapper
*I *988:sram_adr_o[30] O *D soc_sys
*CAP
1 *989:wbs_adr_i[30] 0.00041335
2 *988:sram_adr_o[30] 0.0225896
3 *904:9 0.00591409
4 *904:7 0.00550074
5 *904:5 0.0225896
6 *989:wbs_adr_i[30] *935:11 0.00285855
7 *989:wbs_adr_i[30] *937:8 0.00242255
8 *904:5 *988:sram_dat_i[30] 0
9 *904:5 *972:7 0
10 *904:9 *935:13 0
11 *904:9 *937:10 0.0294668
12 *902:9 *904:9 0.0166985
*RES
1 *988:sram_adr_o[30] *904:5 58.6644 
2 *904:5 *904:7 0.5 
3 *904:7 *904:9 329.565 
4 *904:9 *989:wbs_adr_i[30] 5.17493 
*END

*D_NET *905 0.101485
*CONN
*I *989:wbs_adr_i[31] I *D CF_SRAM_1024x32_wb_wrapper
*I *988:sram_adr_o[31] O *D soc_sys
*CAP
1 *989:wbs_adr_i[31] 0.000623648
2 *988:sram_adr_o[31] 0.0223226
3 *905:9 0.0123595
4 *905:7 0.0117358
5 *905:5 0.0223226
6 *989:wbs_adr_i[31] *989:wbs_dat_i[31] 0.000165845
7 *989:wbs_adr_i[31] *937:8 0.0021829
8 *989:wbs_adr_i[31] *938:8 8.59615e-05
9 *905:5 *988:sram_dat_i[31] 0
10 *905:5 *974:7 0
11 *905:5 *975:15 0
12 *905:9 *937:10 0.0296864
*RES
1 *988:sram_adr_o[31] *905:5 58.5479 
2 *905:5 *905:7 0.5 
3 *905:7 *905:9 337.725 
4 *905:9 *989:wbs_adr_i[31] 4.1844 
*END

*D_NET *906 0.0650287
*CONN
*I *989:wbs_adr_i[3] I *D CF_SRAM_1024x32_wb_wrapper
*I *988:sram_adr_o[3] O *D soc_sys
*CAP
1 *989:wbs_adr_i[3] 0.004419
2 *988:sram_adr_o[3] 0.00400989
3 *906:9 0.00650973
4 *906:7 0.00610062
5 *989:wbs_adr_i[3] *989:wbs_adr_i[4] 0.00205349
6 *989:wbs_adr_i[3] *989:wbs_dat_i[3] 0.00055352
7 *989:wbs_adr_i[3] *989:wbs_sel_i[2] 0
8 *989:wbs_adr_i[3] *989:wbs_we_i 0.00980405
9 *989:wbs_adr_i[3] *925:15 0
10 *989:wbs_adr_i[3] *939:15 0
11 *906:7 *988:sram_dat_i[3] 0
12 *906:7 *948:7 0
13 *906:9 *989:wbs_dat_i[15] 0.00119326
14 *906:9 *916:21 0
15 *906:9 *927:13 0
16 *906:9 *947:11 0
17 *906:9 *951:9 0.00476805
18 *989:wbs_adr_i[1] *989:wbs_adr_i[3] 0.000523431
19 *989:wbs_adr_i[2] *989:wbs_adr_i[3] 2.47823e-05
20 *32:17 *906:9 0.00709495
21 *880:15 *989:wbs_adr_i[3] 0.0111068
22 *885:19 *989:wbs_adr_i[3] 0.00141838
23 *888:21 *989:wbs_adr_i[3] 0.000258101
24 *889:17 *989:wbs_adr_i[3] 0.000236573
25 *890:13 *989:wbs_adr_i[3] 0.00246911
26 *891:21 *989:wbs_adr_i[3] 0.00225619
27 *893:13 *989:wbs_adr_i[3] 0.000119028
28 *896:21 *989:wbs_adr_i[3] 0.000109729
*RES
1 *988:sram_adr_o[3] *906:7 9.57947 
2 *906:7 *906:9 84.765 
3 *906:9 *989:wbs_adr_i[3] 29.9122 
*END

*D_NET *907 0.0690595
*CONN
*I *989:wbs_adr_i[4] I *D CF_SRAM_1024x32_wb_wrapper
*I *988:sram_adr_o[4] O *D soc_sys
*CAP
1 *989:wbs_adr_i[4] 0.00409401
2 *988:sram_adr_o[4] 0.00515095
3 *907:9 0.00580336
4 *907:7 0.00686031
5 *989:wbs_adr_i[4] *989:wbs_dat_i[3] 3.55892e-05
6 *989:wbs_adr_i[4] *989:wbs_dat_i[4] 0
7 *989:wbs_adr_i[4] *989:wbs_sel_i[3] 0
8 *989:wbs_adr_i[4] *940:11 0
9 *989:wbs_adr_i[4] *962:35 0.000106196
10 *907:7 *988:sram_dat_i[4] 0
11 *907:7 *949:7 0
12 *907:9 *989:wbs_adr_i[5] 0.000530894
13 *907:9 *922:17 1.9006e-05
14 *907:9 *939:25 0.00677089
15 *907:9 *962:9 1.19691e-05
16 *907:9 *980:9 0.00771194
17 *907:9 *980:31 0.000254551
18 *989:wbs_adr_i[10] *989:wbs_adr_i[4] 0.000638146
19 *989:wbs_adr_i[1] *989:wbs_adr_i[4] 0.000107655
20 *989:wbs_adr_i[1] *907:9 0.000634773
21 *989:wbs_adr_i[2] *989:wbs_adr_i[4] 0.0110728
22 *989:wbs_adr_i[2] *907:9 6.49583e-05
23 *989:wbs_adr_i[3] *989:wbs_adr_i[4] 0.00205349
24 *880:15 *989:wbs_adr_i[4] 0.00918156
25 *884:21 *989:wbs_adr_i[4] 0.000715261
26 *885:21 *989:wbs_adr_i[4] 0.000693287
27 *886:13 *989:wbs_adr_i[4] 0.00229217
28 *887:19 *907:9 1.3729e-05
29 *887:21 *989:wbs_adr_i[4] 0.00251058
30 *896:19 *907:9 0.00173136
*RES
1 *988:sram_adr_o[4] *907:7 11.6188 
2 *907:7 *907:9 95.985 
3 *907:9 *989:wbs_adr_i[4] 30.7303 
*END

*D_NET *908 0.0756695
*CONN
*I *989:wbs_adr_i[5] I *D CF_SRAM_1024x32_wb_wrapper
*I *988:sram_adr_o[5] O *D soc_sys
*CAP
1 *989:wbs_adr_i[5] 0.00567224
2 *988:sram_adr_o[5] 0.000156952
3 *908:11 0.00697165
4 *908:9 0.00145636
5 *989:wbs_adr_i[5] *989:wbs_dat_i[15] 0.00357629
6 *989:wbs_adr_i[5] *989:wbs_dat_i[2] 0.0126178
7 *989:wbs_adr_i[5] *989:wbs_dat_i[5] 0.00840627
8 *989:wbs_adr_i[5] *989:wbs_dat_i[9] 0.0114224
9 *989:wbs_adr_i[5] *926:19 0
10 *989:wbs_adr_i[5] *936:19 2.35067e-05
11 *989:wbs_adr_i[5] *940:11 0
12 *989:wbs_adr_i[5] *962:9 0.000224204
13 *989:wbs_adr_i[5] *962:35 8.76645e-06
14 *908:11 *978:11 0.00835972
15 *908:11 *979:11 0.00836052
16 *989:wbs_adr_i[2] *989:wbs_adr_i[5] 0.000281956
17 *35:21 *989:wbs_adr_i[5] 0.00507427
18 *110:13 *989:wbs_adr_i[5] 0.000598949
19 *540:52 *989:wbs_adr_i[5] 0.00192666
20 *907:9 *989:wbs_adr_i[5] 0.000530894
*RES
1 *988:sram_adr_o[5] *908:9 0.7584 
2 *908:9 *908:11 93.435 
3 *908:11 *989:wbs_adr_i[5] 41.6676 
*END

*D_NET *909 0.0834058
*CONN
*I *989:wbs_adr_i[6] I *D CF_SRAM_1024x32_wb_wrapper
*I *988:sram_adr_o[6] O *D soc_sys
*CAP
1 *989:wbs_adr_i[6] 0.00484117
2 *988:sram_adr_o[6] 0.00200541
3 *909:9 0.00687696
4 *909:7 0.0040412
5 *989:wbs_adr_i[6] *989:wbs_adr_i[9] 0.00432089
6 *989:wbs_adr_i[6] *989:wbs_cyc_i 0.00872507
7 *989:wbs_adr_i[6] *989:wbs_dat_i[8] 0.0173773
8 *989:wbs_adr_i[6] *915:19 0.0038694
9 *989:wbs_adr_i[6] *917:19 0.00110684
10 *989:wbs_adr_i[6] *922:9 0.00288989
11 *989:wbs_adr_i[6] *923:9 0.000637657
12 *989:wbs_adr_i[6] *924:9 0.00314082
13 *989:wbs_adr_i[6] *927:9 0.000587838
14 *989:wbs_adr_i[6] *941:11 0
15 *909:7 *988:sram_dat_i[6] 0
16 *909:9 *941:13 0.00999976
17 *909:9 *956:9 0.0105467
18 *989:wbs_adr_i[0] *989:wbs_adr_i[6] 0.000224964
19 *989:wbs_adr_i[10] *989:wbs_adr_i[6] 0.000965019
20 *989:wbs_adr_i[11] *989:wbs_adr_i[6] 0.00012615
21 *39:17 *989:wbs_adr_i[6] 0.000532965
22 *895:19 *989:wbs_adr_i[6] 4.70134e-05
23 *895:21 *989:wbs_adr_i[6] 0.000542761
*RES
1 *988:sram_adr_o[6] *909:7 5.38427 
2 *909:7 *909:9 119.445 
3 *909:9 *989:wbs_adr_i[6] 39.9577 
*END

*D_NET *910 0.0761131
*CONN
*I *989:wbs_adr_i[7] I *D CF_SRAM_1024x32_wb_wrapper
*I *988:sram_adr_o[7] O *D soc_sys
*CAP
1 *989:wbs_adr_i[7] 0.00448434
2 *988:sram_adr_o[7] 0.00125975
3 *910:9 0.00929148
4 *910:7 0.00606689
5 *989:wbs_adr_i[7] *989:wbs_adr_i[8] 0.0211075
6 *989:wbs_adr_i[7] *989:wbs_adr_i[9] 0.00196067
7 *989:wbs_adr_i[7] *989:wbs_dat_i[7] 0
8 *989:wbs_adr_i[7] *914:19 0.000424595
9 *989:wbs_adr_i[7] *918:19 0.0043465
10 *989:wbs_adr_i[7] *925:11 0.0116875
11 *989:wbs_adr_i[7] *942:52 0.00375902
12 *989:wbs_adr_i[7] *962:35 2.96961e-05
13 *910:7 *988:sram_dat_i[7] 0
14 *910:9 *943:21 0.0115819
15 *989:wbs_adr_i[11] *989:wbs_adr_i[7] 0.000113257
*RES
1 *988:sram_adr_o[7] *910:7 3.63627 
2 *910:7 *910:9 131.175 
3 *910:9 *989:wbs_adr_i[7] 45.1297 
*END

*D_NET *911 0.0881095
*CONN
*I *989:wbs_adr_i[8] I *D CF_SRAM_1024x32_wb_wrapper
*I *988:sram_adr_o[8] O *D soc_sys
*CAP
1 *989:wbs_adr_i[8] 0.00525268
2 *988:sram_adr_o[8] 0.000930904
3 *911:9 0.00747789
4 *911:7 0.00315611
5 *989:wbs_adr_i[8] *989:wbs_adr_i[9] 0.00224424
6 *989:wbs_adr_i[8] *989:wbs_dat_i[8] 0.00111354
7 *989:wbs_adr_i[8] *914:19 0.0109969
8 *989:wbs_adr_i[8] *915:9 0.0034202
9 *989:wbs_adr_i[8] *916:9 0.000399601
10 *989:wbs_adr_i[8] *917:9 0.000368381
11 *989:wbs_adr_i[8] *917:19 0.00253118
12 *989:wbs_adr_i[8] *939:15 0.00188789
13 *989:wbs_adr_i[8] *942:52 0.0020338
14 *989:wbs_adr_i[8] *943:7 0
15 *989:wbs_adr_i[8] *944:7 0
16 *911:7 *988:sram_dat_i[8] 0
17 *911:7 *980:7 0
18 *911:9 *969:9 0.0123567
19 *911:9 *970:9 0.012359
20 *989:wbs_adr_i[11] *989:wbs_adr_i[8] 0.000113257
21 *989:wbs_adr_i[7] *989:wbs_adr_i[8] 0.0211075
22 *39:17 *989:wbs_adr_i[8] 1.95664e-05
23 *65:25 *989:wbs_adr_i[8] 0.000340092
*RES
1 *988:sram_adr_o[8] *911:7 2.82053 
2 *911:7 *911:9 139.845 
3 *911:9 *989:wbs_adr_i[8] 46.3094 
*END

*D_NET *912 0.0964291
*CONN
*I *989:wbs_adr_i[9] I *D CF_SRAM_1024x32_wb_wrapper
*I *988:sram_adr_o[9] O *D soc_sys
*CAP
1 *989:wbs_adr_i[9] 0.0233608
2 *988:sram_adr_o[9] 0.0233608
3 *989:wbs_adr_i[9] *988:sram_dat_i[9] 0
4 *989:wbs_adr_i[9] *989:wbs_cyc_i 0.0022779
5 *989:wbs_adr_i[9] *989:wbs_dat_i[8] 0.00440347
6 *989:wbs_adr_i[9] *989:wbs_dat_i[9] 0.000277825
7 *989:wbs_adr_i[9] *914:19 0.000856613
8 *989:wbs_adr_i[9] *915:19 0.000595587
9 *989:wbs_adr_i[9] *916:19 0.000339206
10 *989:wbs_adr_i[9] *917:19 0.000574387
11 *989:wbs_adr_i[9] *918:19 0.000313242
12 *989:wbs_adr_i[9] *925:11 0.000768666
13 *989:wbs_adr_i[9] *939:15 0.0031945
14 *989:wbs_adr_i[9] *942:52 0.00701529
15 *989:wbs_adr_i[9] *944:7 0.000106321
16 *989:wbs_adr_i[9] *944:21 0.00163695
17 *989:wbs_adr_i[9] *945:19 0.000123056
18 *989:wbs_adr_i[9] *950:31 0.000359497
19 *989:wbs_adr_i[9] *962:35 0.000518027
20 *989:wbs_adr_i[9] *963:9 0.00175903
21 *989:wbs_adr_i[9] *981:7 0
22 *989:wbs_adr_i[11] *989:wbs_adr_i[9] 0.0139803
23 *989:wbs_adr_i[24] *989:wbs_adr_i[9] 8.51041e-05
24 *989:wbs_adr_i[6] *989:wbs_adr_i[9] 0.00432089
25 *989:wbs_adr_i[7] *989:wbs_adr_i[9] 0.00196067
26 *989:wbs_adr_i[8] *989:wbs_adr_i[9] 0.00224424
27 *40:53 *989:wbs_adr_i[9] 0
28 *894:9 *989:wbs_adr_i[9] 0.00199664
*RES
1 *988:sram_adr_o[9] *989:wbs_adr_i[9] 38.4117 
*END

*D_NET *913 0.0441968
*CONN
*I *989:wbs_cyc_i I *D CF_SRAM_1024x32_wb_wrapper
*I *988:sram_cyc_o O *D soc_sys
*CAP
1 *989:wbs_cyc_i 0.00274294
2 *988:sram_cyc_o 0.00474415
3 *913:19 0.00427453
4 *913:7 0.00627574
5 *989:wbs_cyc_i *989:wbs_stb_i 0
6 *989:wbs_cyc_i *915:19 0.000437747
7 *989:wbs_cyc_i *923:9 0.00213564
8 *989:wbs_cyc_i *927:9 0.00222478
9 *913:7 *950:15 0
10 *913:19 *916:19 3.59531e-06
11 *913:19 *922:15 0
12 *913:19 *924:23 0.000545712
13 *913:19 *939:23 0.0010251
14 *913:19 *950:15 0.00138255
15 *913:19 *953:9 0
16 *913:19 *958:19 0.00123105
17 *913:19 *980:31 0.000250511
18 *988:sram_ack_i *913:7 0
19 *989:wbs_adr_i[0] *989:wbs_cyc_i 0.00460996
20 *989:wbs_adr_i[6] *989:wbs_cyc_i 0.00872507
21 *989:wbs_adr_i[9] *989:wbs_cyc_i 0.0022779
22 *880:15 *989:wbs_cyc_i 0
23 *884:19 *989:wbs_cyc_i 0.000439707
24 *886:13 *913:19 0.000303911
25 *895:21 *989:wbs_cyc_i 0.000566154
*RES
1 *988:sram_cyc_o *913:7 11.1527 
2 *913:7 *913:19 49.395 
3 *913:19 *989:wbs_cyc_i 25.592 
*END

*D_NET *914 0.0556657
*CONN
*I *988:sram_dat_i[0] I *D soc_sys
*I *989:wbs_dat_o[0] O *D CF_SRAM_1024x32_wb_wrapper
*CAP
1 *988:sram_dat_i[0] 0.00436404
2 *989:wbs_dat_o[0] 0.00282294
3 *914:21 0.00633224
4 *914:19 0.00479114
5 *988:sram_dat_i[0] *951:7 0
6 *914:19 *989:wbs_dat_i[0] 0.000520913
7 *914:19 *916:9 0.0022562
8 *914:19 *917:9 0.00246152
9 *914:19 *918:19 0.000373875
10 *914:19 *925:15 4.7939e-05
11 *914:19 *939:15 0.0109945
12 *914:19 *942:52 0.00176026
13 *914:19 *962:35 0.000220185
14 *914:21 *923:19 0
15 *914:21 *948:9 0
16 *914:21 *953:15 0
17 *914:21 *955:19 0.00211246
18 *914:21 *959:19 0.00420788
19 *989:wbs_adr_i[1] *914:19 0
20 *989:wbs_adr_i[7] *914:19 0.000424595
21 *989:wbs_adr_i[8] *914:19 0.0109969
22 *989:wbs_adr_i[9] *914:19 0.000856613
23 *881:7 *988:sram_dat_i[0] 0
24 *888:19 *914:21 7.82798e-06
25 *889:15 *914:21 0.00011369
*RES
1 *989:wbs_dat_o[0] *914:19 33.8331 
2 *914:19 *914:21 58.755 
3 *914:21 *988:sram_dat_i[0] 10.3952 
*END

*D_NET *915 0.0819263
*CONN
*I *988:sram_dat_i[10] I *D soc_sys
*I *989:wbs_dat_o[10] O *D CF_SRAM_1024x32_wb_wrapper
*CAP
1 *988:sram_dat_i[10] 0.00239402
2 *989:wbs_dat_o[10] 0.000808186
3 *915:21 0.00489214
4 *915:19 0.00366802
5 *915:9 0.00672119
6 *915:7 0.00635948
7 *988:sram_dat_i[10] *952:7 0
8 *915:7 *989:wbs_dat_i[10] 0
9 *915:7 *989:wbs_dat_i[11] 0
10 *915:9 *916:9 0.0169245
11 *915:9 *956:21 0
12 *915:19 *916:19 0.00162496
13 *915:19 *925:15 0.000173593
14 *915:21 *942:52 0.000476635
15 *915:21 *949:9 4.5743e-05
16 *989:wbs_adr_i[11] *915:7 0.000138465
17 *989:wbs_adr_i[6] *915:19 0.0038694
18 *989:wbs_adr_i[8] *915:9 0.0034202
19 *989:wbs_adr_i[9] *915:19 0.000595587
20 *989:wbs_cyc_i *915:19 0.000437747
21 *37:29 *915:21 0.0136177
22 *39:13 *915:21 0
23 *882:7 *988:sram_dat_i[10] 0
24 *884:9 *915:21 0.0139615
25 *884:19 *915:19 0.000293863
26 *895:9 *915:21 0.000206609
27 *895:19 *915:19 0.00129681
*RES
1 *989:wbs_dat_o[10] *915:7 13.91 
2 *915:7 *915:9 153.285 
3 *915:9 *915:19 11.1372 
4 *915:19 *915:21 158.715 
5 *915:21 *988:sram_dat_i[10] 6.43307 
*END

*D_NET *916 0.0875509
*CONN
*I *988:sram_dat_i[11] I *D soc_sys
*I *989:wbs_dat_o[11] O *D CF_SRAM_1024x32_wb_wrapper
*CAP
1 *988:sram_dat_i[11] 0.00364057
2 *989:wbs_dat_o[11] 0.00078937
3 *916:21 0.00834611
4 *916:19 0.0052902
5 *916:9 0.00310851
6 *916:7 0.00331322
7 *988:sram_dat_i[11] *953:7 0
8 *916:7 *989:wbs_dat_i[11] 0
9 *916:7 *989:wbs_dat_i[12] 0
10 *916:9 *917:9 0.0177888
11 *916:9 *918:9 0.0001049
12 *916:9 *939:15 0.000311833
13 *916:9 *956:21 0
14 *916:19 *920:23 1.07628e-05
15 *916:19 *922:15 3.41554e-05
16 *916:19 *980:31 5.02802e-05
17 *916:21 *947:11 0.00135165
18 *916:21 *947:13 0.00276565
19 *916:21 *952:9 0.0142904
20 *989:wbs_adr_i[11] *988:sram_dat_i[11] 0
21 *989:wbs_adr_i[12] *916:7 0
22 *989:wbs_adr_i[8] *916:9 0.000399601
23 *989:wbs_adr_i[9] *916:19 0.000339206
24 *32:17 *916:21 0
25 *540:35 *916:21 0.000168426
26 *540:37 *916:21 0.00270556
27 *884:19 *916:19 0.00161898
28 *888:9 *916:21 0.000313452
29 *906:9 *916:21 0
30 *913:19 *916:19 3.59531e-06
31 *914:19 *916:9 0.0022562
32 *915:9 *916:9 0.0169245
33 *915:19 *916:19 0.00162496
*RES
1 *989:wbs_dat_o[11] *916:7 13.655 
2 *916:7 *916:9 162.945 
3 *916:9 *916:19 8.0127 
4 *916:19 *916:21 167.385 
5 *916:21 *988:sram_dat_i[11] 9.05507 
*END

*D_NET *917 0.0980055
*CONN
*I *988:sram_dat_i[12] I *D soc_sys
*I *989:wbs_dat_o[12] O *D CF_SRAM_1024x32_wb_wrapper
*CAP
1 *988:sram_dat_i[12] 0.00161244
2 *989:wbs_dat_o[12] 0.000790055
3 *917:21 0.0044149
4 *917:19 0.00402689
5 *917:9 0.00369905
6 *917:7 0.00326466
7 *988:sram_dat_i[12] *954:7 0
8 *917:7 *989:wbs_dat_i[12] 0
9 *917:9 *918:9 0.0183528
10 *917:9 *939:15 0.000285823
11 *917:19 *989:wbs_dat_i[8] 0.00234391
12 *917:19 *939:15 0.000418747
13 *917:19 *962:35 1.88602e-05
14 *917:21 *931:13 0.0157886
15 *989:wbs_adr_i[11] *917:19 0.000320135
16 *989:wbs_adr_i[13] *917:7 0
17 *989:wbs_adr_i[6] *917:19 0.00110684
18 *989:wbs_adr_i[8] *917:9 0.000368381
19 *989:wbs_adr_i[8] *917:19 0.00253118
20 *989:wbs_adr_i[9] *917:19 0.000574387
21 *39:17 *917:19 0.000229213
22 *67:17 *917:21 0.00181939
23 *884:7 *988:sram_dat_i[12] 0
24 *899:9 *917:21 0.0157889
25 *914:19 *917:9 0.00246152
26 *916:9 *917:9 0.0177888
*RES
1 *989:wbs_dat_o[12] *917:7 13.4 
2 *917:7 *917:9 166.395 
3 *917:9 *917:19 10.4956 
4 *917:19 *917:21 178.605 
5 *917:21 *988:sram_dat_i[12] 4.56853 
*END

*D_NET *918 0.101995
*CONN
*I *988:sram_dat_i[13] I *D soc_sys
*I *989:wbs_dat_o[13] O *D CF_SRAM_1024x32_wb_wrapper
*CAP
1 *988:sram_dat_i[13] 0.00153791
2 *989:wbs_dat_o[13] 0.000742792
3 *918:21 0.00452144
4 *918:19 0.00413723
5 *918:9 0.00390613
6 *918:7 0.00349522
7 *988:sram_dat_i[13] *955:7 0
8 *918:7 *989:wbs_dat_i[13] 0
9 *918:7 *989:wbs_dat_i[14] 0
10 *918:9 *989:wbs_dat_i[8] 0.000433248
11 *918:9 *919:9 0.0194765
12 *918:9 *939:15 0.00265331
13 *918:19 *989:wbs_dat_i[0] 0.000212843
14 *918:19 *989:wbs_sel_i[3] 4.53476e-05
15 *918:19 *942:52 0.000115262
16 *918:19 *945:19 0.000420298
17 *918:19 *950:31 0.000189271
18 *918:19 *953:15 0.00019062
19 *918:19 *956:19 0.000791945
20 *989:wbs_adr_i[11] *918:19 0.000113257
21 *989:wbs_adr_i[14] *918:7 0
22 *989:wbs_adr_i[7] *918:19 0.0043465
23 *989:wbs_adr_i[9] *918:19 0.000313242
24 *65:21 *918:21 0.00194934
25 *885:7 *988:sram_dat_i[13] 0
26 *899:9 *918:21 0.0167868
27 *901:9 *918:21 0.0167853
28 *914:19 *918:19 0.000373875
29 *916:9 *918:9 0.0001049
30 *917:9 *918:9 0.0183528
*RES
1 *989:wbs_dat_o[13] *918:7 13.145 
2 *918:7 *918:9 176.745 
3 *918:9 *918:19 11.7781 
4 *918:19 *918:21 189.825 
5 *918:21 *988:sram_dat_i[13] 4.452 
*END

*D_NET *919 0.100929
*CONN
*I *988:sram_dat_i[14] I *D soc_sys
*I *989:wbs_dat_o[14] O *D CF_SRAM_1024x32_wb_wrapper
*CAP
1 *988:sram_dat_i[14] 0.004242
2 *989:wbs_dat_o[14] 0.000722574
3 *919:13 0.00731979
4 *919:11 0.00307779
5 *919:9 0.00279212
6 *919:7 0.0035147
7 *988:sram_dat_i[14] *956:7 0
8 *919:7 *989:wbs_dat_i[14] 0
9 *919:9 *989:wbs_dat_i[8] 0.000397111
10 *919:9 *920:9 0.0197885
11 *919:9 *921:9 0.000189295
12 *919:9 *939:15 0.00289476
13 *919:13 *921:15 0.00178166
14 *919:13 *921:17 0.000326859
15 *919:13 *924:23 0.0021946
16 *919:13 *953:9 2.31188e-05
17 *919:13 *953:15 0.000351066
18 *919:13 *955:9 0.0150551
19 *919:13 *958:9 0
20 *989:wbs_adr_i[15] *919:7 0
21 *886:7 *988:sram_dat_i[14] 0
22 *886:9 *919:13 0.0167818
23 *918:9 *919:9 0.0194765
*RES
1 *989:wbs_dat_o[14] *919:7 12.89 
2 *919:7 *919:9 182.61 
3 *919:9 *919:11 2 
4 *919:11 *919:13 196.583 
5 *919:13 *988:sram_dat_i[14] 10.8031 
*END

*D_NET *920 0.102593
*CONN
*I *988:sram_dat_i[15] I *D soc_sys
*I *989:wbs_dat_o[15] O *D CF_SRAM_1024x32_wb_wrapper
*CAP
1 *988:sram_dat_i[15] 0.00469089
2 *989:wbs_dat_o[15] 0.000701647
3 *920:25 0.00881407
4 *920:23 0.00471756
5 *920:9 0.00336629
6 *920:7 0.00347356
7 *988:sram_dat_i[15] *989:wbs_dat_i[15] 0
8 *920:7 *989:wbs_dat_i[15] 0
9 *920:7 *989:wbs_dat_i[16] 0
10 *920:9 *989:wbs_dat_i[8] 0.00305042
11 *920:9 *921:9 0.02035
12 *920:23 *922:15 0.000907301
13 *920:23 *922:17 0.000115516
14 *920:23 *939:23 0.000410486
15 *920:23 *950:15 5.83121e-06
16 *920:23 *980:31 1.14169e-05
17 *920:25 *922:17 0.0170313
18 *920:25 *980:9 0.0107221
19 *989:wbs_adr_i[15] *920:7 0
20 *989:wbs_adr_i[16] *920:7 0
21 *989:wbs_adr_i[1] *920:23 6.50311e-05
22 *887:7 *988:sram_dat_i[15] 0
23 *891:19 *920:23 0.000538588
24 *892:9 *920:23 3.91137e-05
25 *896:19 *920:25 0.00378269
26 *916:19 *920:23 1.07628e-05
27 *919:9 *920:9 0.0197885
*RES
1 *989:wbs_dat_o[15] *920:7 12.635 
2 *920:7 *920:9 184.68 
3 *920:9 *920:23 23.19 
4 *920:23 *920:25 190.462 
5 *920:25 *988:sram_dat_i[15] 11.5023 
*END

*D_NET *921 0.104021
*CONN
*I *988:sram_dat_i[16] I *D soc_sys
*I *989:wbs_dat_o[16] O *D CF_SRAM_1024x32_wb_wrapper
*CAP
1 *988:sram_dat_i[16] 0.00415004
2 *989:wbs_dat_o[16] 0.00067345
3 *921:17 0.00728737
4 *921:15 0.00367252
5 *921:9 0.00352271
6 *921:7 0.00366097
7 *988:sram_dat_i[16] *958:7 0
8 *921:7 *989:wbs_dat_i[16] 0
9 *921:9 *989:wbs_dat_i[8] 0.00332801
10 *921:9 *922:9 0.0208828
11 *921:9 *923:9 9.38151e-05
12 *921:9 *924:9 8.43946e-05
13 *921:15 *923:19 0.00166216
14 *921:17 *955:9 0.0150551
15 *989:wbs_adr_i[17] *921:7 0
16 *888:7 *988:sram_dat_i[16] 0
17 *890:9 *921:15 2.65983e-05
18 *890:9 *921:17 0.0172728
19 *919:9 *921:9 0.000189295
20 *919:13 *921:15 0.00178166
21 *919:13 *921:17 0.000326859
22 *920:9 *921:9 0.02035
*RES
1 *989:wbs_dat_o[16] *921:7 12.38 
2 *921:7 *921:9 193.305 
3 *921:9 *921:15 23.5925 
4 *921:15 *921:17 193.395 
5 *921:17 *988:sram_dat_i[16] 10.6865 
*END

*D_NET *922 0.110562
*CONN
*I *988:sram_dat_i[17] I *D soc_sys
*I *989:wbs_dat_o[17] O *D CF_SRAM_1024x32_wb_wrapper
*CAP
1 *988:sram_dat_i[17] 0.00457459
2 *989:wbs_dat_o[17] 0.00065343
3 *922:17 0.00812934
4 *922:15 0.00402366
5 *922:9 0.00339681
6 *922:7 0.00358133
7 *922:7 *989:wbs_dat_i[17] 0
8 *922:9 *924:9 0.0214505
9 *922:15 *980:31 0.00013659
10 *922:17 *958:9 0.0177887
11 *922:17 *980:31 0.000243361
12 *989:wbs_adr_i[17] *922:7 0
13 *989:wbs_adr_i[18] *922:7 0
14 *989:wbs_adr_i[1] *922:15 4.81337e-05
15 *989:wbs_adr_i[1] *922:17 6.32345e-05
16 *989:wbs_adr_i[6] *922:9 0.00288989
17 *887:19 *922:15 0.000140251
18 *889:7 *988:sram_dat_i[17] 0
19 *892:9 *922:17 0.000193586
20 *896:19 *922:17 0.00425814
21 *907:9 *922:17 1.9006e-05
22 *913:19 *922:15 0
23 *916:19 *922:15 3.41554e-05
24 *920:23 *922:15 0.000907301
25 *920:23 *922:17 0.000115516
26 *920:25 *922:17 0.0170313
27 *921:9 *922:9 0.0208828
*RES
1 *989:wbs_dat_o[17] *922:7 12.125 
2 *922:7 *922:9 194.685 
3 *922:9 *922:15 13.6475 
4 *922:15 *922:17 212.265 
5 *922:17 *988:sram_dat_i[17] 11.444 
*END

*D_NET *923 0.105284
*CONN
*I *988:sram_dat_i[18] I *D soc_sys
*I *989:wbs_dat_o[18] O *D CF_SRAM_1024x32_wb_wrapper
*CAP
1 *988:sram_dat_i[18] 0.00418017
2 *989:wbs_dat_o[18] 0.00060914
3 *923:21 0.00986522
4 *923:19 0.00631195
5 *923:9 0.00365393
6 *923:7 0.00363617
7 *988:sram_dat_i[18] *960:7 0
8 *923:7 *989:wbs_dat_i[18] 0
9 *923:9 *924:9 0.0221683
10 *923:9 *927:9 0.0224551
11 *923:19 *955:19 2.88598e-05
12 *923:21 *954:9 0
13 *923:21 *959:19 0.00821192
14 *989:wbs_adr_i[18] *923:7 0
15 *989:wbs_adr_i[19] *923:7 0
16 *989:wbs_adr_i[6] *923:9 0.000637657
17 *989:wbs_cyc_i *923:9 0.00213564
18 *888:19 *923:19 3.2701e-05
19 *889:9 *923:21 0.0178646
20 *890:7 *988:sram_dat_i[18] 0
21 *890:9 *923:19 0.00126523
22 *890:9 *923:21 0.000471034
23 *914:21 *923:19 0
24 *921:9 *923:9 9.38151e-05
25 *921:15 *923:19 0.00166216
*RES
1 *989:wbs_dat_o[18] *923:7 11.615 
2 *923:7 *923:9 204 
3 *923:9 *923:19 26.88 
4 *923:19 *923:21 212.393 
5 *923:21 *988:sram_dat_i[18] 10.5117 
*END

*D_NET *924 0.114991
*CONN
*I *988:sram_dat_i[19] I *D soc_sys
*I *989:wbs_dat_o[19] O *D CF_SRAM_1024x32_wb_wrapper
*CAP
1 *988:sram_dat_i[19] 0.00426816
2 *989:wbs_dat_o[19] 0.000620825
3 *924:23 0.0152622
4 *924:9 0.0142373
5 *924:7 0.00386403
6 *988:sram_dat_i[19] *961:7 0
7 *924:7 *989:wbs_dat_i[19] 0
8 *924:9 *927:9 0.000342915
9 *924:23 *939:23 0.000224137
10 *924:23 *953:9 0.00275372
11 *924:23 *958:19 0.000226568
12 *989:wbs_adr_i[10] *924:23 4.2145e-05
13 *989:wbs_adr_i[19] *924:7 0
14 *989:wbs_adr_i[20] *924:7 0
15 *989:wbs_adr_i[6] *924:9 0.00314082
16 *885:19 *924:23 3.92756e-05
17 *886:9 *924:23 0.00223878
18 *891:9 *988:sram_dat_i[19] 0
19 *891:9 *924:23 0.0210214
20 *896:19 *924:23 0.000265542
21 *913:19 *924:23 0.000545712
22 *919:13 *924:23 0.0021946
23 *921:9 *924:9 8.43946e-05
24 *922:9 *924:9 0.0214505
25 *923:9 *924:9 0.0221683
*RES
1 *989:wbs_dat_o[19] *924:7 11.87 
2 *924:7 *924:9 206.415 
3 *924:9 *924:23 46.698 
4 *924:23 *988:sram_dat_i[19] 10.6235 
*END

*D_NET *925 0.0476582
*CONN
*I *988:sram_dat_i[1] I *D soc_sys
*I *989:wbs_dat_o[1] O *D CF_SRAM_1024x32_wb_wrapper
*CAP
1 *988:sram_dat_i[1] 0.00521606
2 *989:wbs_dat_o[1] 0.00292295
3 *925:19 0.00715905
4 *925:15 0.00321757
5 *925:11 0.00419754
6 *988:sram_dat_i[1] *962:7 0
7 *925:11 *989:wbs_dat_i[1] 0
8 *925:11 *989:wbs_sel_i[1] 0
9 *925:11 *989:wbs_sel_i[3] 8.9459e-06
10 *925:11 *942:52 0.00202792
11 *925:11 *962:35 0.00665889
12 *925:15 *936:19 0
13 *925:15 *960:19 0.000181549
14 *925:15 *962:35 0
15 *925:15 *983:11 0.000779674
16 *925:19 *983:11 0.00242169
17 *989:wbs_adr_i[3] *925:15 0
18 *989:wbs_adr_i[7] *925:11 0.0116875
19 *989:wbs_adr_i[9] *925:11 0.000768666
20 *884:19 *925:15 0.000188622
21 *892:7 *988:sram_dat_i[1] 0
22 *903:9 *925:15 0
23 *903:9 *925:19 0
24 *914:19 *925:15 4.7939e-05
25 *915:19 *925:15 0.000173593
*RES
1 *989:wbs_dat_o[1] *925:11 31.5392 
2 *925:11 *925:15 25.695 
3 *925:15 *925:19 45.845 
4 *925:19 *988:sram_dat_i[1] 11.7597 
*END

*D_NET *926 0.103841
*CONN
*I *988:sram_dat_i[20] I *D soc_sys
*I *989:wbs_dat_o[20] O *D CF_SRAM_1024x32_wb_wrapper
*CAP
1 *988:sram_dat_i[20] 0.00010107
2 *989:wbs_dat_o[20] 6.97355e-05
3 *926:21 0.00778904
4 *926:19 0.0120523
5 *926:9 0.0077892
6 *926:7 0.0034946
7 *926:7 *989:wbs_dat_i[20] 0
8 *926:9 *989:wbs_dat_i[2] 0.00194356
9 *926:9 *963:21 0.0231305
10 *926:9 *964:21 0.0236036
11 *926:21 *936:21 0.00531744
12 *926:21 *946:13 0.00363063
13 *926:21 *959:11 0.0100532
14 *926:21 *979:11 0.00174185
15 *989:wbs_adr_i[5] *926:19 0
16 *110:13 *926:19 0.00129722
17 *541:59 *926:9 7.28681e-05
18 *889:15 *926:19 0.000877526
19 *890:9 *926:19 0.000876244
*RES
1 *989:wbs_dat_o[20] *926:7 2.945 
2 *926:7 *926:9 215.04 
3 *926:9 *926:19 23.587 
4 *926:19 *926:21 230.625 
5 *926:21 *988:sram_dat_i[20] 0.7584 
*END

*D_NET *927 0.117263
*CONN
*I *988:sram_dat_i[21] I *D soc_sys
*I *989:wbs_dat_o[21] O *D CF_SRAM_1024x32_wb_wrapper
*CAP
1 *988:sram_dat_i[21] 0.0038606
2 *989:wbs_dat_o[21] 0.000568594
3 *927:13 0.00994988
4 *927:11 0.00608927
5 *927:9 0.00367813
6 *927:7 0.00424672
7 *988:sram_dat_i[21] *964:7 0
8 *927:13 *951:9 0
9 *927:13 *954:9 0.00022787
10 *989:wbs_adr_i[21] *927:7 0
11 *989:wbs_adr_i[22] *927:7 0
12 *989:wbs_adr_i[6] *927:9 0.000587838
13 *989:wbs_cyc_i *927:9 0.00222478
14 *31:17 *927:13 0.000351278
15 *32:17 *927:13 5.71093e-06
16 *110:17 *927:13 0.0210317
17 *887:9 *927:13 0.016908
18 *894:7 *988:sram_dat_i[21] 0
19 *895:21 *927:9 0.0247348
20 *906:9 *927:13 0
21 *923:9 *927:9 0.0224551
22 *924:9 *927:9 0.000342915
*RES
1 *989:wbs_dat_o[21] *927:7 11.36 
2 *927:7 *927:9 224.7 
3 *927:9 *927:11 2 
4 *927:11 *927:13 259.312 
5 *927:13 *988:sram_dat_i[21] 9.81253 
*END

*D_NET *928 0.0942174
*CONN
*I *988:sram_dat_i[22] I *D soc_sys
*I *989:wbs_dat_o[22] O *D CF_SRAM_1024x32_wb_wrapper
*CAP
1 *988:sram_dat_i[22] 0.00185642
2 *989:wbs_dat_o[22] 0.000248157
3 *928:21 0.0128637
4 *928:19 0.0116359
5 *928:9 0.00969441
6 *928:7 0.00931395
7 *988:sram_dat_i[22] *965:7 0
8 *928:9 *989:wbs_dat_i[3] 0.000118286
9 *928:9 *929:11 0.000303943
10 *928:9 *960:21 0
11 *928:9 *961:21 0
12 *928:9 *963:21 0
13 *928:9 *980:31 0
14 *928:19 *981:9 0.000171445
15 *928:21 *930:13 0
16 *928:21 *956:9 0.0172384
17 *989:wbs_adr_i[1] *928:9 0.00219099
18 *989:wbs_adr_i[22] *928:7 0
19 *989:wbs_adr_i[23] *928:7 0
20 *32:21 *928:9 0
21 *37:33 *928:19 3.92474e-05
22 *38:29 *928:19 0.000655834
23 *108:21 *928:19 0.000138705
24 *541:59 *928:9 0
25 *880:15 *928:19 0.00185998
26 *885:19 *928:19 7.52092e-05
27 *893:9 *928:19 0
28 *893:13 *928:9 9.09183e-05
29 *894:19 *928:19 0.000886713
30 *894:21 *928:9 0.0242884
31 *895:7 *988:sram_dat_i[22] 0
32 *896:21 *928:9 0.00054681
*RES
1 *989:wbs_dat_o[22] *928:7 5.75 
2 *928:7 *928:9 238.5 
3 *928:9 *928:19 8.14363 
4 *928:19 *928:21 264.795 
5 *928:21 *988:sram_dat_i[22] 5.26773 
*END

*D_NET *929 0.0896028
*CONN
*I *988:sram_dat_i[23] I *D soc_sys
*I *989:wbs_dat_o[23] O *D CF_SRAM_1024x32_wb_wrapper
*CAP
1 *988:sram_dat_i[23] 0.00713768
2 *989:wbs_dat_o[23] 0.00598002
3 *929:15 0.0235796
4 *929:11 0.0224219
5 *988:sram_dat_i[23] *965:7 0.0111335
6 *929:11 *989:wbs_dat_i[23] 0.00252046
7 *929:11 *989:wbs_dat_i[4] 0.00245456
8 *929:11 *989:wbs_dat_i[5] 0.0010193
9 *929:11 *936:19 0.00112911
10 *989:wbs_adr_i[10] *929:11 0
11 *989:wbs_adr_i[24] *929:11 0.0100503
12 *896:7 *988:sram_dat_i[23] 0.0018725
13 *928:9 *929:11 0.000303943
*RES
1 *989:wbs_dat_o[23] *929:11 24.296 
2 *929:11 *929:15 45.4135 
3 *929:15 *988:sram_dat_i[23] 33.4625 
*END

*D_NET *930 0.101708
*CONN
*I *988:sram_dat_i[24] I *D soc_sys
*I *989:wbs_dat_o[24] O *D CF_SRAM_1024x32_wb_wrapper
*CAP
1 *988:sram_dat_i[24] 0.00171849
2 *989:wbs_dat_o[24] 0.00133403
3 *930:13 0.0132815
4 *930:11 0.0221586
5 *930:7 0.0119296
6 *988:sram_dat_i[24] *967:11 0
7 *930:11 *931:11 0.0309478
8 *930:13 *931:13 0.0106984
9 *930:13 *956:9 0
10 *930:13 *976:9 0.00782284
11 *989:wbs_adr_i[11] *930:13 0.00164822
12 *36:23 *930:13 4.33071e-05
13 *67:17 *930:13 0.000125189
14 *897:7 *988:sram_dat_i[24] 0
15 *928:21 *930:13 0
*RES
1 *989:wbs_dat_o[24] *930:7 23.5025 
2 *930:7 *930:11 46.1608 
3 *930:11 *930:13 300.495 
4 *930:13 *988:sram_dat_i[24] 4.74333 
*END

*D_NET *931 0.132992
*CONN
*I *988:sram_dat_i[25] I *D soc_sys
*I *989:wbs_dat_o[25] O *D CF_SRAM_1024x32_wb_wrapper
*CAP
1 *988:sram_dat_i[25] 0.00124161
2 *989:wbs_dat_o[25] 0.00128919
3 *931:13 0.00732671
4 *931:11 0.0105668
5 *931:7 0.00577087
6 *988:sram_dat_i[25] *968:17 0.000860303
7 *931:13 *976:9 0.00782404
8 *989:wbs_adr_i[11] *931:13 0.00181939
9 *989:wbs_adr_i[26] *931:7 0
10 *67:17 *931:13 0.000670597
11 *899:9 *931:13 0.00656787
12 *899:15 *931:11 0.0316201
13 *917:21 *931:13 0.0157886
14 *930:11 *931:11 0.0309478
15 *930:13 *931:13 0.0106984
*RES
1 *989:wbs_dat_o[25] *931:7 22.9925 
2 *931:7 *931:11 47.1513 
3 *931:11 *931:13 309.165 
4 *931:13 *988:sram_dat_i[25] 4.6268 
*END

*D_NET *932 0.124527
*CONN
*I *988:sram_dat_i[26] I *D soc_sys
*I *989:wbs_dat_o[26] O *D CF_SRAM_1024x32_wb_wrapper
*CAP
1 *988:sram_dat_i[26] 0.00104382
2 *989:wbs_dat_o[26] 0.00114543
3 *932:13 0.0131409
4 *932:11 0.016688
5 *932:7 0.00573631
6 *988:sram_dat_i[26] *969:7 0
7 *932:7 *989:wbs_dat_i[26] 0
8 *932:7 *989:wbs_dat_i[27] 0
9 *932:11 *969:15 0.0331183
10 *932:11 *970:13 0.0333175
11 *932:13 *940:13 0.0098189
12 *932:13 *943:21 0
13 *932:13 *969:9 0.0104003
14 *882:9 *932:13 0
15 *899:7 *988:sram_dat_i[26] 0
16 *901:15 *932:11 0.000117533
*RES
1 *989:wbs_dat_o[26] *932:7 20.9525 
2 *932:7 *932:11 49.6568 
3 *932:11 *932:13 316.305 
4 *932:13 *988:sram_dat_i[26] 2.99533 
*END

*D_NET *933 0.102123
*CONN
*I *988:sram_dat_i[27] I *D soc_sys
*I *989:wbs_dat_o[27] O *D CF_SRAM_1024x32_wb_wrapper
*CAP
1 *988:sram_dat_i[27] 0.000332776
2 *989:wbs_dat_o[27] 0.000382449
3 *933:18 0.01201
4 *933:16 0.0116772
5 *933:14 0.0135202
6 *933:12 0.0139026
7 *933:12 *989:wbs_dat_i[28] 0.00138964
8 *933:12 *989:wbs_dat_i[29] 0.000473148
9 *933:12 *989:wbs_dat_i[30] 0.000123317
10 *933:14 *989:wbs_dat_i[24] 0.0146187
11 *933:18 *969:7 0.000913387
12 *989:wbs_adr_i[27] *933:12 0.00170008
13 *900:9 *933:18 0.0310796
*RES
1 *989:wbs_dat_o[27] *933:12 4.25913 
2 *933:12 *933:14 50.5983 
3 *933:14 *933:16 0.5 
4 *933:16 *933:18 49.5355 
5 *933:18 *988:sram_dat_i[27] 5.01953 
*END

*D_NET *934 0.116272
*CONN
*I *988:sram_dat_i[28] I *D soc_sys
*I *989:wbs_dat_o[28] O *D CF_SRAM_1024x32_wb_wrapper
*CAP
1 *988:sram_dat_i[28] 0.00083407
2 *989:wbs_dat_o[28] 0.00109515
3 *934:13 0.0136326
4 *934:11 0.0127985
5 *934:9 0.00993442
6 *934:7 0.0110296
7 *988:sram_dat_i[28] *971:17 0
8 *934:7 *989:wbs_dat_i[29] 0
9 *934:9 *989:wbs_sel_i[1] 0.00296383
10 *934:9 *940:11 0.000113082
11 *934:9 *941:11 0.00306686
12 *934:9 *943:19 0.00541286
13 *934:9 *950:31 0.000511258
14 *934:9 *970:13 0.0327965
15 *934:13 *970:9 0.00932393
16 *934:13 *982:9 0.0126602
17 *989:wbs_adr_i[28] *934:7 0
18 *901:7 *988:sram_dat_i[28] 0
19 *901:15 *934:9 9.95677e-05
*RES
1 *989:wbs_dat_o[28] *934:7 19.9325 
2 *934:7 *934:9 51.2544 
3 *934:9 *934:11 0.5 
4 *934:11 *934:13 333.645 
5 *934:13 *988:sram_dat_i[28] 2.64573 
*END

*D_NET *935 0.0921934
*CONN
*I *988:sram_dat_i[29] I *D soc_sys
*I *989:wbs_dat_o[29] O *D CF_SRAM_1024x32_wb_wrapper
*CAP
1 *988:sram_dat_i[29] 0.0182798
2 *989:wbs_dat_o[29] 0.000499668
3 *935:15 0.0182798
4 *935:13 0.0119579
5 *935:11 0.0124576
6 *988:sram_dat_i[29] *971:17 0.00799651
7 *988:sram_dat_i[29] *972:7 0
8 *935:11 *989:wbs_dat_i[29] 0
9 *935:11 *989:wbs_dat_i[30] 0
10 *989:wbs_adr_i[29] *935:11 0.00313815
11 *989:wbs_adr_i[30] *935:11 0.00285855
12 *902:5 *988:sram_dat_i[29] 0
13 *902:9 *935:13 0.0167254
14 *904:9 *935:13 0
*RES
1 *989:wbs_dat_o[29] *935:11 6.26183 
2 *935:11 *935:13 323.955 
3 *935:13 *935:15 0.5 
4 *935:15 *988:sram_dat_i[29] 58.8975 
*END

*D_NET *936 0.0696382
*CONN
*I *988:sram_dat_i[2] I *D soc_sys
*I *989:wbs_dat_o[2] O *D CF_SRAM_1024x32_wb_wrapper
*CAP
1 *988:sram_dat_i[2] 0.000173282
2 *989:wbs_dat_o[2] 0.00475279
3 *936:21 0.00107836
4 *936:19 0.00565787
5 *936:19 *989:wbs_dat_i[15] 0.00319298
6 *936:19 *989:wbs_dat_i[2] 0.000148894
7 *936:19 *989:wbs_dat_i[4] 0.00101649
8 *936:19 *989:wbs_dat_i[5] 0.0198875
9 *936:19 *989:wbs_dat_i[6] 0.00755555
10 *936:19 *989:wbs_sel_i[0] 1.74488e-05
11 *936:19 *989:wbs_sel_i[2] 0
12 *936:19 *959:29 0.00926999
13 *936:19 *960:19 0
14 *936:19 *960:21 0.00212643
15 *936:19 *962:9 7.90639e-06
16 *936:19 *962:35 0.000277174
17 *936:21 *946:13 0.000229824
18 *936:21 *979:11 0.00571924
19 *989:wbs_adr_i[5] *936:19 2.35067e-05
20 *35:21 *936:19 3.09608e-05
21 *541:59 *936:19 0.00196891
22 *903:9 *936:19 5.65453e-05
23 *925:15 *936:19 0
24 *926:21 *936:21 0.00531744
25 *929:11 *936:19 0.00112911
*RES
1 *989:wbs_dat_o[2] *936:19 41.2022 
2 *936:19 *936:21 63.855 
3 *936:21 *988:sram_dat_i[2] 0.7584 
*END

*D_NET *937 0.118543
*CONN
*I *988:sram_dat_i[30] I *D soc_sys
*I *989:wbs_dat_o[30] O *D CF_SRAM_1024x32_wb_wrapper
*CAP
1 *988:sram_dat_i[30] 0.0217879
2 *989:wbs_dat_o[30] 0.000317125
3 *937:12 0.0217879
4 *937:10 0.00463501
5 *937:8 0.00495214
6 *988:sram_dat_i[30] *974:7 0
7 *988:sram_dat_i[30] *975:15 0.00130435
8 *989:wbs_adr_i[30] *937:8 0.00242255
9 *989:wbs_adr_i[31] *937:8 0.0021829
10 *904:5 *988:sram_dat_i[30] 0
11 *904:9 *937:10 0.0294668
12 *905:9 *937:10 0.0296864
*RES
1 *989:wbs_dat_o[30] *937:8 4.534 
2 *937:8 *937:10 332.115 
3 *937:10 *937:12 0.5 
4 *937:12 *988:sram_dat_i[30] 58.6061 
*END

*D_NET *938 0.0846047
*CONN
*I *988:sram_dat_i[31] I *D soc_sys
*I *989:wbs_dat_o[31] O *D CF_SRAM_1024x32_wb_wrapper
*CAP
1 *988:sram_dat_i[31] 0.0213502
2 *989:wbs_dat_o[31] 3.31633e-05
3 *938:12 0.0213502
4 *938:10 0.020876
5 *938:8 0.0209092
6 *988:sram_dat_i[31] *975:7 0
7 *938:10 *975:17 0
8 *989:wbs_adr_i[31] *938:8 8.59615e-05
9 *905:5 *988:sram_dat_i[31] 0
*RES
1 *989:wbs_dat_o[31] *938:8 1.1254 
2 *938:8 *938:10 57.4889 
3 *938:10 *938:12 0.5 
4 *938:12 *988:sram_dat_i[31] 56.0715 
*END

*D_NET *939 0.0725715
*CONN
*I *988:sram_dat_i[3] I *D soc_sys
*I *989:wbs_dat_o[3] O *D CF_SRAM_1024x32_wb_wrapper
*CAP
1 *988:sram_dat_i[3] 0.00495209
2 *989:wbs_dat_o[3] 0.00316184
3 *939:25 0.00634675
4 *939:23 0.00217352
5 *939:15 0.0039407
6 *988:sram_dat_i[3] *976:7 0
7 *939:15 *989:wbs_dat_i[3] 0
8 *939:15 *989:wbs_dat_i[8] 0.0134424
9 *939:15 *989:wbs_sel_i[3] 0
10 *939:15 *942:52 0.000104279
11 *939:23 *950:15 0.000103115
12 *939:23 *958:19 0.000113747
13 *939:23 *980:31 0
14 *939:25 *962:9 0.00487109
15 *989:wbs_adr_i[3] *939:15 0
16 *989:wbs_adr_i[8] *939:15 0.00188789
17 *989:wbs_adr_i[9] *939:15 0.0031945
18 *891:19 *939:23 0.000542199
19 *892:9 *939:23 1.68627e-05
20 *896:19 *939:25 0.00142064
21 *903:9 *939:25 0.000310233
22 *906:7 *988:sram_dat_i[3] 0
23 *907:9 *939:25 0.00677089
24 *913:19 *939:23 0.0010251
25 *914:19 *939:15 0.0109945
26 *916:9 *939:15 0.000311833
27 *917:9 *939:15 0.000285823
28 *917:19 *939:15 0.000418747
29 *918:9 *939:15 0.00265331
30 *919:9 *939:15 0.00289476
31 *920:23 *939:23 0.000410486
32 *924:23 *939:23 0.000224137
*RES
1 *989:wbs_dat_o[3] *939:15 32.9825 
2 *939:15 *939:23 24.6925 
3 *939:23 *939:25 75.7125 
4 *939:25 *988:sram_dat_i[3] 11.6771 
*END

*D_NET *940 0.0699879
*CONN
*I *988:sram_dat_i[4] I *D soc_sys
*I *989:wbs_dat_o[4] O *D CF_SRAM_1024x32_wb_wrapper
*CAP
1 *988:sram_dat_i[4] 0.00101886
2 *989:wbs_dat_o[4] 0.00586768
3 *940:13 0.00280668
4 *940:11 0.00765551
5 *988:sram_dat_i[4] *977:7 0
6 *940:11 *989:wbs_dat_i[0] 0.00974828
7 *940:11 *989:wbs_dat_i[4] 0
8 *940:11 *989:wbs_dat_i[5] 0
9 *940:11 *989:wbs_sel_i[1] 0.00136931
10 *940:11 *989:wbs_sel_i[2] 0.000274585
11 *940:11 *989:wbs_sel_i[3] 0.000316547
12 *940:11 *941:11 0.018006
13 *940:11 *942:52 0
14 *940:11 *943:19 0.000460085
15 *940:11 *944:19 0.00256742
16 *940:11 *956:19 0.000144803
17 *940:13 *969:9 0.0098201
18 *989:wbs_adr_i[4] *940:11 0
19 *989:wbs_adr_i[5] *940:11 0
20 *907:7 *988:sram_dat_i[4] 0
21 *932:13 *940:13 0.0098189
22 *934:9 *940:11 0.000113082
*RES
1 *989:wbs_dat_o[4] *940:11 48.3796 
2 *940:11 *940:13 111.285 
3 *940:13 *988:sram_dat_i[4] 2.93707 
*END

*D_NET *941 0.0681231
*CONN
*I *988:sram_dat_i[5] I *D soc_sys
*I *989:wbs_dat_o[5] O *D CF_SRAM_1024x32_wb_wrapper
*CAP
1 *988:sram_dat_i[5] 0.00161249
2 *989:wbs_dat_o[5] 0.00535851
3 *941:13 0.00542253
4 *941:11 0.00916855
5 *988:sram_dat_i[5] *959:17 0.00171239
6 *941:11 *989:wbs_dat_i[5] 0
7 *941:11 *989:wbs_sel_i[1] 0.00535832
8 *941:11 *942:52 0.00283858
9 *941:11 *943:19 0.000434467
10 *941:11 *950:31 0.00150011
11 *941:13 *956:9 0.000220097
12 *988:sram_ack_i *941:13 0.00313722
13 *989:wbs_adr_i[6] *941:11 0
14 *40:53 *941:13 0.000287211
15 *909:9 *941:13 0.00999976
16 *934:9 *941:11 0.00306686
17 *940:11 *941:11 0.018006
*RES
1 *989:wbs_dat_o[5] *941:11 47.2581 
2 *941:11 *941:13 120.975 
3 *941:13 *988:sram_dat_i[5] 5.44253 
*END

*D_NET *942 0.0964216
*CONN
*I *988:sram_dat_i[6] I *D soc_sys
*I *989:wbs_dat_o[6] O *D CF_SRAM_1024x32_wb_wrapper
*CAP
1 *988:sram_dat_i[6] 0.00229095
2 *989:wbs_dat_o[6] 0.0206709
3 *942:52 0.0229619
4 *942:52 *989:wbs_dat_i[0] 0.00382022
5 *942:52 *989:wbs_dat_i[9] 4.21127e-05
6 *942:52 *989:wbs_sel_i[2] 0.00347051
7 *942:52 *989:wbs_sel_i[3] 0.00102004
8 *942:52 *943:9 0.000766042
9 *942:52 *943:19 0.00284378
10 *942:52 *944:9 0.000835751
11 *942:52 *949:9 0.000331399
12 *942:52 *950:31 0.00139634
13 *942:52 *955:21 0.00074969
14 *942:52 *956:21 0.000687159
15 *942:52 *958:21 0.000687159
16 *942:52 *962:35 0.0018745
17 *989:wbs_adr_i[24] *942:52 1.00909e-05
18 *989:wbs_adr_i[7] *942:52 0.00375902
19 *989:wbs_adr_i[8] *942:52 0.0020338
20 *989:wbs_adr_i[9] *942:52 0.00701529
21 *36:13 *942:52 0.00152076
22 *37:29 *942:52 0.000476635
23 *38:25 *942:52 0.0013162
24 *39:13 *942:52 0.00251461
25 *40:53 *942:52 0.00430234
26 *884:9 *942:52 0.000476635
27 *895:9 *942:52 0.00122485
28 *909:7 *988:sram_dat_i[6] 0
29 *914:19 *942:52 0.00176026
30 *915:21 *942:52 0.000476635
31 *918:19 *942:52 0.000115262
32 *925:11 *942:52 0.00202792
33 *939:15 *942:52 0.000104279
34 *940:11 *942:52 0
35 *941:11 *942:52 0.00283858
*RES
1 *989:wbs_dat_o[6] *942:52 47.6309 
2 *942:52 *988:sram_dat_i[6] 5.6126 
*END

*D_NET *943 0.0822545
*CONN
*I *988:sram_dat_i[7] I *D soc_sys
*I *989:wbs_dat_o[7] O *D CF_SRAM_1024x32_wb_wrapper
*CAP
1 *988:sram_dat_i[7] 0.00123047
2 *989:wbs_dat_o[7] 0.00110713
3 *943:21 0.00388518
4 *943:19 0.00392521
5 *943:9 0.00332086
6 *943:7 0.0031575
7 *988:sram_dat_i[7] *980:7 0
8 *943:7 *989:wbs_dat_i[7] 0
9 *943:9 *989:wbs_sel_i[1] 0.00136888
10 *943:9 *989:wbs_sel_i[2] 0.000421062
11 *943:9 *944:9 0.0152634
12 *943:9 *980:33 0.0150794
13 *943:19 *950:31 0.000564319
14 *943:19 *980:31 1.39525e-05
15 *989:wbs_adr_i[8] *943:7 0
16 *882:9 *943:21 0.011418
17 *910:7 *988:sram_dat_i[7] 0
18 *910:9 *943:21 0.0115819
19 *932:13 *943:21 0
20 *934:9 *943:19 0.00541286
21 *940:11 *943:19 0.000460085
22 *941:11 *943:19 0.000434467
23 *942:52 *943:9 0.000766042
24 *942:52 *943:19 0.00284378
*RES
1 *989:wbs_dat_o[7] *943:7 18.245 
2 *943:7 *943:9 140.52 
3 *943:9 *943:19 14.0361 
4 *943:19 *943:21 140.355 
5 *943:21 *988:sram_dat_i[7] 3.578 
*END

*D_NET *944 0.0823232
*CONN
*I *988:sram_dat_i[8] I *D soc_sys
*I *989:wbs_dat_o[8] O *D CF_SRAM_1024x32_wb_wrapper
*CAP
1 *988:sram_dat_i[8] 0.00284926
2 *989:wbs_dat_o[8] 0.00107393
3 *944:21 0.00641408
4 *944:19 0.00423917
5 *944:9 0.0030265
6 *944:7 0.00342608
7 *988:sram_dat_i[8] *981:7 0
8 *944:7 *989:wbs_dat_i[8] 0
9 *944:9 *989:wbs_sel_i[1] 0.00152714
10 *944:9 *989:wbs_sel_i[2] 0.00038743
11 *944:9 *945:9 0.016314
12 *944:9 *980:33 4.12775e-05
13 *944:19 *989:wbs_sel_i[1] 0.00123512
14 *944:19 *989:wbs_sel_i[3] 0.000501033
15 *944:19 *950:31 8.27944e-05
16 *944:21 *949:9 0
17 *944:21 *963:9 0.0117813
18 *944:21 *977:9 0.00886902
19 *989:wbs_adr_i[8] *944:7 0
20 *989:wbs_adr_i[9] *944:7 0.000106321
21 *989:wbs_adr_i[9] *944:21 0.00163695
22 *894:9 *944:21 0.000145291
23 *911:7 *988:sram_dat_i[8] 0
24 *940:11 *944:19 0.00256742
25 *942:52 *944:9 0.000835751
26 *943:9 *944:9 0.0152634
*RES
1 *989:wbs_dat_o[8] *944:7 17.99 
2 *944:7 *944:9 150.18 
3 *944:9 *944:19 7.93937 
4 *944:19 *944:21 147.495 
5 *944:21 *988:sram_dat_i[8] 7.13227 
*END

*D_NET *945 0.0836555
*CONN
*I *988:sram_dat_i[9] I *D soc_sys
*I *989:wbs_dat_o[9] O *D CF_SRAM_1024x32_wb_wrapper
*CAP
1 *988:sram_dat_i[9] 0.0031842
2 *989:wbs_dat_o[9] 0.00107318
3 *945:21 0.00597535
4 *945:19 0.00307087
5 *945:9 0.00304311
6 *945:7 0.00383657
7 *988:sram_dat_i[9] *982:7 0
8 *945:7 *989:wbs_dat_i[10] 0
9 *945:9 *989:wbs_sel_i[2] 0.00286457
10 *945:9 *989:wbs_sel_i[3] 0.000110612
11 *945:9 *952:13 0.00061321
12 *945:9 *953:17 0.0169852
13 *945:19 *989:wbs_sel_i[3] 0.000314078
14 *945:19 *947:13 0.000127346
15 *945:19 *951:9 0
16 *945:19 *956:19 0.000143096
17 *945:21 *956:19 6.63219e-06
18 *945:21 *961:9 0.0123512
19 *945:21 *964:9 0.0125663
20 *945:21 *981:9 0.000532633
21 *989:wbs_adr_i[10] *945:7 0
22 *989:wbs_adr_i[9] *988:sram_dat_i[9] 0
23 *989:wbs_adr_i[9] *945:19 0.000123056
24 *108:25 *945:21 0
25 *918:19 *945:19 0.000420298
26 *944:9 *945:9 0.016314
*RES
1 *989:wbs_dat_o[9] *945:7 17.735 
2 *945:7 *945:9 166.05 
3 *945:9 *945:19 5.5943 
4 *945:19 *945:21 154.125 
5 *945:21 *988:sram_dat_i[9] 8.18107 
*END

*D_NET *946 0.0368708
*CONN
*I *989:wbs_sel_i[0] I *D CF_SRAM_1024x32_wb_wrapper
*I *988:sram_sel_o[0] O *D soc_sys
*CAP
1 *989:wbs_sel_i[0] 0.0072575
2 *988:sram_sel_o[0] 0.0019184
3 *946:13 0.0091759
4 *989:wbs_sel_i[0] *989:wbs_dat_i[15] 0.00163912
5 *989:wbs_sel_i[0] *989:wbs_dat_i[6] 0.00938368
6 *989:wbs_sel_i[0] *989:wbs_dat_i[9] 0.00251879
7 *989:wbs_sel_i[0] *961:19 0.000736843
8 *946:13 *979:11 2.03321e-05
9 *35:21 *989:wbs_sel_i[0] 0
10 *540:35 *989:wbs_sel_i[0] 1.09082e-05
11 *541:57 *989:wbs_sel_i[0] 0.000320471
12 *891:19 *989:wbs_sel_i[0] 1.09082e-05
13 *926:21 *946:13 0.00363063
14 *936:19 *989:wbs_sel_i[0] 1.74488e-05
15 *936:21 *946:13 0.000229824
*RES
1 *988:sram_sel_o[0] *946:13 47.8595 
2 *946:13 *989:wbs_sel_i[0] 29.2483 
*END

*D_NET *947 0.0550856
*CONN
*I *989:wbs_sel_i[1] I *D CF_SRAM_1024x32_wb_wrapper
*I *988:sram_sel_o[1] O *D soc_sys
*CAP
1 *989:wbs_sel_i[1] 0.00440221
2 *988:sram_sel_o[1] 0.00449096
3 *947:13 0.00705623
4 *947:11 0.00714498
5 *989:wbs_sel_i[1] *989:wbs_dat_i[0] 0.0044367
6 *989:wbs_sel_i[1] *989:wbs_dat_i[1] 0
7 *989:wbs_sel_i[1] *989:wbs_sel_i[2] 0.00762591
8 *989:wbs_sel_i[1] *989:wbs_sel_i[3] 0.000287262
9 *989:wbs_sel_i[1] *980:33 0.000371778
10 *947:11 *962:7 0
11 *947:13 *951:9 0
12 *947:13 *952:9 0.000183948
13 *989:wbs_adr_i[2] *989:wbs_sel_i[1] 0
14 *540:35 *947:13 0.000166112
15 *540:37 *947:11 0.000116216
16 *540:37 *947:13 0.000591692
17 *541:57 *947:13 4.06207e-05
18 *894:19 *947:13 0.000103782
19 *903:7 *947:11 0
20 *906:9 *947:11 0
21 *916:21 *947:11 0.00135165
22 *916:21 *947:13 0.00276565
23 *925:11 *989:wbs_sel_i[1] 0
24 *934:9 *989:wbs_sel_i[1] 0.00296383
25 *940:11 *989:wbs_sel_i[1] 0.00136931
26 *941:11 *989:wbs_sel_i[1] 0.00535832
27 *943:9 *989:wbs_sel_i[1] 0.00136888
28 *944:9 *989:wbs_sel_i[1] 0.00152714
29 *944:19 *989:wbs_sel_i[1] 0.00123512
30 *945:19 *947:13 0.000127346
*RES
1 *988:sram_sel_o[1] *947:11 24.8033 
2 *947:11 *947:13 64.53 
3 *947:13 *989:wbs_sel_i[1] 44.2864 
*END

*D_NET *948 0.0644219
*CONN
*I *989:wbs_sel_i[2] I *D CF_SRAM_1024x32_wb_wrapper
*I *988:sram_sel_o[2] O *D soc_sys
*CAP
1 *989:wbs_sel_i[2] 0.00388253
2 *988:sram_sel_o[2] 0.00437894
3 *948:9 0.00754297
4 *948:7 0.00803938
5 *989:wbs_sel_i[2] *989:wbs_dat_i[0] 0.00101714
6 *989:wbs_sel_i[2] *989:wbs_sel_i[3] 0.0136859
7 *989:wbs_sel_i[2] *953:17 0.00307915
8 *948:7 *973:7 0
9 *948:9 *954:9 0.00775179
10 *948:9 *955:19 0
11 *948:9 *959:19 0
12 *948:9 *964:19 0
13 *989:wbs_adr_i[3] *989:wbs_sel_i[2] 0
14 *989:wbs_sel_i[1] *989:wbs_sel_i[2] 0.00762591
15 *906:7 *948:7 0
16 *914:21 *948:9 0
17 *936:19 *989:wbs_sel_i[2] 0
18 *940:11 *989:wbs_sel_i[2] 0.000274585
19 *942:52 *989:wbs_sel_i[2] 0.00347051
20 *943:9 *989:wbs_sel_i[2] 0.000421062
21 *944:9 *989:wbs_sel_i[2] 0.00038743
22 *945:9 *989:wbs_sel_i[2] 0.00286457
*RES
1 *988:sram_sel_o[2] *948:7 9.98733 
2 *948:7 *948:9 91.395 
3 *948:9 *989:wbs_sel_i[2] 37.76 
*END

*D_NET *949 0.067447
*CONN
*I *989:wbs_sel_i[3] I *D CF_SRAM_1024x32_wb_wrapper
*I *988:sram_sel_o[3] O *D soc_sys
*CAP
1 *989:wbs_sel_i[3] 0.00470608
2 *988:sram_sel_o[3] 0.00263973
3 *949:9 0.00864147
4 *949:7 0.00657511
5 *989:wbs_sel_i[3] *989:wbs_dat_i[0] 0.00236031
6 *989:wbs_sel_i[3] *950:31 0.00909186
7 *989:wbs_sel_i[3] *952:13 0.00300821
8 *989:wbs_sel_i[3] *954:13 0.0032543
9 *989:wbs_sel_i[3] *956:19 0.00120052
10 *989:wbs_sel_i[3] *962:35 0.000771385
11 *949:7 *976:7 0
12 *989:wbs_adr_i[4] *989:wbs_sel_i[3] 0
13 *989:wbs_sel_i[1] *989:wbs_sel_i[3] 0.000287262
14 *989:wbs_sel_i[2] *989:wbs_sel_i[3] 0.0136859
15 *884:9 *949:9 0.00853109
16 *894:9 *949:9 0
17 *907:7 *949:7 0
18 *915:21 *949:9 4.5743e-05
19 *918:19 *989:wbs_sel_i[3] 4.53476e-05
20 *925:11 *989:wbs_sel_i[3] 8.9459e-06
21 *939:15 *989:wbs_sel_i[3] 0
22 *940:11 *989:wbs_sel_i[3] 0.000316547
23 *942:52 *989:wbs_sel_i[3] 0.00102004
24 *942:52 *949:9 0.000331399
25 *944:19 *989:wbs_sel_i[3] 0.000501033
26 *944:21 *949:9 0
27 *945:9 *989:wbs_sel_i[3] 0.000110612
28 *945:19 *989:wbs_sel_i[3] 0.000314078
*RES
1 *988:sram_sel_o[3] *949:7 6.5496 
2 *949:7 *949:9 103.125 
3 *949:9 *989:wbs_sel_i[3] 41.853 
*END

*D_NET *950 0.053443
*CONN
*I *989:wbs_stb_i I *D CF_SRAM_1024x32_wb_wrapper
*I *988:sram_stb_o O *D soc_sys
*CAP
1 *989:wbs_stb_i 0.00110174
2 *988:sram_stb_o 0.00551499
3 *950:31 0.00404566
4 *950:15 0.00845891
5 *989:wbs_stb_i *989:wbs_we_i 0
6 *950:15 *953:9 0
7 *950:15 *983:7 0
8 *950:31 *989:wbs_dat_i[0] 7.62357e-05
9 *950:31 *953:9 0.000973945
10 *950:31 *953:15 0.00026755
11 *950:31 *955:21 0.00200124
12 *950:31 *958:19 0.000803826
13 *950:31 *958:21 0.00218335
14 *950:31 *962:35 0.00938499
15 *950:31 *963:19 8.29121e-05
16 *989:wbs_adr_i[0] *989:wbs_stb_i 0
17 *989:wbs_adr_i[9] *950:31 0.000359497
18 *989:wbs_cyc_i *989:wbs_stb_i 0
19 *989:wbs_sel_i[3] *950:31 0.00909186
20 *891:9 *950:15 0.00061284
21 *892:9 *950:15 0.00274789
22 *913:7 *950:15 0
23 *913:19 *950:15 0.00138255
24 *918:19 *950:31 0.000189271
25 *920:23 *950:15 5.83121e-06
26 *934:9 *950:31 0.000511258
27 *939:23 *950:15 0.000103115
28 *941:11 *950:31 0.00150011
29 *942:52 *950:31 0.00139634
30 *943:19 *950:31 0.000564319
31 *944:19 *950:31 8.27944e-05
*RES
1 *988:sram_stb_o *950:15 47.9317 
2 *950:15 *950:31 45.2701 
3 *950:31 *989:wbs_stb_i 14.8425 
*END

*D_NET *951 0.0542245
*CONN
*I *989:wbs_dat_i[0] I *D CF_SRAM_1024x32_wb_wrapper
*I *988:sram_dat_o[0] O *D soc_sys
*CAP
1 *989:wbs_dat_i[0] 0.00383296
2 *988:sram_dat_o[0] 0.00391681
3 *951:9 0.00643039
4 *951:7 0.00651424
5 *989:wbs_dat_i[0] *955:21 0.000209789
6 *989:wbs_dat_i[0] *958:21 0.000228879
7 *989:wbs_dat_i[0] *962:35 0.000947968
8 *989:wbs_dat_i[0] *980:33 0.0045911
9 *951:9 *989:wbs_dat_i[15] 0.000591692
10 *951:9 *954:9 0
11 *988:sram_dat_i[0] *951:7 0
12 *989:wbs_adr_i[0] *989:wbs_dat_i[0] 0
13 *989:wbs_sel_i[1] *989:wbs_dat_i[0] 0.0044367
14 *989:wbs_sel_i[2] *989:wbs_dat_i[0] 0.00101714
15 *989:wbs_sel_i[3] *989:wbs_dat_i[0] 0.00236031
16 *894:19 *951:9 0
17 *906:9 *951:9 0.00476805
18 *914:19 *989:wbs_dat_i[0] 0.000520913
19 *918:19 *989:wbs_dat_i[0] 0.000212843
20 *927:13 *951:9 0
21 *940:11 *989:wbs_dat_i[0] 0.00974828
22 *942:52 *989:wbs_dat_i[0] 0.00382022
23 *945:19 *951:9 0
24 *947:13 *951:9 0
25 *950:31 *989:wbs_dat_i[0] 7.62357e-05
*RES
1 *988:sram_dat_o[0] *951:7 9.5212 
2 *951:7 *951:9 62.835 
3 *951:9 *989:wbs_dat_i[0] 39.5158 
*END

*D_NET *952 0.0899514
*CONN
*I *989:wbs_dat_i[10] I *D CF_SRAM_1024x32_wb_wrapper
*I *988:sram_dat_o[10] O *D soc_sys
*CAP
1 *989:wbs_dat_i[10] 0.00102333
2 *988:sram_dat_o[10] 0.00347409
3 *952:13 0.00361529
4 *952:11 0.00259196
5 *952:9 0.00288042
6 *952:7 0.00635452
7 *952:13 *953:17 0.0173585
8 *952:13 *954:13 0.0179535
9 *952:13 *956:21 0.000181121
10 *988:sram_dat_i[10] *952:7 0
11 *989:wbs_adr_i[10] *989:wbs_dat_i[10] 0
12 *989:wbs_adr_i[11] *989:wbs_dat_i[10] 0.000119906
13 *989:wbs_adr_i[11] *952:7 0
14 *989:wbs_sel_i[3] *952:13 0.00300821
15 *540:37 *952:9 0.00239672
16 *888:9 *952:9 0.0139062
17 *915:7 *989:wbs_dat_i[10] 0
18 *916:21 *952:9 0.0142904
19 *945:7 *989:wbs_dat_i[10] 0
20 *945:9 *952:13 0.00061321
21 *947:13 *952:9 0.000183948
*RES
1 *988:sram_dat_o[10] *952:7 8.9968 
2 *952:7 *952:9 167.258 
3 *952:9 *952:11 2 
4 *952:11 *952:13 170.88 
5 *952:13 *989:wbs_dat_i[10] 17.225 
*END

*D_NET *953 0.0856036
*CONN
*I *989:wbs_dat_i[11] I *D CF_SRAM_1024x32_wb_wrapper
*I *988:sram_dat_o[11] O *D soc_sys
*CAP
1 *989:wbs_dat_i[11] 0.00102517
2 *988:sram_dat_o[11] 0.00446447
3 *953:17 0.00360101
4 *953:15 0.00298583
5 *953:9 0.0060949
6 *953:7 0.0101494
7 *953:9 *958:9 0
8 *953:9 *958:19 0.000120871
9 *953:15 *955:19 0
10 *953:17 *954:13 0.00032969
11 *988:sram_dat_i[11] *953:7 0
12 *989:wbs_sel_i[2] *953:17 0.00307915
13 *884:7 *953:7 0
14 *886:9 *953:9 0.0148494
15 *892:9 *953:9 0
16 *913:19 *953:9 0
17 *914:21 *953:15 0
18 *915:7 *989:wbs_dat_i[11] 0
19 *916:7 *989:wbs_dat_i[11] 0
20 *918:19 *953:15 0.00019062
21 *919:13 *953:9 2.31188e-05
22 *919:13 *953:15 0.000351066
23 *924:23 *953:9 0.00275372
24 *945:9 *953:17 0.0169852
25 *950:15 *953:9 0
26 *950:31 *953:9 0.000973945
27 *950:31 *953:15 0.00026755
28 *952:13 *953:17 0.0173585
*RES
1 *988:sram_dat_o[11] *953:7 10.9196 
2 *953:7 *953:9 167.895 
3 *953:9 *953:15 11.3525 
4 *953:15 *953:17 165.015 
5 *953:17 *989:wbs_dat_i[11] 17.48 
*END

*D_NET *954 0.0897978
*CONN
*I *989:wbs_dat_i[12] I *D CF_SRAM_1024x32_wb_wrapper
*I *988:sram_dat_o[12] O *D soc_sys
*CAP
1 *989:wbs_dat_i[12] 0.00100399
2 *988:sram_dat_o[12] 0.00389054
3 *954:13 0.00364946
4 *954:11 0.00264547
5 *954:9 0.00544972
6 *954:7 0.00934025
7 *954:9 *959:19 0
8 *954:13 *955:21 0.0191365
9 *954:13 *956:21 0.000104474
10 *988:sram_dat_i[12] *954:7 0
11 *989:wbs_adr_i[12] *989:wbs_dat_i[12] 0
12 *989:wbs_sel_i[3] *954:13 0.0032543
13 *885:7 *954:7 0
14 *887:9 *954:9 0.0150602
15 *916:7 *989:wbs_dat_i[12] 0
16 *917:7 *989:wbs_dat_i[12] 0
17 *923:21 *954:9 0
18 *927:13 *954:9 0.00022787
19 *948:9 *954:9 0.00775179
20 *951:9 *954:9 0
21 *952:13 *954:13 0.0179535
22 *953:17 *954:13 0.00032969
*RES
1 *988:sram_dat_o[12] *954:7 9.92907 
2 *954:7 *954:9 185.363 
3 *954:9 *954:11 2 
4 *954:11 *954:13 175.71 
5 *954:13 *989:wbs_dat_i[12] 16.97 
*END

*D_NET *955 0.0971076
*CONN
*I *989:wbs_dat_i[13] I *D CF_SRAM_1024x32_wb_wrapper
*I *988:sram_dat_o[13] O *D soc_sys
*CAP
1 *989:wbs_dat_i[13] 0.000962851
2 *988:sram_dat_o[13] 0.00422515
3 *955:21 0.00357835
4 *955:19 0.00393206
5 *955:9 0.00369317
6 *955:7 0.00660176
7 *955:19 *964:19 8.21408e-05
8 *955:21 *956:21 0.000287089
9 *955:21 *958:21 0.0192135
10 *955:21 *962:35 0.000182783
11 *988:sram_dat_i[13] *955:7 0
12 *989:wbs_adr_i[13] *989:wbs_dat_i[13] 0
13 *989:wbs_dat_i[0] *955:21 0.000209789
14 *886:7 *955:7 0
15 *914:21 *955:19 0.00211246
16 *918:7 *989:wbs_dat_i[13] 0
17 *919:13 *955:9 0.0150551
18 *921:17 *955:9 0.0150551
19 *923:19 *955:19 2.88598e-05
20 *942:52 *955:21 0.00074969
21 *948:9 *955:19 0
22 *950:31 *955:21 0.00200124
23 *953:15 *955:19 0
24 *954:13 *955:21 0.0191365
*RES
1 *988:sram_dat_o[13] *955:7 10.7448 
2 *955:7 *955:9 168.533 
3 *955:9 *955:19 34.38 
4 *955:19 *955:21 178.47 
5 *955:21 *989:wbs_dat_i[13] 16.715 
*END

*D_NET *956 0.0852673
*CONN
*I *989:wbs_dat_i[14] I *D CF_SRAM_1024x32_wb_wrapper
*I *988:sram_dat_o[14] O *D soc_sys
*CAP
1 *989:wbs_dat_i[14] 0.000910606
2 *988:sram_dat_o[14] 0.0018857
3 *956:21 0.00820071
4 *956:19 0.00792314
5 *956:9 0.00566737
6 *956:7 0.00692004
7 *956:21 *958:21 0.0197855
8 *956:21 *962:35 0.00242225
9 *988:sram_dat_i[14] *956:7 0
10 *989:wbs_adr_i[14] *989:wbs_dat_i[14] 0
11 *989:wbs_sel_i[3] *956:19 0.00120052
12 *887:7 *956:7 0
13 *909:9 *956:9 0.0105467
14 *915:9 *956:21 0
15 *916:9 *956:21 0
16 *918:7 *989:wbs_dat_i[14] 0
17 *918:19 *956:19 0.000791945
18 *919:7 *989:wbs_dat_i[14] 0
19 *928:21 *956:9 0.0172384
20 *930:13 *956:9 0
21 *940:11 *956:19 0.000144803
22 *941:13 *956:9 0.000220097
23 *942:52 *956:21 0.000687159
24 *945:19 *956:19 0.000143096
25 *945:21 *956:19 6.63219e-06
26 *952:13 *956:21 0.000181121
27 *954:13 *956:21 0.000104474
28 *955:21 *956:21 0.000287089
*RES
1 *988:sram_dat_o[14] *956:7 5.326 
2 *956:7 *956:9 203.595 
3 *956:9 *956:19 6.81037 
4 *956:19 *956:21 195.375 
5 *956:21 *989:wbs_dat_i[14] 16.205 
*END

*D_NET *957 0.0946574
*CONN
*I *989:wbs_dat_i[15] I *D CF_SRAM_1024x32_wb_wrapper
*I *988:sram_dat_o[15] O *D soc_sys
*CAP
1 *989:wbs_dat_i[15] 0.0321036
2 *988:sram_dat_o[15] 0.0321036
3 *989:wbs_dat_i[15] *989:wbs_dat_i[25] 0.000462302
4 *989:wbs_dat_i[15] *989:wbs_dat_i[2] 0.0033913
5 *989:wbs_dat_i[15] *989:wbs_dat_i[5] 0.00346912
6 *989:wbs_dat_i[15] *989:wbs_dat_i[6] 0.000511403
7 *989:wbs_dat_i[15] *989:wbs_dat_i[9] 0.00424362
8 *989:wbs_dat_i[15] *960:19 0.00027598
9 *989:wbs_dat_i[15] *961:19 0.000264699
10 *989:wbs_dat_i[15] *963:19 0.00014447
11 *988:sram_dat_i[15] *989:wbs_dat_i[15] 0
12 *989:wbs_adr_i[15] *989:wbs_dat_i[15] 0
13 *989:wbs_adr_i[24] *989:wbs_dat_i[15] 0.000256575
14 *989:wbs_adr_i[5] *989:wbs_dat_i[15] 0.00357629
15 *989:wbs_sel_i[0] *989:wbs_dat_i[15] 0.00163912
16 *540:37 *989:wbs_dat_i[15] 0.00723733
17 *888:7 *989:wbs_dat_i[15] 0
18 *906:9 *989:wbs_dat_i[15] 0.00119326
19 *920:7 *989:wbs_dat_i[15] 0
20 *936:19 *989:wbs_dat_i[15] 0.00319298
21 *951:9 *989:wbs_dat_i[15] 0.000591692
*RES
1 *988:sram_dat_o[15] *989:wbs_dat_i[15] 48.9569 
*END

*D_NET *958 0.102685
*CONN
*I *989:wbs_dat_i[16] I *D CF_SRAM_1024x32_wb_wrapper
*I *988:sram_dat_o[16] O *D soc_sys
*CAP
1 *989:wbs_dat_i[16] 0.00090669
2 *988:sram_dat_o[16] 0.00457149
3 *958:21 0.00410763
4 *958:19 0.00409249
5 *958:9 0.0068261
6 *958:7 0.010506
7 *958:19 *963:19 8.16247e-05
8 *958:19 *980:31 0
9 *958:21 *962:35 0.000167537
10 *988:sram_dat_i[16] *958:7 0
11 *989:wbs_adr_i[16] *989:wbs_dat_i[16] 0
12 *989:wbs_dat_i[0] *958:21 0.000228879
13 *886:9 *958:9 0
14 *889:7 *958:7 0
15 *892:9 *958:9 0.00411838
16 *896:19 *958:9 0.00492387
17 *913:19 *958:19 0.00123105
18 *919:13 *958:9 0
19 *920:7 *989:wbs_dat_i[16] 0
20 *921:7 *989:wbs_dat_i[16] 0
21 *922:17 *958:9 0.0177887
22 *924:23 *958:19 0.000226568
23 *939:23 *958:19 0.000113747
24 *942:52 *958:21 0.000687159
25 *950:31 *958:19 0.000803826
26 *950:31 *958:21 0.00218335
27 *953:9 *958:9 0
28 *953:9 *958:19 0.000120871
29 *955:21 *958:21 0.0192135
30 *956:21 *958:21 0.0197855
*RES
1 *988:sram_dat_o[16] *958:7 11.3857 
2 *958:7 *958:9 198.878 
3 *958:9 *958:19 30.63 
4 *958:19 *958:21 189.51 
5 *958:21 *989:wbs_dat_i[16] 16.46 
*END

*D_NET *959 0.0920288
*CONN
*I *989:wbs_dat_i[17] I *D CF_SRAM_1024x32_wb_wrapper
*I *988:sram_dat_o[17] O *D soc_sys
*CAP
1 *989:wbs_dat_i[17] 9.99779e-05
2 *988:sram_dat_o[17] 0.00023107
3 *959:31 0.00424647
4 *959:29 0.00624756
5 *959:19 0.00492066
6 *959:17 0.00685022
7 *959:11 0.00765351
8 *959:9 0.00385394
9 *959:11 *979:11 0.00101121
10 *959:17 *977:7 0
11 *959:29 *989:wbs_dat_i[2] 0.000166979
12 *959:29 *989:wbs_dat_i[4] 0.0101741
13 *959:29 *963:19 0.000388469
14 *959:31 *964:21 0.0116376
15 *988:sram_dat_i[5] *959:17 0.00171239
16 *989:wb_clk_i *959:29 1.88656e-05
17 *989:wbs_adr_i[17] *989:wbs_dat_i[17] 0
18 *889:9 *959:19 1.40378e-05
19 *889:15 *959:19 0.00105876
20 *914:21 *959:19 0.00420788
21 *922:7 *989:wbs_dat_i[17] 0
22 *923:21 *959:19 0.00821192
23 *926:21 *959:11 0.0100532
24 *936:19 *959:29 0.00926999
25 *948:9 *959:19 0
26 *954:9 *959:19 0
*RES
1 *988:sram_dat_o[17] *959:9 0.930667 
2 *959:9 *959:11 112.305 
3 *959:11 *959:17 11.2347 
4 *959:17 *959:19 104.655 
5 *959:19 *959:29 20.8094 
6 *959:29 *959:31 106.365 
7 *959:31 *989:wbs_dat_i[17] 3.245 
*END

*D_NET *960 0.103999
*CONN
*I *989:wbs_dat_i[18] I *D CF_SRAM_1024x32_wb_wrapper
*I *988:sram_dat_o[18] O *D soc_sys
*CAP
1 *989:wbs_dat_i[18] 0.000127819
2 *988:sram_dat_o[18] 0.00345434
3 *960:21 0.00543211
4 *960:19 0.00606441
5 *960:9 0.00459922
6 *960:7 0.00729344
7 *960:19 *989:wbs_dat_i[9] 0.00209713
8 *960:19 *961:19 0.00209435
9 *960:21 *961:21 0.0210868
10 *960:21 *963:21 0.000126904
11 *988:sram_dat_i[18] *960:7 0
12 *989:wbs_adr_i[18] *989:wbs_dat_i[18] 0
13 *989:wbs_adr_i[24] *960:21 0.000258101
14 *989:wbs_dat_i[15] *960:19 0.00027598
15 *540:37 *960:9 0.00169379
16 *541:59 *960:21 0.00922093
17 *888:9 *960:9 0.0178483
18 *891:9 *960:7 0
19 *893:9 *960:9 0.0200175
20 *923:7 *989:wbs_dat_i[18] 0
21 *925:15 *960:19 0.000181549
22 *928:9 *960:21 0
23 *936:19 *960:19 0
24 *936:19 *960:21 0.00212643
*RES
1 *988:sram_dat_o[18] *960:7 8.88027 
2 *960:7 *960:9 225.015 
3 *960:9 *960:19 8.57343 
4 *960:19 *960:21 193.65 
5 *960:21 *989:wbs_dat_i[18] 3.71 
*END

*D_NET *961 0.10424
*CONN
*I *989:wbs_dat_i[19] I *D CF_SRAM_1024x32_wb_wrapper
*I *988:sram_dat_o[19] O *D soc_sys
*CAP
1 *989:wbs_dat_i[19] 0.0001092
2 *988:sram_dat_o[19] 0.00310742
3 *961:21 0.00315854
4 *961:19 0.00430708
5 *961:9 0.00708326
6 *961:7 0.00893294
7 *961:9 *964:9 0.00485719
8 *961:9 *981:9 0.0117988
9 *961:19 *989:wbs_dat_i[9] 0.000367895
10 *961:19 *983:11 6.90139e-05
11 *961:21 *989:wbs_dat_i[5] 0.00194356
12 *961:21 *963:21 0.0216487
13 *988:sram_dat_i[19] *961:7 0
14 *989:wbs_adr_i[19] *989:wbs_dat_i[19] 0
15 *989:wbs_adr_i[24] *961:21 0.000238056
16 *989:wbs_dat_i[15] *961:19 0.000264699
17 *989:wbs_sel_i[0] *961:19 0.000736843
18 *540:35 *961:19 4.2145e-05
19 *891:19 *961:19 4.2145e-05
20 *893:7 *961:7 0
21 *893:9 *961:9 0
22 *924:7 *989:wbs_dat_i[19] 0
23 *928:9 *961:21 0
24 *945:21 *961:9 0.0123512
25 *960:19 *961:19 0.00209435
26 *960:21 *961:21 0.0210868
*RES
1 *988:sram_dat_o[19] *961:7 8.23933 
2 *961:7 *961:9 233.685 
3 *961:9 *961:19 9.81897 
4 *961:19 *961:21 196.755 
5 *961:21 *989:wbs_dat_i[19] 3.455 
*END

*D_NET *962 0.0558772
*CONN
*I *989:wbs_dat_i[1] I *D CF_SRAM_1024x32_wb_wrapper
*I *988:sram_dat_o[1] O *D soc_sys
*CAP
1 *989:wbs_dat_i[1] 0.00103669
2 *988:sram_dat_o[1] 0.00513573
3 *962:35 0.00404302
4 *962:9 0.00384579
5 *962:7 0.0059752
6 *962:35 *980:31 0.000560464
7 *988:sram_dat_i[1] *962:7 0
8 *989:wbs_adr_i[1] *989:wbs_dat_i[1] 0
9 *989:wbs_adr_i[2] *962:35 0.000709958
10 *989:wbs_adr_i[4] *962:35 0.000106196
11 *989:wbs_adr_i[5] *962:9 0.000224204
12 *989:wbs_adr_i[5] *962:35 8.76645e-06
13 *989:wbs_adr_i[7] *962:35 2.96961e-05
14 *989:wbs_adr_i[9] *962:35 0.000518027
15 *989:wbs_dat_i[0] *962:35 0.000947968
16 *989:wbs_sel_i[1] *989:wbs_dat_i[1] 0
17 *989:wbs_sel_i[3] *962:35 0.000771385
18 *885:19 *962:35 3.91137e-05
19 *896:19 *962:9 0.000736446
20 *903:9 *962:9 0.00509041
21 *907:9 *962:9 1.19691e-05
22 *914:19 *962:35 0.000220185
23 *917:19 *962:35 1.88602e-05
24 *925:11 *989:wbs_dat_i[1] 0
25 *925:11 *962:35 0.00665889
26 *925:15 *962:35 0
27 *936:19 *962:9 7.90639e-06
28 *936:19 *962:35 0.000277174
29 *939:25 *962:9 0.00487109
30 *942:52 *962:35 0.0018745
31 *947:11 *962:7 0
32 *950:31 *962:35 0.00938499
33 *955:21 *962:35 0.000182783
34 *956:21 *962:35 0.00242225
35 *958:21 *962:35 0.000167537
*RES
1 *988:sram_dat_o[1] *962:7 11.7353 
2 *962:7 *962:9 57.225 
3 *962:9 *962:35 38.8615 
4 *962:35 *989:wbs_dat_i[1] 14.3325 
*END

*D_NET *963 0.11324
*CONN
*I *989:wbs_dat_i[20] I *D CF_SRAM_1024x32_wb_wrapper
*I *988:sram_dat_o[20] O *D soc_sys
*CAP
1 *989:wbs_dat_i[20] 8.97163e-05
2 *988:sram_dat_o[20] 0.00256793
3 *963:21 0.0035008
4 *963:19 0.00449622
5 *963:9 0.00713458
6 *963:7 0.00861738
7 *963:19 *989:wbs_dat_i[2] 0.000262621
8 *963:19 *989:wbs_dat_i[3] 2.617e-05
9 *963:19 *989:wbs_dat_i[4] 0.00110213
10 *963:19 *989:wbs_dat_i[9] 0.00019169
11 *963:19 *964:19 0.00143518
12 *963:21 *989:wbs_dat_i[5] 0.00212042
13 *989:wbs_adr_i[20] *989:wbs_dat_i[20] 0
14 *989:wbs_adr_i[24] *963:21 0.000219457
15 *989:wbs_adr_i[9] *963:9 0.00175903
16 *989:wbs_dat_i[15] *963:19 0.00014447
17 *541:57 *963:19 0.000239656
18 *541:59 *963:21 0.000253553
19 *894:7 *963:7 0
20 *894:9 *963:9 0.0218388
21 *926:7 *989:wbs_dat_i[20] 0
22 *926:9 *963:21 0.0231305
23 *928:9 *963:21 0
24 *944:21 *963:9 0.0117813
25 *950:31 *963:19 8.29121e-05
26 *958:19 *963:19 8.16247e-05
27 *959:29 *963:19 0.000388469
28 *960:21 *963:21 0.000126904
29 *961:21 *963:21 0.0216487
*RES
1 *988:sram_dat_o[20] *963:7 7.074 
2 *963:7 *963:9 245.925 
3 *963:9 *963:19 7.99763 
4 *963:19 *963:21 210.555 
5 *963:21 *989:wbs_dat_i[20] 3.2 
*END

*D_NET *964 0.11426
*CONN
*I *989:wbs_dat_i[21] I *D CF_SRAM_1024x32_wb_wrapper
*I *988:sram_dat_o[21] O *D soc_sys
*CAP
1 *989:wbs_dat_i[21] 4.97547e-05
2 *988:sram_dat_o[21] 0.00313491
3 *964:21 0.00411587
4 *964:19 0.00466467
5 *964:9 0.00509245
6 *964:7 0.00762882
7 *964:19 *989:wbs_dat_i[2] 0.000637844
8 *964:19 *989:wbs_dat_i[9] 0.000149165
9 *964:21 *989:wbs_dat_i[2] 0.00210802
10 *988:sram_dat_i[21] *964:7 0
11 *33:17 *964:9 6.54361e-06
12 *34:17 *964:9 0.000320635
13 *35:17 *964:9 0.0219573
14 *540:52 *964:21 0.0101511
15 *541:57 *964:19 4.32417e-05
16 *541:59 *964:21 1.76909e-05
17 *895:7 *964:7 0
18 *926:9 *964:21 0.0236036
19 *945:21 *964:9 0.0125663
20 *948:9 *964:19 0
21 *955:19 *964:19 8.21408e-05
22 *959:31 *964:21 0.0116376
23 *961:9 *964:9 0.00485719
24 *963:19 *964:19 0.00143518
*RES
1 *988:sram_dat_o[21] *964:7 8.1228 
2 *964:7 *964:9 254.595 
3 *964:9 *964:19 6.19137 
4 *964:19 *964:21 220.215 
5 *964:21 *989:wbs_dat_i[21] 2.69 
*END

*D_NET *965 0.086965
*CONN
*I *989:wbs_dat_i[22] I *D CF_SRAM_1024x32_wb_wrapper
*I *988:sram_dat_o[22] O *D soc_sys
*CAP
1 *989:wbs_dat_i[22] 0.0113235
2 *988:sram_dat_o[22] 0.012837
3 *965:7 0.0241604
4 *989:wbs_dat_i[22] *989:wbs_dat_i[28] 0.00313437
5 *989:wbs_dat_i[22] *989:wbs_dat_i[29] 0.000124485
6 *988:sram_dat_i[22] *965:7 0
7 *988:sram_dat_i[23] *965:7 0.0111335
8 *898:11 *989:wbs_dat_i[22] 0.0242518
*RES
1 *988:sram_dat_o[22] *965:7 43.7529 
2 *965:7 *989:wbs_dat_i[22] 49.6641 
*END

*D_NET *966 0.0761389
*CONN
*I *989:wbs_dat_i[23] I *D CF_SRAM_1024x32_wb_wrapper
*I *988:sram_dat_o[23] O *D soc_sys
*CAP
1 *989:wbs_dat_i[23] 0.00165886
2 *988:sram_dat_o[23] 0.0131687
3 *966:11 0.0186445
4 *966:7 0.0301543
5 *966:7 *967:15 0.0097763
6 *894:21 *989:wbs_dat_i[23] 0.000109729
7 *896:21 *989:wbs_dat_i[23] 0.00010605
8 *897:7 *966:7 0
9 *900:11 *966:11 0
10 *929:11 *989:wbs_dat_i[23] 0.00252046
*RES
1 *988:sram_dat_o[23] *966:7 45.3843 
2 *966:7 *966:11 46.8777 
3 *966:11 *989:wbs_dat_i[23] 7.46697 
*END

*D_NET *967 0.0810645
*CONN
*I *989:wbs_dat_i[24] I *D CF_SRAM_1024x32_wb_wrapper
*I *988:sram_dat_o[24] O *D soc_sys
*CAP
1 *989:wbs_dat_i[24] 0.0117411
2 *988:sram_dat_o[24] 0.00514263
3 *967:15 0.0198912
4 *967:11 0.0132927
5 *989:wbs_dat_i[24] *989:wbs_dat_i[28] 8.59615e-05
6 *988:sram_dat_i[24] *967:11 0
7 *897:7 *967:15 0.00651599
8 *898:7 *967:11 0
9 *933:14 *989:wbs_dat_i[24] 0.0146187
10 *966:7 *967:15 0.0097763
*RES
1 *988:sram_dat_o[24] *967:11 20.0486 
2 *967:11 *967:15 38.9066 
3 *967:15 *989:wbs_dat_i[24] 46.9863 
*END

*D_NET *968 0.089096
*CONN
*I *989:wbs_dat_i[25] I *D CF_SRAM_1024x32_wb_wrapper
*I *988:sram_dat_o[25] O *D soc_sys
*CAP
1 *989:wbs_dat_i[25] 0.00357457
2 *988:sram_dat_o[25] 0.00917037
3 *968:21 0.0212354
4 *968:17 0.0268312
5 *989:wbs_dat_i[25] *989:wbs_dat_i[28] 0.0020923
6 *989:wbs_dat_i[25] *989:wbs_dat_i[29] 0.00068538
7 *989:wbs_dat_i[25] *989:wbs_dat_i[30] 0.000117533
8 *989:wbs_dat_i[25] *989:wbs_dat_i[9] 4.47516e-05
9 *988:sram_dat_i[25] *968:17 0.000860303
10 *989:wbs_adr_i[11] *989:wbs_dat_i[25] 0.000277825
11 *989:wbs_adr_i[24] *989:wbs_dat_i[25] 0.00166976
12 *989:wbs_adr_i[25] *989:wbs_dat_i[25] 0.00475373
13 *989:wbs_adr_i[27] *989:wbs_dat_i[25] 0.00300981
14 *989:wbs_dat_i[15] *989:wbs_dat_i[25] 0.000462302
15 *898:7 *968:17 0.0143108
*RES
1 *988:sram_dat_o[25] *968:17 41.5795 
2 *968:17 *968:21 48.6865 
3 *968:21 *989:wbs_dat_i[25] 15.1719 
*END

*D_NET *969 0.13366
*CONN
*I *989:wbs_dat_i[26] I *D CF_SRAM_1024x32_wb_wrapper
*I *988:sram_dat_o[26] O *D soc_sys
*CAP
1 *989:wbs_dat_i[26] 0.00118
2 *988:sram_dat_o[26] 0.000682661
3 *969:15 0.00596549
4 *969:9 0.0110225
5 *969:7 0.00691965
6 *969:9 *970:9 0.00907381
7 *969:15 *970:13 4.37939e-05
8 *988:sram_dat_i[26] *969:7 0
9 *989:wbs_adr_i[26] *989:wbs_dat_i[26] 0
10 *901:15 *969:15 0.0321631
11 *911:9 *969:9 0.0123567
12 *932:7 *989:wbs_dat_i[26] 0
13 *932:11 *969:15 0.0331183
14 *932:13 *969:9 0.0104003
15 *933:18 *969:7 0.000913387
16 *940:13 *969:9 0.0098201
*RES
1 *988:sram_dat_o[26] *969:7 2.8788 
2 *969:7 *969:9 319.875 
3 *969:9 *969:15 49.982 
4 *969:15 *989:wbs_dat_i[26] 20.9625 
*END

*D_NET *970 0.137087
*CONN
*I *989:wbs_dat_i[27] I *D CF_SRAM_1024x32_wb_wrapper
*I *988:sram_dat_o[27] O *D soc_sys
*CAP
1 *989:wbs_dat_i[27] 0.00110915
2 *988:sram_dat_o[27] 0.000883608
3 *970:13 0.00636637
4 *970:11 0.00525722
5 *970:9 0.00641957
6 *970:7 0.00730317
7 *970:9 *982:9 0.012659
8 *989:wbs_adr_i[28] *989:wbs_dat_i[27] 0
9 *901:7 *970:7 0
10 *901:15 *970:13 0.000174488
11 *911:9 *970:9 0.012359
12 *932:7 *989:wbs_dat_i[27] 0
13 *932:11 *970:13 0.0333175
14 *934:9 *970:13 0.0327965
15 *934:13 *970:9 0.00932393
16 *969:9 *970:9 0.00907381
17 *969:15 *970:13 4.37939e-05
*RES
1 *988:sram_dat_o[27] *970:7 2.76227 
2 *970:7 *970:9 328.035 
3 *970:9 *970:11 0.5 
4 *970:11 *970:13 49.9725 
5 *970:13 *989:wbs_dat_i[27] 20.4425 
*END

*D_NET *971 0.0912944
*CONN
*I *989:wbs_dat_i[28] I *D CF_SRAM_1024x32_wb_wrapper
*I *988:sram_dat_o[28] O *D soc_sys
*CAP
1 *989:wbs_dat_i[28] 0.00348539
2 *988:sram_dat_o[28] 0.00632986
3 *971:19 0.0232203
4 *971:17 0.0260647
5 *989:wbs_dat_i[28] *989:wbs_dat_i[29] 0.000901504
6 *989:wbs_dat_i[28] *989:wbs_dat_i[30] 0
7 *988:sram_dat_i[28] *971:17 0
8 *988:sram_dat_i[29] *971:17 0.00799651
9 *989:wbs_adr_i[27] *989:wbs_dat_i[28] 0.0015395
10 *989:wbs_dat_i[22] *989:wbs_dat_i[28] 0.00313437
11 *989:wbs_dat_i[24] *989:wbs_dat_i[28] 8.59615e-05
12 *989:wbs_dat_i[25] *989:wbs_dat_i[28] 0.0020923
13 *902:5 *971:17 0.0150544
14 *933:12 *989:wbs_dat_i[28] 0.00138964
*RES
1 *988:sram_dat_o[28] *971:17 42.1909 
2 *971:17 *971:19 54.1297 
3 *971:19 *989:wbs_dat_i[28] 16.1455 
*END

*D_NET *972 0.087934
*CONN
*I *989:wbs_dat_i[29] I *D CF_SRAM_1024x32_wb_wrapper
*I *988:sram_dat_o[29] O *D soc_sys
*CAP
1 *989:wbs_dat_i[29] 0.00345247
2 *988:sram_dat_o[29] 0.0171767
3 *972:9 0.023656
4 *972:7 0.0373802
5 *989:wbs_dat_i[29] *989:wbs_dat_i[30] 0.00172286
6 *972:9 *974:9 0
7 *988:sram_dat_i[29] *972:7 0
8 *989:wbs_adr_i[24] *989:wbs_dat_i[29] 0.000528597
9 *989:wbs_adr_i[25] *989:wbs_dat_i[29] 0.000630833
10 *989:wbs_adr_i[27] *989:wbs_dat_i[29] 0.000975995
11 *989:wbs_adr_i[29] *989:wbs_dat_i[29] 0.000225757
12 *989:wbs_dat_i[22] *989:wbs_dat_i[29] 0.000124485
13 *989:wbs_dat_i[25] *989:wbs_dat_i[29] 0.00068538
14 *989:wbs_dat_i[28] *989:wbs_dat_i[29] 0.000901504
15 *900:11 *972:9 0
16 *904:5 *972:7 0
17 *933:12 *989:wbs_dat_i[29] 0.000473148
18 *934:7 *989:wbs_dat_i[29] 0
19 *935:11 *989:wbs_dat_i[29] 0
*RES
1 *988:sram_dat_o[29] *972:7 47.1323 
2 *972:7 *972:9 55.3356 
3 *972:9 *989:wbs_dat_i[29] 3.5206 
*END

*D_NET *973 0.0580455
*CONN
*I *989:wbs_dat_i[2] I *D CF_SRAM_1024x32_wb_wrapper
*I *988:sram_dat_o[2] O *D soc_sys
*CAP
1 *989:wbs_dat_i[2] 0.00341578
2 *988:sram_dat_o[2] 0.00368566
3 *973:9 0.00639459
4 *973:7 0.00666447
5 *989:wbs_dat_i[2] *989:wbs_dat_i[5] 0.0122209
6 *989:wbs_dat_i[2] *989:wbs_dat_i[9] 0.00146171
7 *973:9 *981:9 0
8 *989:wbs_adr_i[2] *989:wbs_dat_i[2] 0
9 *989:wbs_adr_i[5] *989:wbs_dat_i[2] 0.0126178
10 *989:wbs_dat_i[15] *989:wbs_dat_i[2] 0.0033913
11 *541:57 *989:wbs_dat_i[2] 0.000180322
12 *893:9 *973:9 0.002745
13 *926:9 *989:wbs_dat_i[2] 0.00194356
14 *936:19 *989:wbs_dat_i[2] 0.000148894
15 *948:7 *973:7 0
16 *959:29 *989:wbs_dat_i[2] 0.000166979
17 *963:19 *989:wbs_dat_i[2] 0.000262621
18 *964:19 *989:wbs_dat_i[2] 0.000637844
19 *964:21 *989:wbs_dat_i[2] 0.00210802
*RES
1 *988:sram_dat_o[2] *973:7 8.6472 
2 *973:7 *973:9 73.035 
3 *973:9 *989:wbs_dat_i[2] 23.8896 
*END

*D_NET *974 0.0868633
*CONN
*I *989:wbs_dat_i[30] I *D CF_SRAM_1024x32_wb_wrapper
*I *988:sram_dat_o[30] O *D soc_sys
*CAP
1 *989:wbs_dat_i[30] 0.00170177
2 *988:sram_dat_o[30] 0.0178006
3 *974:9 0.0225315
4 *974:7 0.0386303
5 *974:7 *975:15 0.000278402
6 *988:sram_dat_i[30] *974:7 0
7 *989:wbs_adr_i[24] *989:wbs_dat_i[30] 0.00118982
8 *989:wbs_adr_i[25] *989:wbs_dat_i[30] 0.00177795
9 *989:wbs_adr_i[27] *989:wbs_dat_i[30] 0.000420472
10 *989:wbs_adr_i[29] *989:wbs_dat_i[30] 0.000568757
11 *989:wbs_dat_i[25] *989:wbs_dat_i[30] 0.000117533
12 *989:wbs_dat_i[28] *989:wbs_dat_i[30] 0
13 *989:wbs_dat_i[29] *989:wbs_dat_i[30] 0.00172286
14 *905:5 *974:7 0
15 *933:12 *989:wbs_dat_i[30] 0.000123317
16 *935:11 *989:wbs_dat_i[30] 0
17 *972:9 *974:9 0
*RES
1 *988:sram_dat_o[30] *974:7 48.0646 
2 *974:7 *974:9 56.9721 
3 *974:9 *989:wbs_dat_i[30] 9.8747 
*END

*D_NET *975 0.086944
*CONN
*I *989:wbs_dat_i[31] I *D CF_SRAM_1024x32_wb_wrapper
*I *988:sram_dat_o[31] O *D soc_sys
*CAP
1 *989:wbs_dat_i[31] 5.78083e-05
2 *988:sram_dat_o[31] 0.01865
3 *975:17 0.020924
4 *975:15 0.0238899
5 *975:7 0.0216737
6 *988:sram_dat_i[30] *975:15 0.00130435
7 *988:sram_dat_i[31] *975:7 0
8 *989:wbs_adr_i[31] *989:wbs_dat_i[31] 0.000165845
9 *905:5 *975:15 0
10 *938:10 *975:17 0
11 *974:7 *975:15 0.000278402
*RES
1 *988:sram_dat_o[31] *975:7 47.6859 
2 *975:7 *975:15 19.136 
3 *975:15 *975:17 56.3692 
4 *975:17 *989:wbs_dat_i[31] 1.24193 
*END

*D_NET *976 0.0637403
*CONN
*I *989:wbs_dat_i[3] I *D CF_SRAM_1024x32_wb_wrapper
*I *988:sram_dat_o[3] O *D soc_sys
*CAP
1 *989:wbs_dat_i[3] 0.00471608
2 *988:sram_dat_o[3] 0.00173263
3 *976:9 0.00609784
4 *976:7 0.00311438
5 *989:wbs_dat_i[3] *989:wbs_dat_i[4] 0.0158119
6 *989:wbs_dat_i[3] *989:wbs_dat_i[9] 0
7 *988:sram_dat_i[3] *976:7 0
8 *989:wbs_adr_i[11] *976:9 0.000760724
9 *989:wbs_adr_i[1] *989:wbs_dat_i[3] 0.011353
10 *989:wbs_adr_i[3] *989:wbs_dat_i[3] 0.00055352
11 *989:wbs_adr_i[4] *989:wbs_dat_i[3] 3.55892e-05
12 *108:21 *989:wbs_dat_i[3] 0.00206695
13 *880:15 *989:wbs_dat_i[3] 3.67011e-06
14 *887:19 *989:wbs_dat_i[3] 0.000997963
15 *888:19 *989:wbs_dat_i[3] 0.000310549
16 *894:19 *989:wbs_dat_i[3] 0.000246612
17 *894:21 *989:wbs_dat_i[3] 0.00012905
18 *896:19 *989:wbs_dat_i[3] 1.84761e-05
19 *928:9 *989:wbs_dat_i[3] 0.000118286
20 *930:13 *976:9 0.00782284
21 *931:13 *976:9 0.00782404
22 *939:15 *989:wbs_dat_i[3] 0
23 *949:7 *976:7 0
24 *963:19 *989:wbs_dat_i[3] 2.617e-05
*RES
1 *988:sram_dat_o[3] *976:7 4.68507 
2 *976:7 *976:9 88.335 
3 *976:9 *989:wbs_dat_i[3] 31.4049 
*END

*D_NET *977 0.060287
*CONN
*I *989:wbs_dat_i[4] I *D CF_SRAM_1024x32_wb_wrapper
*I *988:sram_dat_o[4] O *D soc_sys
*CAP
1 *989:wbs_dat_i[4] 0.00400663
2 *988:sram_dat_o[4] 0.00280471
3 *977:9 0.0076247
4 *977:7 0.00642278
5 *988:sram_dat_i[4] *977:7 0
6 *989:wbs_adr_i[10] *989:wbs_dat_i[4] 0
7 *989:wbs_adr_i[4] *989:wbs_dat_i[4] 0
8 *989:wbs_dat_i[3] *989:wbs_dat_i[4] 0.0158119
9 *929:11 *989:wbs_dat_i[4] 0.00245456
10 *936:19 *989:wbs_dat_i[4] 0.00101649
11 *940:11 *989:wbs_dat_i[4] 0
12 *944:21 *977:9 0.00886902
13 *959:17 *977:7 0
14 *959:29 *989:wbs_dat_i[4] 0.0101741
15 *963:19 *989:wbs_dat_i[4] 0.00110213
*RES
1 *988:sram_dat_o[4] *977:7 7.19053 
2 *977:7 *977:9 100.065 
3 *977:9 *989:wbs_dat_i[4] 29.5548 
*END

*D_NET *978 0.0774825
*CONN
*I *989:wbs_dat_i[5] I *D CF_SRAM_1024x32_wb_wrapper
*I *988:sram_dat_o[5] O *D soc_sys
*CAP
1 *989:wbs_dat_i[5] 0.0061108
2 *988:sram_dat_o[5] 0.000160393
3 *978:11 0.00959635
4 *978:9 0.00364594
5 *989:wbs_dat_i[5] *989:wbs_dat_i[6] 0.000141234
6 *989:wbs_dat_i[5] *989:wbs_dat_i[9] 6.60704e-05
7 *978:11 *979:11 0.00033496
8 *989:wbs_adr_i[5] *989:wbs_dat_i[5] 0.00840627
9 *989:wbs_dat_i[15] *989:wbs_dat_i[5] 0.00346912
10 *989:wbs_dat_i[2] *989:wbs_dat_i[5] 0.0122209
11 *881:9 *978:11 0
12 *896:19 *989:wbs_dat_i[5] 0
13 *908:11 *978:11 0.00835972
14 *929:11 *989:wbs_dat_i[5] 0.0010193
15 *936:19 *989:wbs_dat_i[5] 0.0198875
16 *940:11 *989:wbs_dat_i[5] 0
17 *941:11 *989:wbs_dat_i[5] 0
18 *961:21 *989:wbs_dat_i[5] 0.00194356
19 *963:21 *989:wbs_dat_i[5] 0.00212042
*RES
1 *988:sram_dat_o[5] *978:9 0.7584 
2 *978:9 *978:11 100.065 
3 *978:11 *989:wbs_dat_i[5] 37.8534 
*END

*D_NET *979 0.0574687
*CONN
*I *989:wbs_dat_i[6] I *D CF_SRAM_1024x32_wb_wrapper
*I *988:sram_dat_o[6] O *D soc_sys
*CAP
1 *989:wbs_dat_i[6] 0.00825283
2 *988:sram_dat_o[6] 0.00027097
3 *979:11 0.0100787
4 *979:9 0.00209683
5 *989:wbs_dat_i[6] *989:wbs_dat_i[9] 0.00198943
6 *989:wbs_dat_i[15] *989:wbs_dat_i[6] 0.000511403
7 *989:wbs_dat_i[5] *989:wbs_dat_i[6] 0.000141234
8 *989:wbs_sel_i[0] *989:wbs_dat_i[6] 0.00938368
9 *881:9 *979:11 0
10 *908:11 *979:11 0.00836052
11 *926:21 *979:11 0.00174185
12 *936:19 *989:wbs_dat_i[6] 0.00755555
13 *936:21 *979:11 0.00571924
14 *946:13 *979:11 2.03321e-05
15 *959:11 *979:11 0.00101121
16 *978:11 *979:11 0.00033496
*RES
1 *988:sram_dat_o[6] *979:9 0.930667 
2 *979:9 *979:11 109.245 
3 *979:11 *989:wbs_dat_i[6] 35.6484 
*END

*D_NET *980 0.0721778
*CONN
*I *989:wbs_dat_i[7] I *D CF_SRAM_1024x32_wb_wrapper
*I *988:sram_dat_o[7] O *D soc_sys
*CAP
1 *989:wbs_dat_i[7] 0.00113652
2 *988:sram_dat_o[7] 0.00479419
3 *980:33 0.00609705
4 *980:31 0.00592098
5 *980:9 0.00336303
6 *980:7 0.00719677
7 *988:sram_dat_i[7] *980:7 0
8 *989:wbs_adr_i[1] *980:31 0.000496024
9 *989:wbs_adr_i[2] *980:31 0.000405433
10 *989:wbs_adr_i[7] *989:wbs_dat_i[7] 0
11 *989:wbs_dat_i[0] *980:33 0.0045911
12 *989:wbs_sel_i[1] *980:33 0.000371778
13 *541:59 *980:31 0.000118081
14 *887:19 *980:31 0
15 *896:19 *980:9 0.00261109
16 *907:9 *980:9 0.00771194
17 *907:9 *980:31 0.000254551
18 *911:7 *980:7 0
19 *913:19 *980:31 0.000250511
20 *916:19 *980:31 5.02802e-05
21 *920:23 *980:31 1.14169e-05
22 *920:25 *980:9 0.0107221
23 *922:15 *980:31 0.00013659
24 *922:17 *980:31 0.000243361
25 *928:9 *980:31 0
26 *939:23 *980:31 0
27 *943:7 *989:wbs_dat_i[7] 0
28 *943:9 *980:33 0.0150794
29 *943:19 *980:31 1.39525e-05
30 *944:9 *980:33 4.12775e-05
31 *958:19 *980:31 0
32 *962:35 *980:31 0.000560464
*RES
1 *988:sram_dat_o[7] *980:7 11.5605 
2 *980:7 *980:9 120.082 
3 *980:9 *980:31 32.92 
4 *980:31 *980:33 139.485 
5 *980:33 *989:wbs_dat_i[7] 18.5 
*END

*D_NET *981 0.0852808
*CONN
*I *989:wbs_dat_i[8] I *D CF_SRAM_1024x32_wb_wrapper
*I *988:sram_dat_o[8] O *D soc_sys
*CAP
1 *989:wbs_dat_i[8] 0.00485898
2 *988:sram_dat_o[8] 0.00334278
3 *981:9 0.0100918
4 *981:7 0.0085756
5 *988:sram_dat_i[8] *981:7 0
6 *989:wbs_adr_i[10] *989:wbs_dat_i[8] 0
7 *989:wbs_adr_i[6] *989:wbs_dat_i[8] 0.0173773
8 *989:wbs_adr_i[8] *989:wbs_dat_i[8] 0.00111354
9 *989:wbs_adr_i[9] *989:wbs_dat_i[8] 0.00440347
10 *989:wbs_adr_i[9] *981:7 0
11 *893:9 *981:9 0
12 *895:19 *981:9 1.92979e-05
13 *917:19 *989:wbs_dat_i[8] 0.00234391
14 *918:9 *989:wbs_dat_i[8] 0.000433248
15 *919:9 *989:wbs_dat_i[8] 0.000397111
16 *920:9 *989:wbs_dat_i[8] 0.00305042
17 *921:9 *989:wbs_dat_i[8] 0.00332801
18 *928:19 *981:9 0.000171445
19 *939:15 *989:wbs_dat_i[8] 0.0134424
20 *944:7 *989:wbs_dat_i[8] 0
21 *945:21 *981:9 0.000532633
22 *961:9 *981:9 0.0117988
23 *973:9 *981:9 0
*RES
1 *988:sram_dat_o[8] *981:7 8.2976 
2 *981:7 *981:9 144.435 
3 *981:9 *989:wbs_dat_i[8] 39.5937 
*END

*D_NET *982 0.0758225
*CONN
*I *989:wbs_dat_i[9] I *D CF_SRAM_1024x32_wb_wrapper
*I *988:sram_dat_o[9] O *D soc_sys
*CAP
1 *989:wbs_dat_i[9] 0.00937199
2 *988:sram_dat_o[9] 0.000898649
3 *982:9 0.0115809
4 *982:7 0.00310754
5 *988:sram_dat_i[9] *982:7 0
6 *989:wbs_adr_i[24] *989:wbs_dat_i[9] 0.000357641
7 *989:wbs_adr_i[5] *989:wbs_dat_i[9] 0.0114224
8 *989:wbs_adr_i[9] *989:wbs_dat_i[9] 0.000277825
9 *989:wbs_dat_i[15] *989:wbs_dat_i[9] 0.00424362
10 *989:wbs_dat_i[25] *989:wbs_dat_i[9] 4.47516e-05
11 *989:wbs_dat_i[2] *989:wbs_dat_i[9] 0.00146171
12 *989:wbs_dat_i[3] *989:wbs_dat_i[9] 0
13 *989:wbs_dat_i[5] *989:wbs_dat_i[9] 6.60704e-05
14 *989:wbs_dat_i[6] *989:wbs_dat_i[9] 0.00198943
15 *989:wbs_sel_i[0] *989:wbs_dat_i[9] 0.00251879
16 *34:21 *989:wbs_dat_i[9] 0.000102021
17 *108:21 *989:wbs_dat_i[9] 0
18 *540:25 *989:wbs_dat_i[9] 0.000212004
19 *882:7 *982:7 0
20 *934:13 *982:9 0.0126602
21 *942:52 *989:wbs_dat_i[9] 4.21127e-05
22 *960:19 *989:wbs_dat_i[9] 0.00209713
23 *961:19 *989:wbs_dat_i[9] 0.000367895
24 *963:19 *989:wbs_dat_i[9] 0.00019169
25 *964:19 *989:wbs_dat_i[9] 0.000149165
26 *970:9 *982:9 0.012659
*RES
1 *988:sram_dat_o[9] *982:7 2.704 
2 *982:7 *982:9 142.905 
3 *982:9 *989:wbs_dat_i[9] 35.4609 
*END

*D_NET *983 0.0454639
*CONN
*I *989:wbs_we_i I *D CF_SRAM_1024x32_wb_wrapper
*I *988:sram_we_o O *D soc_sys
*CAP
1 *989:wbs_we_i 0.00213099
2 *988:sram_we_o 0.00528004
3 *983:11 0.00378406
4 *983:7 0.00693311
5 *989:wbs_adr_i[0] *989:wbs_we_i 0
6 *989:wbs_adr_i[1] *989:wbs_we_i 0.00992188
7 *989:wbs_adr_i[3] *989:wbs_we_i 0.00980405
8 *989:wbs_stb_i *989:wbs_we_i 0
9 *880:15 *989:wbs_we_i 6.34234e-05
10 *881:7 *983:7 0
11 *893:13 *989:wbs_we_i 0.00204496
12 *896:21 *989:wbs_we_i 0.00223105
13 *925:15 *983:11 0.000779674
14 *925:19 *983:11 0.00242169
15 *950:15 *983:7 0
16 *961:19 *983:11 6.90139e-05
*RES
1 *988:sram_we_o *983:7 12.318 
2 *983:7 *983:11 43.955 
3 *983:11 *989:wbs_we_i 20.2133 
*END
