*SPEF "ieee 1481-1999"
*DESIGN "user_project_wrapper"
*DATE "18:44:42 Monday October 05, 2026"
*VENDOR "The OpenROAD Project"
*PROGRAM "OpenROAD"
*VERSION "dcf36133a369abc8f3c5e5738cd4d82e4903c0e0"
*DESIGN_FLOW "NAME_SCOPE LOCAL" "PIN_CAP NONE"
*DIVIDER /
*DELIMITER :
*BUS_DELIMITER []
*T_UNIT 1 NS
*C_UNIT 1 PF
*R_UNIT 1 OHM
*L_UNIT 1 HENRY

*NAME_MAP
*1 analog_io[0]
*2 analog_io[10]
*3 analog_io[11]
*4 analog_io[12]
*5 analog_io[13]
*6 analog_io[14]
*7 analog_io[15]
*8 analog_io[16]
*9 analog_io[17]
*10 analog_io[18]
*11 analog_io[19]
*12 analog_io[1]
*13 analog_io[20]
*14 analog_io[21]
*15 analog_io[22]
*16 analog_io[23]
*17 analog_io[24]
*18 analog_io[25]
*19 analog_io[26]
*20 analog_io[27]
*21 analog_io[28]
*22 analog_io[2]
*23 analog_io[3]
*24 analog_io[4]
*25 analog_io[5]
*26 analog_io[6]
*27 analog_io[7]
*28 analog_io[8]
*29 analog_io[9]
*30 io_in[0]
*31 io_in[10]
*32 io_in[11]
*33 io_in[12]
*34 io_in[13]
*35 io_in[14]
*36 io_in[15]
*37 io_in[16]
*38 io_in[17]
*39 io_in[18]
*40 io_in[19]
*41 io_in[1]
*42 io_in[20]
*43 io_in[21]
*44 io_in[22]
*45 io_in[23]
*46 io_in[24]
*47 io_in[25]
*48 io_in[26]
*49 io_in[27]
*50 io_in[28]
*51 io_in[29]
*52 io_in[2]
*53 io_in[30]
*54 io_in[31]
*55 io_in[32]
*56 io_in[33]
*57 io_in[34]
*58 io_in[35]
*59 io_in[36]
*60 io_in[37]
*61 io_in[3]
*62 io_in[4]
*63 io_in[5]
*64 io_in[6]
*65 io_in[7]
*66 io_in[8]
*67 io_in[9]
*68 io_oeb[0]
*69 io_oeb[10]
*70 io_oeb[11]
*71 io_oeb[12]
*72 io_oeb[13]
*73 io_oeb[14]
*74 io_oeb[15]
*75 io_oeb[16]
*76 io_oeb[17]
*77 io_oeb[18]
*78 io_oeb[19]
*79 io_oeb[1]
*80 io_oeb[20]
*81 io_oeb[21]
*82 io_oeb[22]
*83 io_oeb[23]
*84 io_oeb[24]
*85 io_oeb[25]
*86 io_oeb[26]
*87 io_oeb[27]
*88 io_oeb[28]
*89 io_oeb[29]
*90 io_oeb[2]
*91 io_oeb[30]
*92 io_oeb[31]
*93 io_oeb[32]
*94 io_oeb[33]
*95 io_oeb[34]
*96 io_oeb[35]
*97 io_oeb[36]
*98 io_oeb[37]
*99 io_oeb[3]
*100 io_oeb[4]
*101 io_oeb[5]
*102 io_oeb[6]
*103 io_oeb[7]
*104 io_oeb[8]
*105 io_oeb[9]
*106 io_out[0]
*107 io_out[10]
*108 io_out[11]
*109 io_out[12]
*110 io_out[13]
*111 io_out[14]
*112 io_out[15]
*113 io_out[16]
*114 io_out[17]
*115 io_out[18]
*116 io_out[19]
*117 io_out[1]
*118 io_out[20]
*119 io_out[21]
*120 io_out[22]
*121 io_out[23]
*122 io_out[24]
*123 io_out[25]
*124 io_out[26]
*125 io_out[27]
*126 io_out[28]
*127 io_out[29]
*128 io_out[2]
*129 io_out[30]
*130 io_out[31]
*131 io_out[32]
*132 io_out[33]
*133 io_out[34]
*134 io_out[35]
*135 io_out[36]
*136 io_out[37]
*137 io_out[3]
*138 io_out[4]
*139 io_out[5]
*140 io_out[6]
*141 io_out[7]
*142 io_out[8]
*143 io_out[9]
*144 la_data_in[0]
*145 la_data_in[100]
*146 la_data_in[101]
*147 la_data_in[102]
*148 la_data_in[103]
*149 la_data_in[104]
*150 la_data_in[105]
*151 la_data_in[106]
*152 la_data_in[107]
*153 la_data_in[108]
*154 la_data_in[109]
*155 la_data_in[10]
*156 la_data_in[110]
*157 la_data_in[111]
*158 la_data_in[112]
*159 la_data_in[113]
*160 la_data_in[114]
*161 la_data_in[115]
*162 la_data_in[116]
*163 la_data_in[117]
*164 la_data_in[118]
*165 la_data_in[119]
*166 la_data_in[11]
*167 la_data_in[120]
*168 la_data_in[121]
*169 la_data_in[122]
*170 la_data_in[123]
*171 la_data_in[124]
*172 la_data_in[125]
*173 la_data_in[126]
*174 la_data_in[127]
*175 la_data_in[12]
*176 la_data_in[13]
*177 la_data_in[14]
*178 la_data_in[15]
*179 la_data_in[16]
*180 la_data_in[17]
*181 la_data_in[18]
*182 la_data_in[19]
*183 la_data_in[1]
*184 la_data_in[20]
*185 la_data_in[21]
*186 la_data_in[22]
*187 la_data_in[23]
*188 la_data_in[24]
*189 la_data_in[25]
*190 la_data_in[26]
*191 la_data_in[27]
*192 la_data_in[28]
*193 la_data_in[29]
*194 la_data_in[2]
*195 la_data_in[30]
*196 la_data_in[31]
*197 la_data_in[32]
*198 la_data_in[33]
*199 la_data_in[34]
*200 la_data_in[35]
*201 la_data_in[36]
*202 la_data_in[37]
*203 la_data_in[38]
*204 la_data_in[39]
*205 la_data_in[3]
*206 la_data_in[40]
*207 la_data_in[41]
*208 la_data_in[42]
*209 la_data_in[43]
*210 la_data_in[44]
*211 la_data_in[45]
*212 la_data_in[46]
*213 la_data_in[47]
*214 la_data_in[48]
*215 la_data_in[49]
*216 la_data_in[4]
*217 la_data_in[50]
*218 la_data_in[51]
*219 la_data_in[52]
*220 la_data_in[53]
*221 la_data_in[54]
*222 la_data_in[55]
*223 la_data_in[56]
*224 la_data_in[57]
*225 la_data_in[58]
*226 la_data_in[59]
*227 la_data_in[5]
*228 la_data_in[60]
*229 la_data_in[61]
*230 la_data_in[62]
*231 la_data_in[63]
*232 la_data_in[64]
*233 la_data_in[65]
*234 la_data_in[66]
*235 la_data_in[67]
*236 la_data_in[68]
*237 la_data_in[69]
*238 la_data_in[6]
*239 la_data_in[70]
*240 la_data_in[71]
*241 la_data_in[72]
*242 la_data_in[73]
*243 la_data_in[74]
*244 la_data_in[75]
*245 la_data_in[76]
*246 la_data_in[77]
*247 la_data_in[78]
*248 la_data_in[79]
*249 la_data_in[7]
*250 la_data_in[80]
*251 la_data_in[81]
*252 la_data_in[82]
*253 la_data_in[83]
*254 la_data_in[84]
*255 la_data_in[85]
*256 la_data_in[86]
*257 la_data_in[87]
*258 la_data_in[88]
*259 la_data_in[89]
*260 la_data_in[8]
*261 la_data_in[90]
*262 la_data_in[91]
*263 la_data_in[92]
*264 la_data_in[93]
*265 la_data_in[94]
*266 la_data_in[95]
*267 la_data_in[96]
*268 la_data_in[97]
*269 la_data_in[98]
*270 la_data_in[99]
*271 la_data_in[9]
*272 la_data_out[0]
*273 la_data_out[100]
*274 la_data_out[101]
*275 la_data_out[102]
*276 la_data_out[103]
*277 la_data_out[104]
*278 la_data_out[105]
*279 la_data_out[106]
*280 la_data_out[107]
*281 la_data_out[108]
*282 la_data_out[109]
*283 la_data_out[10]
*284 la_data_out[110]
*285 la_data_out[111]
*286 la_data_out[112]
*287 la_data_out[113]
*288 la_data_out[114]
*289 la_data_out[115]
*290 la_data_out[116]
*291 la_data_out[117]
*292 la_data_out[118]
*293 la_data_out[119]
*294 la_data_out[11]
*295 la_data_out[120]
*296 la_data_out[121]
*297 la_data_out[122]
*298 la_data_out[123]
*299 la_data_out[124]
*300 la_data_out[125]
*301 la_data_out[126]
*302 la_data_out[127]
*303 la_data_out[12]
*304 la_data_out[13]
*305 la_data_out[14]
*306 la_data_out[15]
*307 la_data_out[16]
*308 la_data_out[17]
*309 la_data_out[18]
*310 la_data_out[19]
*311 la_data_out[1]
*312 la_data_out[20]
*313 la_data_out[21]
*314 la_data_out[22]
*315 la_data_out[23]
*316 la_data_out[24]
*317 la_data_out[25]
*318 la_data_out[26]
*319 la_data_out[27]
*320 la_data_out[28]
*321 la_data_out[29]
*322 la_data_out[2]
*323 la_data_out[30]
*324 la_data_out[31]
*325 la_data_out[32]
*326 la_data_out[33]
*327 la_data_out[34]
*328 la_data_out[35]
*329 la_data_out[36]
*330 la_data_out[37]
*331 la_data_out[38]
*332 la_data_out[39]
*333 la_data_out[3]
*334 la_data_out[40]
*335 la_data_out[41]
*336 la_data_out[42]
*337 la_data_out[43]
*338 la_data_out[44]
*339 la_data_out[45]
*340 la_data_out[46]
*341 la_data_out[47]
*342 la_data_out[48]
*343 la_data_out[49]
*344 la_data_out[4]
*345 la_data_out[50]
*346 la_data_out[51]
*347 la_data_out[52]
*348 la_data_out[53]
*349 la_data_out[54]
*350 la_data_out[55]
*351 la_data_out[56]
*352 la_data_out[57]
*353 la_data_out[58]
*354 la_data_out[59]
*355 la_data_out[5]
*356 la_data_out[60]
*357 la_data_out[61]
*358 la_data_out[62]
*359 la_data_out[63]
*360 la_data_out[64]
*361 la_data_out[65]
*362 la_data_out[66]
*363 la_data_out[67]
*364 la_data_out[68]
*365 la_data_out[69]
*366 la_data_out[6]
*367 la_data_out[70]
*368 la_data_out[71]
*369 la_data_out[72]
*370 la_data_out[73]
*371 la_data_out[74]
*372 la_data_out[75]
*373 la_data_out[76]
*374 la_data_out[77]
*375 la_data_out[78]
*376 la_data_out[79]
*377 la_data_out[7]
*378 la_data_out[80]
*379 la_data_out[81]
*380 la_data_out[82]
*381 la_data_out[83]
*382 la_data_out[84]
*383 la_data_out[85]
*384 la_data_out[86]
*385 la_data_out[87]
*386 la_data_out[88]
*387 la_data_out[89]
*388 la_data_out[8]
*389 la_data_out[90]
*390 la_data_out[91]
*391 la_data_out[92]
*392 la_data_out[93]
*393 la_data_out[94]
*394 la_data_out[95]
*395 la_data_out[96]
*396 la_data_out[97]
*397 la_data_out[98]
*398 la_data_out[99]
*399 la_data_out[9]
*400 la_oenb[0]
*401 la_oenb[100]
*402 la_oenb[101]
*403 la_oenb[102]
*404 la_oenb[103]
*405 la_oenb[104]
*406 la_oenb[105]
*407 la_oenb[106]
*408 la_oenb[107]
*409 la_oenb[108]
*410 la_oenb[109]
*411 la_oenb[10]
*412 la_oenb[110]
*413 la_oenb[111]
*414 la_oenb[112]
*415 la_oenb[113]
*416 la_oenb[114]
*417 la_oenb[115]
*418 la_oenb[116]
*419 la_oenb[117]
*420 la_oenb[118]
*421 la_oenb[119]
*422 la_oenb[11]
*423 la_oenb[120]
*424 la_oenb[121]
*425 la_oenb[122]
*426 la_oenb[123]
*427 la_oenb[124]
*428 la_oenb[125]
*429 la_oenb[126]
*430 la_oenb[127]
*431 la_oenb[12]
*432 la_oenb[13]
*433 la_oenb[14]
*434 la_oenb[15]
*435 la_oenb[16]
*436 la_oenb[17]
*437 la_oenb[18]
*438 la_oenb[19]
*439 la_oenb[1]
*440 la_oenb[20]
*441 la_oenb[21]
*442 la_oenb[22]
*443 la_oenb[23]
*444 la_oenb[24]
*445 la_oenb[25]
*446 la_oenb[26]
*447 la_oenb[27]
*448 la_oenb[28]
*449 la_oenb[29]
*450 la_oenb[2]
*451 la_oenb[30]
*452 la_oenb[31]
*453 la_oenb[32]
*454 la_oenb[33]
*455 la_oenb[34]
*456 la_oenb[35]
*457 la_oenb[36]
*458 la_oenb[37]
*459 la_oenb[38]
*460 la_oenb[39]
*461 la_oenb[3]
*462 la_oenb[40]
*463 la_oenb[41]
*464 la_oenb[42]
*465 la_oenb[43]
*466 la_oenb[44]
*467 la_oenb[45]
*468 la_oenb[46]
*469 la_oenb[47]
*470 la_oenb[48]
*471 la_oenb[49]
*472 la_oenb[4]
*473 la_oenb[50]
*474 la_oenb[51]
*475 la_oenb[52]
*476 la_oenb[53]
*477 la_oenb[54]
*478 la_oenb[55]
*479 la_oenb[56]
*480 la_oenb[57]
*481 la_oenb[58]
*482 la_oenb[59]
*483 la_oenb[5]
*484 la_oenb[60]
*485 la_oenb[61]
*486 la_oenb[62]
*487 la_oenb[63]
*488 la_oenb[64]
*489 la_oenb[65]
*490 la_oenb[66]
*491 la_oenb[67]
*492 la_oenb[68]
*493 la_oenb[69]
*494 la_oenb[6]
*495 la_oenb[70]
*496 la_oenb[71]
*497 la_oenb[72]
*498 la_oenb[73]
*499 la_oenb[74]
*500 la_oenb[75]
*501 la_oenb[76]
*502 la_oenb[77]
*503 la_oenb[78]
*504 la_oenb[79]
*505 la_oenb[7]
*506 la_oenb[80]
*507 la_oenb[81]
*508 la_oenb[82]
*509 la_oenb[83]
*510 la_oenb[84]
*511 la_oenb[85]
*512 la_oenb[86]
*513 la_oenb[87]
*514 la_oenb[88]
*515 la_oenb[89]
*516 la_oenb[8]
*517 la_oenb[90]
*518 la_oenb[91]
*519 la_oenb[92]
*520 la_oenb[93]
*521 la_oenb[94]
*522 la_oenb[95]
*523 la_oenb[96]
*524 la_oenb[97]
*525 la_oenb[98]
*526 la_oenb[99]
*527 la_oenb[9]
*528 user_clock2
*529 user_irq[0]
*530 user_irq[1]
*531 user_irq[2]
*540 wb_clk_i
*541 wb_rst_i
*542 wbs_ack_o
*543 wbs_adr_i[0]
*544 wbs_adr_i[10]
*545 wbs_adr_i[11]
*546 wbs_adr_i[12]
*547 wbs_adr_i[13]
*548 wbs_adr_i[14]
*549 wbs_adr_i[15]
*550 wbs_adr_i[16]
*551 wbs_adr_i[17]
*552 wbs_adr_i[18]
*553 wbs_adr_i[19]
*554 wbs_adr_i[1]
*555 wbs_adr_i[20]
*556 wbs_adr_i[21]
*557 wbs_adr_i[22]
*558 wbs_adr_i[23]
*559 wbs_adr_i[24]
*560 wbs_adr_i[25]
*561 wbs_adr_i[26]
*562 wbs_adr_i[27]
*563 wbs_adr_i[28]
*564 wbs_adr_i[29]
*565 wbs_adr_i[2]
*566 wbs_adr_i[30]
*567 wbs_adr_i[31]
*568 wbs_adr_i[3]
*569 wbs_adr_i[4]
*570 wbs_adr_i[5]
*571 wbs_adr_i[6]
*572 wbs_adr_i[7]
*573 wbs_adr_i[8]
*574 wbs_adr_i[9]
*575 wbs_cyc_i
*576 wbs_dat_i[0]
*577 wbs_dat_i[10]
*578 wbs_dat_i[11]
*579 wbs_dat_i[12]
*580 wbs_dat_i[13]
*581 wbs_dat_i[14]
*582 wbs_dat_i[15]
*583 wbs_dat_i[16]
*584 wbs_dat_i[17]
*585 wbs_dat_i[18]
*586 wbs_dat_i[19]
*587 wbs_dat_i[1]
*588 wbs_dat_i[20]
*589 wbs_dat_i[21]
*590 wbs_dat_i[22]
*591 wbs_dat_i[23]
*592 wbs_dat_i[24]
*593 wbs_dat_i[25]
*594 wbs_dat_i[26]
*595 wbs_dat_i[27]
*596 wbs_dat_i[28]
*597 wbs_dat_i[29]
*598 wbs_dat_i[2]
*599 wbs_dat_i[30]
*600 wbs_dat_i[31]
*601 wbs_dat_i[3]
*602 wbs_dat_i[4]
*603 wbs_dat_i[5]
*604 wbs_dat_i[6]
*605 wbs_dat_i[7]
*606 wbs_dat_i[8]
*607 wbs_dat_i[9]
*608 wbs_dat_o[0]
*609 wbs_dat_o[10]
*610 wbs_dat_o[11]
*611 wbs_dat_o[12]
*612 wbs_dat_o[13]
*613 wbs_dat_o[14]
*614 wbs_dat_o[15]
*615 wbs_dat_o[16]
*616 wbs_dat_o[17]
*617 wbs_dat_o[18]
*618 wbs_dat_o[19]
*619 wbs_dat_o[1]
*620 wbs_dat_o[20]
*621 wbs_dat_o[21]
*622 wbs_dat_o[22]
*623 wbs_dat_o[23]
*624 wbs_dat_o[24]
*625 wbs_dat_o[25]
*626 wbs_dat_o[26]
*627 wbs_dat_o[27]
*628 wbs_dat_o[28]
*629 wbs_dat_o[29]
*630 wbs_dat_o[2]
*631 wbs_dat_o[30]
*632 wbs_dat_o[31]
*633 wbs_dat_o[3]
*634 wbs_dat_o[4]
*635 wbs_dat_o[5]
*636 wbs_dat_o[6]
*637 wbs_dat_o[7]
*638 wbs_dat_o[8]
*639 wbs_dat_o[9]
*640 wbs_sel_i[0]
*641 wbs_sel_i[1]
*642 wbs_sel_i[2]
*643 wbs_sel_i[3]
*644 wbs_stb_i
*645 wbs_we_i
*646 afe_chopclk
*647 afe_dout\[0\]
*648 afe_dout\[1\]
*649 afe_dout\[2\]
*650 afe_dout\[3\]
*651 afe_dout\[4\]
*652 afe_dout\[5\]
*653 afe_dout\[6\]
*654 afe_dout\[7\]
*655 afe_ibias
*656 afe_nbias
*657 afe_out1
*658 afe_ov_one
*659 afe_ov_zero
*660 afe_scanout
*661 afe_test\[0\]
*662 afe_test\[1\]
*663 afe_test\[2\]
*664 afe_test\[3\]
*665 afe_test\[4\]
*666 afe_test\[5\]
*667 afe_test\[6\]
*668 afe_test\[7\]
*669 afe_test_dig
*670 afe_vref
*671 analog_ctrl\[0\]
*672 analog_ctrl\[100\]
*673 analog_ctrl\[101\]
*674 analog_ctrl\[102\]
*675 analog_ctrl\[103\]
*676 analog_ctrl\[104\]
*677 analog_ctrl\[105\]
*678 analog_ctrl\[106\]
*679 analog_ctrl\[107\]
*680 analog_ctrl\[108\]
*681 analog_ctrl\[109\]
*682 analog_ctrl\[10\]
*683 analog_ctrl\[110\]
*684 analog_ctrl\[111\]
*685 analog_ctrl\[112\]
*686 analog_ctrl\[113\]
*687 analog_ctrl\[114\]
*688 analog_ctrl\[115\]
*689 analog_ctrl\[116\]
*690 analog_ctrl\[117\]
*691 analog_ctrl\[118\]
*692 analog_ctrl\[119\]
*693 analog_ctrl\[11\]
*694 analog_ctrl\[120\]
*695 analog_ctrl\[121\]
*696 analog_ctrl\[122\]
*697 analog_ctrl\[123\]
*698 analog_ctrl\[124\]
*699 analog_ctrl\[125\]
*700 analog_ctrl\[126\]
*701 analog_ctrl\[127\]
*702 analog_ctrl\[128\]
*703 analog_ctrl\[129\]
*704 analog_ctrl\[12\]
*705 analog_ctrl\[130\]
*706 analog_ctrl\[131\]
*707 analog_ctrl\[132\]
*708 analog_ctrl\[133\]
*709 analog_ctrl\[134\]
*710 analog_ctrl\[135\]
*711 analog_ctrl\[136\]
*712 analog_ctrl\[137\]
*713 analog_ctrl\[138\]
*714 analog_ctrl\[139\]
*715 analog_ctrl\[13\]
*716 analog_ctrl\[140\]
*717 analog_ctrl\[141\]
*718 analog_ctrl\[142\]
*719 analog_ctrl\[143\]
*720 analog_ctrl\[144\]
*721 analog_ctrl\[145\]
*722 analog_ctrl\[146\]
*723 analog_ctrl\[147\]
*724 analog_ctrl\[148\]
*725 analog_ctrl\[149\]
*726 analog_ctrl\[14\]
*727 analog_ctrl\[150\]
*728 analog_ctrl\[151\]
*729 analog_ctrl\[152\]
*730 analog_ctrl\[153\]
*731 analog_ctrl\[154\]
*732 analog_ctrl\[155\]
*733 analog_ctrl\[156\]
*734 analog_ctrl\[157\]
*735 analog_ctrl\[158\]
*736 analog_ctrl\[159\]
*737 analog_ctrl\[15\]
*738 analog_ctrl\[160\]
*739 analog_ctrl\[161\]
*740 analog_ctrl\[162\]
*741 analog_ctrl\[163\]
*742 analog_ctrl\[164\]
*743 analog_ctrl\[165\]
*744 analog_ctrl\[166\]
*745 analog_ctrl\[167\]
*746 analog_ctrl\[168\]
*747 analog_ctrl\[169\]
*748 analog_ctrl\[16\]
*749 analog_ctrl\[170\]
*750 analog_ctrl\[171\]
*751 analog_ctrl\[172\]
*752 analog_ctrl\[173\]
*753 analog_ctrl\[174\]
*754 analog_ctrl\[175\]
*755 analog_ctrl\[176\]
*756 analog_ctrl\[177\]
*757 analog_ctrl\[178\]
*758 analog_ctrl\[179\]
*759 analog_ctrl\[17\]
*760 analog_ctrl\[180\]
*761 analog_ctrl\[181\]
*762 analog_ctrl\[182\]
*763 analog_ctrl\[183\]
*764 analog_ctrl\[184\]
*765 analog_ctrl\[185\]
*766 analog_ctrl\[186\]
*767 analog_ctrl\[187\]
*768 analog_ctrl\[188\]
*769 analog_ctrl\[189\]
*770 analog_ctrl\[18\]
*771 analog_ctrl\[190\]
*772 analog_ctrl\[191\]
*773 analog_ctrl\[192\]
*774 analog_ctrl\[193\]
*775 analog_ctrl\[194\]
*776 analog_ctrl\[195\]
*777 analog_ctrl\[196\]
*778 analog_ctrl\[197\]
*779 analog_ctrl\[198\]
*780 analog_ctrl\[199\]
*781 analog_ctrl\[19\]
*782 analog_ctrl\[1\]
*783 analog_ctrl\[200\]
*784 analog_ctrl\[201\]
*785 analog_ctrl\[202\]
*786 analog_ctrl\[203\]
*787 analog_ctrl\[204\]
*788 analog_ctrl\[205\]
*789 analog_ctrl\[206\]
*790 analog_ctrl\[20\]
*791 analog_ctrl\[21\]
*792 analog_ctrl\[22\]
*793 analog_ctrl\[23\]
*794 analog_ctrl\[24\]
*795 analog_ctrl\[25\]
*796 analog_ctrl\[26\]
*797 analog_ctrl\[27\]
*798 analog_ctrl\[28\]
*799 analog_ctrl\[29\]
*800 analog_ctrl\[2\]
*801 analog_ctrl\[30\]
*802 analog_ctrl\[31\]
*803 analog_ctrl\[32\]
*804 analog_ctrl\[33\]
*805 analog_ctrl\[34\]
*806 analog_ctrl\[35\]
*807 analog_ctrl\[36\]
*808 analog_ctrl\[37\]
*809 analog_ctrl\[38\]
*810 analog_ctrl\[39\]
*811 analog_ctrl\[3\]
*812 analog_ctrl\[40\]
*813 analog_ctrl\[41\]
*814 analog_ctrl\[42\]
*815 analog_ctrl\[43\]
*816 analog_ctrl\[44\]
*817 analog_ctrl\[45\]
*818 analog_ctrl\[46\]
*819 analog_ctrl\[47\]
*820 analog_ctrl\[48\]
*821 analog_ctrl\[49\]
*822 analog_ctrl\[4\]
*823 analog_ctrl\[50\]
*824 analog_ctrl\[51\]
*825 analog_ctrl\[52\]
*826 analog_ctrl\[53\]
*827 analog_ctrl\[54\]
*828 analog_ctrl\[55\]
*829 analog_ctrl\[56\]
*830 analog_ctrl\[57\]
*831 analog_ctrl\[58\]
*832 analog_ctrl\[59\]
*833 analog_ctrl\[5\]
*834 analog_ctrl\[60\]
*835 analog_ctrl\[61\]
*836 analog_ctrl\[62\]
*837 analog_ctrl\[63\]
*838 analog_ctrl\[64\]
*839 analog_ctrl\[65\]
*840 analog_ctrl\[66\]
*841 analog_ctrl\[67\]
*842 analog_ctrl\[68\]
*843 analog_ctrl\[69\]
*844 analog_ctrl\[6\]
*845 analog_ctrl\[70\]
*846 analog_ctrl\[71\]
*847 analog_ctrl\[72\]
*848 analog_ctrl\[73\]
*849 analog_ctrl\[74\]
*850 analog_ctrl\[75\]
*851 analog_ctrl\[76\]
*852 analog_ctrl\[77\]
*853 analog_ctrl\[78\]
*854 analog_ctrl\[79\]
*855 analog_ctrl\[7\]
*856 analog_ctrl\[80\]
*857 analog_ctrl\[81\]
*858 analog_ctrl\[82\]
*859 analog_ctrl\[83\]
*860 analog_ctrl\[84\]
*861 analog_ctrl\[85\]
*862 analog_ctrl\[86\]
*863 analog_ctrl\[87\]
*864 analog_ctrl\[88\]
*865 analog_ctrl\[89\]
*866 analog_ctrl\[8\]
*867 analog_ctrl\[90\]
*868 analog_ctrl\[91\]
*869 analog_ctrl\[92\]
*870 analog_ctrl\[93\]
*871 analog_ctrl\[94\]
*872 analog_ctrl\[95\]
*873 analog_ctrl\[96\]
*874 analog_ctrl\[97\]
*875 analog_ctrl\[98\]
*876 analog_ctrl\[99\]
*877 analog_ctrl\[9\]
*878 dsm_sumn
*879 dsm_sump
*880 sram_ack
*881 sram_adr\[0\]
*882 sram_adr\[10\]
*883 sram_adr\[11\]
*884 sram_adr\[12\]
*885 sram_adr\[13\]
*886 sram_adr\[14\]
*887 sram_adr\[15\]
*888 sram_adr\[16\]
*889 sram_adr\[17\]
*890 sram_adr\[18\]
*891 sram_adr\[19\]
*892 sram_adr\[1\]
*893 sram_adr\[20\]
*894 sram_adr\[21\]
*895 sram_adr\[22\]
*896 sram_adr\[23\]
*897 sram_adr\[24\]
*898 sram_adr\[25\]
*899 sram_adr\[26\]
*900 sram_adr\[27\]
*901 sram_adr\[28\]
*902 sram_adr\[29\]
*903 sram_adr\[2\]
*904 sram_adr\[30\]
*905 sram_adr\[31\]
*906 sram_adr\[3\]
*907 sram_adr\[4\]
*908 sram_adr\[5\]
*909 sram_adr\[6\]
*910 sram_adr\[7\]
*911 sram_adr\[8\]
*912 sram_adr\[9\]
*913 sram_cyc
*914 sram_rdat\[0\]
*915 sram_rdat\[10\]
*916 sram_rdat\[11\]
*917 sram_rdat\[12\]
*918 sram_rdat\[13\]
*919 sram_rdat\[14\]
*920 sram_rdat\[15\]
*921 sram_rdat\[16\]
*922 sram_rdat\[17\]
*923 sram_rdat\[18\]
*924 sram_rdat\[19\]
*925 sram_rdat\[1\]
*926 sram_rdat\[20\]
*927 sram_rdat\[21\]
*928 sram_rdat\[22\]
*929 sram_rdat\[23\]
*930 sram_rdat\[24\]
*931 sram_rdat\[25\]
*932 sram_rdat\[26\]
*933 sram_rdat\[27\]
*934 sram_rdat\[28\]
*935 sram_rdat\[29\]
*936 sram_rdat\[2\]
*937 sram_rdat\[30\]
*938 sram_rdat\[31\]
*939 sram_rdat\[3\]
*940 sram_rdat\[4\]
*941 sram_rdat\[5\]
*942 sram_rdat\[6\]
*943 sram_rdat\[7\]
*944 sram_rdat\[8\]
*945 sram_rdat\[9\]
*946 sram_sel\[0\]
*947 sram_sel\[1\]
*948 sram_sel\[2\]
*949 sram_sel\[3\]
*950 sram_stb
*951 sram_wdat\[0\]
*952 sram_wdat\[10\]
*953 sram_wdat\[11\]
*954 sram_wdat\[12\]
*955 sram_wdat\[13\]
*956 sram_wdat\[14\]
*957 sram_wdat\[15\]
*958 sram_wdat\[16\]
*959 sram_wdat\[17\]
*960 sram_wdat\[18\]
*961 sram_wdat\[19\]
*962 sram_wdat\[1\]
*963 sram_wdat\[20\]
*964 sram_wdat\[21\]
*965 sram_wdat\[22\]
*966 sram_wdat\[23\]
*967 sram_wdat\[24\]
*968 sram_wdat\[25\]
*969 sram_wdat\[26\]
*970 sram_wdat\[27\]
*971 sram_wdat\[28\]
*972 sram_wdat\[29\]
*973 sram_wdat\[2\]
*974 sram_wdat\[30\]
*975 sram_wdat\[31\]
*976 sram_wdat\[3\]
*977 sram_wdat\[4\]
*978 sram_wdat\[5\]
*979 sram_wdat\[6\]
*980 sram_wdat\[7\]
*981 sram_wdat\[8\]
*982 sram_wdat\[9\]
*983 sram_we
*984 u_cf_adc_dsm20
*985 u_cf_bgr
*986 u_cf_buf_hiz
*987 u_cf_refbuf
*988 u_soc_sys
*989 u_sram

*PORTS
analog_io[0] I
analog_io[10] I
analog_io[11] I
analog_io[12] I
analog_io[13] I
analog_io[14] I
analog_io[15] I
analog_io[16] I
analog_io[17] I
analog_io[18] I
analog_io[19] I
analog_io[1] I
analog_io[20] I
analog_io[21] I
analog_io[22] I
analog_io[23] I
analog_io[24] I
analog_io[25] I
analog_io[26] I
analog_io[27] I
analog_io[28] I
analog_io[2] I
analog_io[3] I
analog_io[4] I
analog_io[5] I
analog_io[6] I
analog_io[7] I
analog_io[8] I
analog_io[9] I
io_in[0] I
io_in[10] I
io_in[11] I
io_in[12] I
io_in[13] I
io_in[14] I
io_in[15] I
io_in[16] I
io_in[17] I
io_in[18] I
io_in[19] I
io_in[1] I
io_in[20] I
io_in[21] I
io_in[22] I
io_in[23] I
io_in[24] I
io_in[25] I
io_in[26] I
io_in[27] I
io_in[28] I
io_in[29] I
io_in[2] I
io_in[30] I
io_in[31] I
io_in[32] I
io_in[33] I
io_in[34] I
io_in[35] I
io_in[36] I
io_in[37] I
io_in[3] I
io_in[4] I
io_in[5] I
io_in[6] I
io_in[7] I
io_in[8] I
io_in[9] I
io_oeb[0] O
io_oeb[10] O
io_oeb[11] O
io_oeb[12] O
io_oeb[13] O
io_oeb[14] O
io_oeb[15] O
io_oeb[16] O
io_oeb[17] O
io_oeb[18] O
io_oeb[19] O
io_oeb[1] O
io_oeb[20] O
io_oeb[21] O
io_oeb[22] O
io_oeb[23] O
io_oeb[24] O
io_oeb[25] O
io_oeb[26] O
io_oeb[27] O
io_oeb[28] O
io_oeb[29] O
io_oeb[2] O
io_oeb[30] O
io_oeb[31] O
io_oeb[32] O
io_oeb[33] O
io_oeb[34] O
io_oeb[35] O
io_oeb[36] O
io_oeb[37] O
io_oeb[3] O
io_oeb[4] O
io_oeb[5] O
io_oeb[6] O
io_oeb[7] O
io_oeb[8] O
io_oeb[9] O
io_out[0] O
io_out[10] O
io_out[11] O
io_out[12] O
io_out[13] O
io_out[14] O
io_out[15] O
io_out[16] O
io_out[17] O
io_out[18] O
io_out[19] O
io_out[1] O
io_out[20] O
io_out[21] O
io_out[22] O
io_out[23] O
io_out[24] O
io_out[25] O
io_out[26] O
io_out[27] O
io_out[28] O
io_out[29] O
io_out[2] O
io_out[30] O
io_out[31] O
io_out[32] O
io_out[33] O
io_out[34] O
io_out[35] O
io_out[36] O
io_out[37] O
io_out[3] O
io_out[4] O
io_out[5] O
io_out[6] O
io_out[7] O
io_out[8] O
io_out[9] O
la_data_in[0] I
la_data_in[100] I
la_data_in[101] I
la_data_in[102] I
la_data_in[103] I
la_data_in[104] I
la_data_in[105] I
la_data_in[106] I
la_data_in[107] I
la_data_in[108] I
la_data_in[109] I
la_data_in[10] I
la_data_in[110] I
la_data_in[111] I
la_data_in[112] I
la_data_in[113] I
la_data_in[114] I
la_data_in[115] I
la_data_in[116] I
la_data_in[117] I
la_data_in[118] I
la_data_in[119] I
la_data_in[11] I
la_data_in[120] I
la_data_in[121] I
la_data_in[122] I
la_data_in[123] I
la_data_in[124] I
la_data_in[125] I
la_data_in[126] I
la_data_in[127] I
la_data_in[12] I
la_data_in[13] I
la_data_in[14] I
la_data_in[15] I
la_data_in[16] I
la_data_in[17] I
la_data_in[18] I
la_data_in[19] I
la_data_in[1] I
la_data_in[20] I
la_data_in[21] I
la_data_in[22] I
la_data_in[23] I
la_data_in[24] I
la_data_in[25] I
la_data_in[26] I
la_data_in[27] I
la_data_in[28] I
la_data_in[29] I
la_data_in[2] I
la_data_in[30] I
la_data_in[31] I
la_data_in[32] I
la_data_in[33] I
la_data_in[34] I
la_data_in[35] I
la_data_in[36] I
la_data_in[37] I
la_data_in[38] I
la_data_in[39] I
la_data_in[3] I
la_data_in[40] I
la_data_in[41] I
la_data_in[42] I
la_data_in[43] I
la_data_in[44] I
la_data_in[45] I
la_data_in[46] I
la_data_in[47] I
la_data_in[48] I
la_data_in[49] I
la_data_in[4] I
la_data_in[50] I
la_data_in[51] I
la_data_in[52] I
la_data_in[53] I
la_data_in[54] I
la_data_in[55] I
la_data_in[56] I
la_data_in[57] I
la_data_in[58] I
la_data_in[59] I
la_data_in[5] I
la_data_in[60] I
la_data_in[61] I
la_data_in[62] I
la_data_in[63] I
la_data_in[64] I
la_data_in[65] I
la_data_in[66] I
la_data_in[67] I
la_data_in[68] I
la_data_in[69] I
la_data_in[6] I
la_data_in[70] I
la_data_in[71] I
la_data_in[72] I
la_data_in[73] I
la_data_in[74] I
la_data_in[75] I
la_data_in[76] I
la_data_in[77] I
la_data_in[78] I
la_data_in[79] I
la_data_in[7] I
la_data_in[80] I
la_data_in[81] I
la_data_in[82] I
la_data_in[83] I
la_data_in[84] I
la_data_in[85] I
la_data_in[86] I
la_data_in[87] I
la_data_in[88] I
la_data_in[89] I
la_data_in[8] I
la_data_in[90] I
la_data_in[91] I
la_data_in[92] I
la_data_in[93] I
la_data_in[94] I
la_data_in[95] I
la_data_in[96] I
la_data_in[97] I
la_data_in[98] I
la_data_in[99] I
la_data_in[9] I
la_data_out[0] O
la_data_out[100] O
la_data_out[101] O
la_data_out[102] O
la_data_out[103] O
la_data_out[104] O
la_data_out[105] O
la_data_out[106] O
la_data_out[107] O
la_data_out[108] O
la_data_out[109] O
la_data_out[10] O
la_data_out[110] O
la_data_out[111] O
la_data_out[112] O
la_data_out[113] O
la_data_out[114] O
la_data_out[115] O
la_data_out[116] O
la_data_out[117] O
la_data_out[118] O
la_data_out[119] O
la_data_out[11] O
la_data_out[120] O
la_data_out[121] O
la_data_out[122] O
la_data_out[123] O
la_data_out[124] O
la_data_out[125] O
la_data_out[126] O
la_data_out[127] O
la_data_out[12] O
la_data_out[13] O
la_data_out[14] O
la_data_out[15] O
la_data_out[16] O
la_data_out[17] O
la_data_out[18] O
la_data_out[19] O
la_data_out[1] O
la_data_out[20] O
la_data_out[21] O
la_data_out[22] O
la_data_out[23] O
la_data_out[24] O
la_data_out[25] O
la_data_out[26] O
la_data_out[27] O
la_data_out[28] O
la_data_out[29] O
la_data_out[2] O
la_data_out[30] O
la_data_out[31] O
la_data_out[32] O
la_data_out[33] O
la_data_out[34] O
la_data_out[35] O
la_data_out[36] O
la_data_out[37] O
la_data_out[38] O
la_data_out[39] O
la_data_out[3] O
la_data_out[40] O
la_data_out[41] O
la_data_out[42] O
la_data_out[43] O
la_data_out[44] O
la_data_out[45] O
la_data_out[46] O
la_data_out[47] O
la_data_out[48] O
la_data_out[49] O
la_data_out[4] O
la_data_out[50] O
la_data_out[51] O
la_data_out[52] O
la_data_out[53] O
la_data_out[54] O
la_data_out[55] O
la_data_out[56] O
la_data_out[57] O
la_data_out[58] O
la_data_out[59] O
la_data_out[5] O
la_data_out[60] O
la_data_out[61] O
la_data_out[62] O
la_data_out[63] O
la_data_out[64] O
la_data_out[65] O
la_data_out[66] O
la_data_out[67] O
la_data_out[68] O
la_data_out[69] O
la_data_out[6] O
la_data_out[70] O
la_data_out[71] O
la_data_out[72] O
la_data_out[73] O
la_data_out[74] O
la_data_out[75] O
la_data_out[76] O
la_data_out[77] O
la_data_out[78] O
la_data_out[79] O
la_data_out[7] O
la_data_out[80] O
la_data_out[81] O
la_data_out[82] O
la_data_out[83] O
la_data_out[84] O
la_data_out[85] O
la_data_out[86] O
la_data_out[87] O
la_data_out[88] O
la_data_out[89] O
la_data_out[8] O
la_data_out[90] O
la_data_out[91] O
la_data_out[92] O
la_data_out[93] O
la_data_out[94] O
la_data_out[95] O
la_data_out[96] O
la_data_out[97] O
la_data_out[98] O
la_data_out[99] O
la_data_out[9] O
la_oenb[0] I
la_oenb[100] I
la_oenb[101] I
la_oenb[102] I
la_oenb[103] I
la_oenb[104] I
la_oenb[105] I
la_oenb[106] I
la_oenb[107] I
la_oenb[108] I
la_oenb[109] I
la_oenb[10] I
la_oenb[110] I
la_oenb[111] I
la_oenb[112] I
la_oenb[113] I
la_oenb[114] I
la_oenb[115] I
la_oenb[116] I
la_oenb[117] I
la_oenb[118] I
la_oenb[119] I
la_oenb[11] I
la_oenb[120] I
la_oenb[121] I
la_oenb[122] I
la_oenb[123] I
la_oenb[124] I
la_oenb[125] I
la_oenb[126] I
la_oenb[127] I
la_oenb[12] I
la_oenb[13] I
la_oenb[14] I
la_oenb[15] I
la_oenb[16] I
la_oenb[17] I
la_oenb[18] I
la_oenb[19] I
la_oenb[1] I
la_oenb[20] I
la_oenb[21] I
la_oenb[22] I
la_oenb[23] I
la_oenb[24] I
la_oenb[25] I
la_oenb[26] I
la_oenb[27] I
la_oenb[28] I
la_oenb[29] I
la_oenb[2] I
la_oenb[30] I
la_oenb[31] I
la_oenb[32] I
la_oenb[33] I
la_oenb[34] I
la_oenb[35] I
la_oenb[36] I
la_oenb[37] I
la_oenb[38] I
la_oenb[39] I
la_oenb[3] I
la_oenb[40] I
la_oenb[41] I
la_oenb[42] I
la_oenb[43] I
la_oenb[44] I
la_oenb[45] I
la_oenb[46] I
la_oenb[47] I
la_oenb[48] I
la_oenb[49] I
la_oenb[4] I
la_oenb[50] I
la_oenb[51] I
la_oenb[52] I
la_oenb[53] I
la_oenb[54] I
la_oenb[55] I
la_oenb[56] I
la_oenb[57] I
la_oenb[58] I
la_oenb[59] I
la_oenb[5] I
la_oenb[60] I
la_oenb[61] I
la_oenb[62] I
la_oenb[63] I
la_oenb[64] I
la_oenb[65] I
la_oenb[66] I
la_oenb[67] I
la_oenb[68] I
la_oenb[69] I
la_oenb[6] I
la_oenb[70] I
la_oenb[71] I
la_oenb[72] I
la_oenb[73] I
la_oenb[74] I
la_oenb[75] I
la_oenb[76] I
la_oenb[77] I
la_oenb[78] I
la_oenb[79] I
la_oenb[7] I
la_oenb[80] I
la_oenb[81] I
la_oenb[82] I
la_oenb[83] I
la_oenb[84] I
la_oenb[85] I
la_oenb[86] I
la_oenb[87] I
la_oenb[88] I
la_oenb[89] I
la_oenb[8] I
la_oenb[90] I
la_oenb[91] I
la_oenb[92] I
la_oenb[93] I
la_oenb[94] I
la_oenb[95] I
la_oenb[96] I
la_oenb[97] I
la_oenb[98] I
la_oenb[99] I
la_oenb[9] I
user_clock2 I
user_irq[0] O
user_irq[1] O
user_irq[2] O
wb_clk_i I
wb_rst_i I
wbs_ack_o O
wbs_adr_i[0] I
wbs_adr_i[10] I
wbs_adr_i[11] I
wbs_adr_i[12] I
wbs_adr_i[13] I
wbs_adr_i[14] I
wbs_adr_i[15] I
wbs_adr_i[16] I
wbs_adr_i[17] I
wbs_adr_i[18] I
wbs_adr_i[19] I
wbs_adr_i[1] I
wbs_adr_i[20] I
wbs_adr_i[21] I
wbs_adr_i[22] I
wbs_adr_i[23] I
wbs_adr_i[24] I
wbs_adr_i[25] I
wbs_adr_i[26] I
wbs_adr_i[27] I
wbs_adr_i[28] I
wbs_adr_i[29] I
wbs_adr_i[2] I
wbs_adr_i[30] I
wbs_adr_i[31] I
wbs_adr_i[3] I
wbs_adr_i[4] I
wbs_adr_i[5] I
wbs_adr_i[6] I
wbs_adr_i[7] I
wbs_adr_i[8] I
wbs_adr_i[9] I
wbs_cyc_i I
wbs_dat_i[0] I
wbs_dat_i[10] I
wbs_dat_i[11] I
wbs_dat_i[12] I
wbs_dat_i[13] I
wbs_dat_i[14] I
wbs_dat_i[15] I
wbs_dat_i[16] I
wbs_dat_i[17] I
wbs_dat_i[18] I
wbs_dat_i[19] I
wbs_dat_i[1] I
wbs_dat_i[20] I
wbs_dat_i[21] I
wbs_dat_i[22] I
wbs_dat_i[23] I
wbs_dat_i[24] I
wbs_dat_i[25] I
wbs_dat_i[26] I
wbs_dat_i[27] I
wbs_dat_i[28] I
wbs_dat_i[29] I
wbs_dat_i[2] I
wbs_dat_i[30] I
wbs_dat_i[31] I
wbs_dat_i[3] I
wbs_dat_i[4] I
wbs_dat_i[5] I
wbs_dat_i[6] I
wbs_dat_i[7] I
wbs_dat_i[8] I
wbs_dat_i[9] I
wbs_dat_o[0] O
wbs_dat_o[10] O
wbs_dat_o[11] O
wbs_dat_o[12] O
wbs_dat_o[13] O
wbs_dat_o[14] O
wbs_dat_o[15] O
wbs_dat_o[16] O
wbs_dat_o[17] O
wbs_dat_o[18] O
wbs_dat_o[19] O
wbs_dat_o[1] O
wbs_dat_o[20] O
wbs_dat_o[21] O
wbs_dat_o[22] O
wbs_dat_o[23] O
wbs_dat_o[24] O
wbs_dat_o[25] O
wbs_dat_o[26] O
wbs_dat_o[27] O
wbs_dat_o[28] O
wbs_dat_o[29] O
wbs_dat_o[2] O
wbs_dat_o[30] O
wbs_dat_o[31] O
wbs_dat_o[3] O
wbs_dat_o[4] O
wbs_dat_o[5] O
wbs_dat_o[6] O
wbs_dat_o[7] O
wbs_dat_o[8] O
wbs_dat_o[9] O
wbs_sel_i[0] I
wbs_sel_i[1] I
wbs_sel_i[2] I
wbs_sel_i[3] I
wbs_stb_i I
wbs_we_i I

*D_NET *1 0.328931
*CONN
*P analog_io[0] I
*I *985:vb2_fast I *D CF_BGR
*CAP
1 analog_io[0] 0.047724
2 *985:vb2_fast 3.49772e-05
3 *1:13 0.074523
4 *1:11 0.0744881
5 *1:9 0.0311652
6 *1:7 0.0311652
7 *1:5 0.047724
8 *1:13 *867:21 0.0221067
*RES
1 analog_io[0] *1:5 144.193 
2 *1:5 *1:7 3.41 
3 *1:7 *1:9 640.205 
4 *1:9 *1:11 4.5 
5 *1:11 *1:13 1504.08 
6 *1:13 *985:vb2_fast 0.669643 
*END

*D_NET *12 0.147247
*CONN
*P analog_io[1] I
*I *986:vinp1 I *D CF_BUF_HIZ
*CAP
1 analog_io[1] 0.0208305
2 *986:vinp1 0.00025961
3 *12:9 0.00721322
4 *12:7 0.00695361
5 *12:5 0.0208305
6 *12:9 *25:9 0.0455788
7 *12:9 *26:9 0.0455803
*RES
1 analog_io[1] *12:5 58.7218 
2 *12:5 *12:7 3.41 
3 *12:7 *12:9 558.696 
4 *12:9 *986:vinp1 7.58767 
*END

*D_NET *13 0.565211
*CONN
*P analog_io[20] I
*I *984:INN I *D CF_ADC_DSM20
*I *984:PBUF_INN I *D CF_ADC_DSM20
*I *986:out2 O *D CF_BUF_HIZ
*CAP
1 analog_io[20] 0.000594323
2 *984:INN 0.00118687
3 *984:PBUF_INN 0.00102218
4 *986:out2 0.000105886
5 *13:56 0.0302418
6 *13:54 0.0296475
7 *13:52 0.0506377
8 *13:38 0.0517084
9 *13:34 0.00239325
10 *13:32 0.00294667
11 *13:22 0.00203822
12 *13:18 0.00501674
13 *13:16 0.00476735
14 *13:14 0.0242924
15 *13:12 0.0242924
16 *13:10 0.00905785
17 *13:8 0.00916373
18 analog_io[20] *46:9 0.000322558
19 analog_io[20] *123:21 0.000243574
20 *984:INN *984:INP 0.000134542
21 *984:PBUF_INN *984:PBUF_INP 0.000200677
22 *13:8 *986:bypass_n 5.96243e-05
23 *13:10 *22:17 0.00443722
24 *13:14 *104:29 0.00766398
25 *13:14 *656:65 0.126394
26 *13:14 *658:19 0.0496265
27 *13:14 *712:15 0.00866443
28 *13:14 *718:13 0.00227629
29 *13:14 *719:13 0.00201674
30 *13:14 *721:13 0.000843361
31 *13:14 *722:13 0.000698969
32 *13:14 *812:13 0.023457
33 *13:14 *817:13 0
34 *13:18 *18:15 0.000639588
35 *13:18 *683:17 0.00651287
36 *13:18 *684:17 0.010819
37 *13:18 *688:13 0.00163555
38 *13:18 *690:9 0
39 *13:18 *714:17 0.000277215
40 *13:18 *723:33 0.00195431
41 *13:18 *726:17 0.0128676
42 *13:18 *738:17 0.0107252
43 *13:32 *19:15 0
44 *13:32 *716:41 0.000223303
45 *13:32 *719:17 0.000996099
46 *13:34 *18:41 0.000805373
47 *13:34 *19:15 0.0136334
48 *13:34 *717:17 0.0150844
49 *13:34 *728:33 0.00375286
50 *13:38 *18:41 6.66275e-05
51 *13:38 *717:17 2.96328e-05
52 *13:52 *18:41 0.00596536
53 *13:52 *717:17 0.00221441
54 *13:52 *718:17 7.71366e-05
55 *13:52 *722:17 0
56 *13:52 *727:17 0
57 *13:52 *728:33 0.000777481
*RES
1 *986:out2 *13:8 7.15527 
2 *13:8 *13:10 205.946 
3 *13:10 *13:12 3.41 
4 *13:12 *13:14 201.473 
5 *13:14 *13:16 3.41 
6 *13:16 *13:18 315.688 
7 *13:18 *13:22 7.91071 
8 *13:22 *13:32 29.5893 
9 *13:32 *13:34 184.92 
10 *13:34 *13:38 1.34821 
11 *13:38 *984:PBUF_INN 20.4821 
12 *13:38 *13:52 1080.54 
13 *13:52 *13:54 4.5 
14 *13:54 *13:56 567.321 
15 *13:56 analog_io[20] 15.0071 
16 *13:22 *984:INN 18.9554 
*END

*D_NET *14 0.485927
*CONN
*P analog_io[21] I
*I *986:vcm I *D CF_BUF_HIZ
*I *984:VCM I *D CF_ADC_DSM20
*CAP
1 analog_io[21] 0.00203572
2 *986:vcm 0.000313901
3 *984:VCM 0.0013887
4 *14:39 0.0172283
5 *14:37 0.0169144
6 *14:35 0.0847864
7 *14:33 0.0847864
8 *14:21 0.0045244
9 *14:19 0.00676673
10 *14:17 0.00369743
11 *14:15 0.0355197
12 *14:13 0.0354533
13 *14:11 0.0311944
14 *14:9 0.0332301
15 *986:vcm *986:iref_casc 0.000379685
16 *986:vcm *655:65 1.00689e-05
17 *14:19 *716:41 0.000129666
18 *14:19 *721:17 0.000352853
19 *14:21 *714:17 0.0199944
20 *14:21 *721:17 0.0201265
21 *14:21 *723:33 0.00494923
22 *14:35 *984:SUMCAP3[2] 0.000127311
23 *14:35 *984:SCANCLK 7.07155e-06
24 *14:35 *18:69 0
25 *14:35 *657:14 0.0549205
26 *14:35 *719:21 0
27 *14:35 *730:21 0
28 *14:35 *731:21 0
29 *14:35 *738:35 0.000964261
30 *14:35 *745:21 0
31 *14:35 *764:29 0
32 *14:35 *765:21 0.0257501
33 *14:35 *774:21 2.95726e-05
34 *14:35 *775:21 0
35 *14:35 *776:21 0.000107759
36 *14:35 *788:31 6.78134e-05
37 *14:35 *789:29 0.000113886
38 *14:39 *25:9 0
39 *14:39 *656:69 5.64591e-05
*RES
1 analog_io[21] *14:9 5.51937 
2 *14:9 *14:11 93.5535 
3 *14:11 *14:13 3.41 
4 *14:13 *14:15 727.964 
5 *14:15 *14:17 1.35714 
6 *14:17 *14:19 73.8661 
7 *14:19 *14:21 246.929 
8 *14:21 *984:VCM 25.375 
9 *14:19 *14:33 4.5 
10 *14:33 *14:35 1708.7 
11 *14:35 *14:37 4.5 
12 *14:37 *14:39 348.321 
13 *14:39 *986:vcm 16.4464 
*END

*D_NET *15 0.268527
*CONN
*P analog_io[22] I
*I *984:refout O *D CF_ADC_DSM20
*CAP
1 analog_io[22] 0.00194765
2 *984:refout 0.00132536
3 *15:49 0.0848926
4 *15:47 0.0829449
5 *15:45 0.0376428
6 *15:43 0.037887
7 *15:37 0.00210569
8 *15:35 0.00314373
9 *15:31 0.00192468
10 *15:27 0.00196776
11 analog_io[22] *46:9 0.000322558
12 *15:27 *984:ODET_TH[2] 0.000106048
13 *15:27 *984:ODET_TH[0] 9.62115e-05
14 *15:27 *984:RESET3 2.07112e-05
15 *15:27 *984:dig_test_sel[2] 1.16759e-05
16 *15:27 *984:dig_test_sel[1] 5.11642e-05
17 *15:27 *984:qlev[0] 6.92804e-05
18 *15:27 *984:vpwr_cp 6.27272e-06
19 *15:27 *984:bypass_n 1.81782e-05
20 *15:27 *984:BUF_FCHOP[0] 0.000184552
21 *15:27 *756:45 0.000543693
22 *15:27 *756:47 0.000436374
23 *15:27 *795:17 0.00120655
24 *15:27 *798:17 0.000594087
25 *15:27 *806:17 4.72732e-05
26 *15:31 *756:47 0.000840236
27 *15:35 *984:clk 3.13523e-05
28 *15:35 *984:NONOV[1] 0.00021753
29 *15:35 *755:33 0.00129092
30 *15:35 *756:47 0.00351201
31 *15:37 *984:iso 2.55163e-05
32 *15:37 *755:33 0.00057713
33 *15:37 *756:47 0.00253532
34 *15:43 *984:iso 0
35 *15:45 *755:33 0
*RES
1 *984:refout *15:27 31.9035 
2 *15:27 *15:31 19.1429 
3 *15:31 *15:35 43.7857 
4 *15:35 *15:37 55.9643 
5 *15:37 *15:43 7.4075 
6 *15:43 *15:45 119.364 
7 *15:45 *15:47 3.41 
8 *15:47 *15:49 250.371 
9 *15:49 analog_io[22] 25.7136 
*END

*D_NET *17 0.0372817
*CONN
*P analog_io[24] I
*I *985:dft_curr_in I *D CF_BGR
*CAP
1 analog_io[24] 0.00336156
2 *985:dft_curr_in 0.00253712
3 *17:11 0.013844
4 *17:9 0.0146685
5 *985:dft_curr_in *45:13 0
6 *17:11 *126:27 0.0028705
*RES
1 analog_io[24] *17:9 12.5593 
2 *17:9 *17:11 232.661 
3 *17:11 *985:dft_curr_in 13.9512 
*END

*D_NET *18 0.371138
*CONN
*P analog_io[25] I
*I *984:vpwrd_int I *D CF_ADC_DSM20
*I *984:vpwr_ext I *D CF_ADC_DSM20
*I *984:vpwr_int I *D CF_ADC_DSM20
*CAP
1 analog_io[25] 0.00221417
2 *984:vpwrd_int 0.000121506
3 *984:vpwr_ext 0.00047447
4 *984:vpwr_int 0.00167612
5 *18:75 0.000847153
6 *18:71 0.00352395
7 *18:69 0.00386931
8 *18:49 0.00281169
9 *18:45 0.0213725
10 *18:43 0.0201063
11 *18:41 0.00470856
12 *18:39 0.00513206
13 *18:15 0.00668903
14 *18:13 0.00501291
15 *18:11 0.0328404
16 *18:9 0.0346311
17 *984:vpwr_int *692:13 1.94879e-05
18 *984:vpwr_int *731:17 8.39931e-05
19 *984:vpwr_int *736:13 0
20 *18:15 *684:17 0.00759206
21 *18:15 *688:13 0.00102104
22 *18:15 *714:17 0.0316346
23 *18:15 *723:33 0.00525925
24 *18:15 *726:17 0.0228794
25 *18:41 *19:15 0.0046103
26 *18:41 *716:41 0.000141594
27 *18:41 *719:17 0
28 *18:41 *728:33 0.00197264
29 *18:45 *826:13 0.0677028
30 *18:45 *828:29 0.0157922
31 *18:69 *984:SUMCAP3[2] 0.00067765
32 *18:69 *984:FCAP3[3] 0.00012222
33 *18:69 *984:FCAP3[2] 5.41794e-05
34 *18:69 *984:FCAP3[0] 3.08281e-05
35 *18:69 *714:21 0.000245009
36 *18:69 *730:21 0.000637533
37 *18:69 *738:35 0.00010613
38 *18:69 *784:29 0.00165883
39 *18:69 *788:31 0.00058524
40 *18:71 *984:FCAP1[5] 0.000802311
41 *18:71 *756:75 0.00417482
42 *18:71 *758:17 0.000197345
43 *18:71 *763:21 0.020492
44 *18:71 *771:37 0.0216973
45 *18:75 *19:53 1.74503e-05
46 *18:75 *755:33 0.000628494
47 *18:75 *756:61 0.00337387
48 *18:75 *785:49 0.00341951
49 *13:18 *18:15 0.000639588
50 *13:34 *18:41 0.000805373
51 *13:38 *18:41 6.66275e-05
52 *13:52 *18:41 0.00596536
53 *14:35 *18:69 0
*RES
1 analog_io[25] *18:9 5.51937 
2 *18:9 *18:11 93.6256 
3 *18:11 *18:13 3.41 
4 *18:13 *18:15 388.545 
5 *18:15 *984:vpwr_int 35.7847 
6 *18:11 *18:39 4.39387 
7 *18:39 *18:41 148.723 
8 *18:41 *18:43 4.5 
9 *18:43 *18:45 640.018 
10 *18:45 *18:49 25.2679 
11 *18:49 *984:vpwr_ext 11.3661 
12 *18:49 *18:69 47.3036 
13 *18:69 *18:71 204.661 
14 *18:71 *18:75 47.2768 
15 *18:75 *984:vpwrd_int 7.15527 
*END

*D_NET *19 0.319686
*CONN
*P analog_io[26] I
*I *984:vgnde_vnb I *D CF_ADC_DSM20
*I *984:VGND_DAC I *D CF_ADC_DSM20
*I *984:vgnde I *D CF_ADC_DSM20
*I *984:vgndd_vnb I *D CF_ADC_DSM20
*CAP
1 analog_io[26] 0.00223431
2 *984:vgnde_vnb 0.000713186
3 *984:VGND_DAC 0.000774154
4 *984:vgnde 0.000734811
5 *984:vgndd_vnb 7.08611e-05
6 *19:53 0.00281965
7 *19:51 0.00331951
8 *19:35 0.00262361
9 *19:27 0.0293286
10 *19:25 0.0272974
11 *19:23 0.00397915
12 *19:21 0.00397915
13 *19:19 0.00109737
14 *19:15 0.00841885
15 *19:13 0.00809563
16 *19:11 0.0328596
17 *19:9 0.0350939
18 *984:vgnde_vnb *984:enable_hv 4.28033e-05
19 *984:vgnde_vnb *755:33 0.000489141
20 *984:vgnde_vnb *756:47 0.000895818
21 *19:15 *717:17 0.00557488
22 *19:15 *719:17 0
23 *19:15 *728:33 0.00524224
24 *19:23 *699:21 3.60839e-05
25 *19:23 *701:21 0.00554983
26 *19:23 *712:17 0
27 *19:23 *727:17 0
28 *19:23 *729:17 0
29 *19:23 *743:17 0
30 *19:27 *141:18 0.0190745
31 *19:27 *825:13 0.0687999
32 *19:27 *827:13 0.0101787
33 *19:35 *662:11 0.000172536
34 *19:51 *661:17 0.00465977
35 *19:51 *662:11 0.00150579
36 *19:51 *663:25 0.000223108
37 *19:51 *667:17 0.00466265
38 *19:53 *647:11 0.000180648
39 *19:53 *648:11 4.87445e-05
40 *19:53 *653:13 0.00133955
41 *19:53 *654:11 8.32358e-05
42 *19:53 *755:33 0.00147865
43 *19:53 *756:47 0.000369163
44 *19:53 *756:51 0.00425485
45 *19:53 *756:61 0.00311502
46 *19:53 *785:49 8.09004e-06
47 *13:32 *19:15 0
48 *13:34 *19:15 0.0136334
49 *18:41 *19:15 0.0046103
50 *18:75 *19:53 1.74503e-05
*RES
1 analog_io[26] *19:9 5.51937 
2 *19:9 *19:11 94.6345 
3 *19:11 *19:13 3.41 
4 *19:13 *19:15 288.973 
5 *19:15 *19:19 9.14286 
6 *19:19 *19:21 4.5 
7 *19:21 *19:23 98.7857 
8 *19:23 *19:25 4.5 
9 *19:25 *19:27 827.304 
10 *19:27 *19:35 44.6071 
11 *19:35 *984:vgndd_vnb 1.27679 
12 *19:35 *19:51 18.7784 
13 *19:51 *19:53 99.6964 
14 *19:53 *984:vgnde 0.883929 
15 *19:19 *984:VGND_DAC 11.1518 
16 *984:vgnde *984:vgnde_vnb 21.3214 
*END

*D_NET *20 0.414592
*CONN
*P analog_io[27] I
*I *984:vpwr_cp_dc I *D CF_ADC_DSM20
*I *984:vpwr_cp I *D CF_ADC_DSM20
*CAP
1 analog_io[27] 0.00227111
2 *984:vpwr_cp_dc 3.71649e-05
3 *984:vpwr_cp 0.000649543
4 *20:59 0.00565495
5 *20:47 0.0091081
6 *20:45 0.00450161
7 *20:23 0.00389514
8 *20:15 0.00648393
9 *20:13 0.00424964
10 *20:11 0.0626308
11 *20:9 0.064902
12 *984:vpwr_cp *984:ODET_TH[2] 8.55871e-05
13 *984:vpwr_cp *984:BUF_FCHOP[1] 0.000100838
14 *984:vpwr_cp *807:21 1.08359e-05
15 *20:11 *31:13 0
16 *20:11 *669:19 0.00984273
17 *20:11 *783:13 0
18 *20:11 *785:13 0
19 *20:11 *794:45 0
20 *20:11 *873:13 0.110718
21 *20:11 *877:13 0
22 *20:15 *758:13 0.0261075
23 *20:15 *770:47 0.0035035
24 *20:15 *775:17 0
25 *20:15 *809:17 0
26 *20:15 *872:25 0.0254603
27 *20:23 *789:23 0
28 *20:45 *750:13 0.000311983
29 *20:45 *756:35 0.00106229
30 *20:45 *771:33 0
31 *20:45 *785:33 0.00130534
32 *20:45 *816:17 0
33 *20:45 *817:17 2.31123e-05
34 *20:47 *652:13 0.0142847
35 *20:47 *654:13 0.0150251
36 *20:47 *704:17 0.000582614
37 *20:47 *755:33 0.00117704
38 *20:47 *771:33 0.00194491
39 *20:47 *786:17 0.00240804
40 *20:59 *984:SUMCAPFB[0] 4.65519e-05
41 *20:59 *984:refsel[8] 9.13847e-05
42 *20:59 *984:refsel[1] 0.000489115
43 *20:59 *984:refsel[0] 0.000181336
44 *20:59 *984:FCAP2[3] 5.29214e-05
45 *20:59 *984:DACCAPEN 9.95694e-05
46 *20:59 *984:DACCAP[3] 5.27479e-05
47 *20:59 *984:IPCAP1OFFSET 7.03036e-05
48 *20:59 *984:TESTMODE 0.000210201
49 *20:59 *664:25 0.00743519
50 *20:59 *667:17 0.00668186
51 *20:59 *698:21 0.000498683
52 *20:59 *707:21 0.00136595
53 *20:59 *734:29 0.00116726
54 *20:59 *739:31 0.0130213
55 *20:59 *740:27 0.000126445
56 *20:59 *741:29 0.00393965
57 *20:59 *744:25 8.60326e-05
58 *20:59 *747:31 0.000137698
59 *20:59 *821:29 0.00049323
60 *15:27 *984:vpwr_cp 6.27272e-06
*RES
1 analog_io[27] *20:9 5.51937 
2 *20:9 *20:11 254.911 
3 *20:11 *20:13 3.41 
4 *20:13 *20:15 320.545 
5 *20:15 *20:23 36.4821 
6 *20:23 *984:vpwr_cp 14.1964 
7 *20:23 *20:45 44.0536 
8 *20:45 *20:47 237.973 
9 *20:47 *20:59 48.6315 
10 *20:59 *984:vpwr_cp_dc 5.16964 
*END

*D_NET *22 0.18949
*CONN
*P analog_io[2] I
*I *986:vinp2 I *D CF_BUF_HIZ
*CAP
1 analog_io[2] 0.00113466
2 *986:vinp2 4.32496e-05
3 *22:17 0.0365241
4 *22:15 0.0364809
5 *22:13 0.0548579
6 *22:11 0.0559925
7 *22:11 *67:9 0
8 *22:17 *986:bypass_n 1.97779e-05
9 *13:10 *22:17 0.00443722
*RES
1 analog_io[2] *22:11 23.0479 
2 *22:11 *22:13 155.927 
3 *22:13 *22:15 3.41 
4 *22:15 *22:17 770.286 
5 *22:17 *986:vinp2 0.883929 
*END

*D_NET *23 0.259509
*CONN
*P analog_io[3] I
*I *986:vpwr_core I *D CF_BUF_HIZ
*I *986:vpwr_acore I *D CF_BUF_HIZ
*CAP
1 analog_io[3] 0.0188407
2 *986:vpwr_core 0
3 *986:vpwr_acore 0.00924171
4 *23:36 0.00950497
5 *23:34 0.0175402
6 *23:9 0.0471421
7 *23:7 0.0459356
8 *23:5 0.0188407
9 *986:vpwr_acore *26:9 0
10 *23:34 *657:10 9.79308e-05
11 *23:34 *822:17 0.0181557
12 *23:36 *986:vgnd1 0.000121901
13 *23:36 *986:vpwrb 0.000620081
14 *23:36 *24:13 0.0352986
15 *23:36 *25:13 0.000270195
16 *23:36 *70:33 0.00171698
17 *23:36 *112:48 0.0361816
*RES
1 analog_io[3] *23:5 56.6319 
2 *23:5 *23:7 3.41 
3 *23:7 *23:9 944.839 
4 *23:9 *986:vpwr_acore 13.6865 
5 *986:vpwr_acore *23:34 48.6588 
6 *23:34 *23:36 70.9246 
7 *23:36 *986:vpwr_core 3.41 
*END

*D_NET *24 0.238466
*CONN
*P analog_io[4] I
*I *986:vpwrb_clk I *D CF_BUF_HIZ
*I *986:vpwrb I *D CF_BUF_HIZ
*CAP
1 analog_io[4] 0.0177295
2 *986:vpwrb_clk 0
3 *986:vpwrb 0.000220702
4 *24:13 0.0142342
5 *24:11 0.0140135
6 *24:9 0.0681951
7 *24:7 0.0681951
8 *24:5 0.0177295
9 *986:vpwrb *655:57 0
10 *24:13 *112:48 0.00222969
11 *24:13 *655:57 0
12 *23:36 *986:vpwrb 0.000620081
13 *23:36 *24:13 0.0352986
*RES
1 analog_io[4] *24:5 53.3889 
2 *24:5 *24:7 3.41 
3 *24:7 *24:9 1403.84 
4 *24:9 *24:11 3.41 
5 *24:11 *24:13 62.6729 
6 *24:13 *986:vpwrb 4.39387 
7 *24:13 *986:vpwrb_clk 3.41 
*END

*D_NET *25 0.31615
*CONN
*P analog_io[5] I
*I *986:vgnd1 I *D CF_BUF_HIZ
*CAP
1 analog_io[5] 0.0207199
2 *986:vgnd1 0.000128294
3 *25:13 0.00789051
4 *25:11 0.00776222
5 *25:9 0.0527244
6 *25:7 0.0527244
7 *25:5 0.0207199
8 *986:vgnd1 *70:33 0.000105941
9 *25:9 *26:9 0.0496872
10 *25:9 *656:69 0
11 *25:13 *70:33 0.0379921
12 *25:13 *112:48 0.0197243
13 *12:9 *25:9 0.0455788
14 *14:39 *25:9 0
15 *23:36 *986:vgnd1 0.000121901
16 *23:36 *25:13 0.000270195
*RES
1 analog_io[5] *25:5 58.6497 
2 *25:5 *25:7 3.41 
3 *25:7 *25:9 1643.66 
4 *25:9 *25:11 3.41 
5 *25:11 *25:13 60.1866 
6 *25:13 *986:vgnd1 3.93483 
*END

*D_NET *26 0.369659
*CONN
*P analog_io[6] I
*I *986:vgnd_core I *D CF_BUF_HIZ
*CAP
1 analog_io[6] 0.019474
2 *986:vgnd_core 0.000109859
3 *26:13 0.0063507
4 *26:11 0.00624085
5 *26:9 0.0642963
6 *26:7 0.0642963
7 *26:5 0.019474
8 *26:9 *655:61 0
9 *26:9 *655:65 0
10 *26:13 *32:13 0.0386098
11 *26:13 *69:37 0.0169303
12 *26:13 *70:33 0.0386098
13 *986:vpwr_acore *26:9 0
14 *12:9 *26:9 0.0455803
15 *25:9 *26:9 0.0496872
*RES
1 analog_io[6] *26:5 58.7939 
2 *26:5 *26:7 3.41 
3 *26:7 *26:9 1881.66 
4 *26:9 *26:11 3.41 
5 *26:11 *26:13 61.1595 
6 *26:13 *986:vgnd_core 5.29393 
*END

*D_NET *27 0.327354
*CONN
*P analog_io[7] I
*I *987:ch2 I *D CF_REFBUF
*I *987:ch1 I *D CF_REFBUF
*I *987:out O *D CF_REFBUF
*CAP
1 analog_io[7] 0.103703
2 *987:ch2 0.00020133
3 *987:ch1 0.00228509
4 *987:out 6.10318e-05
5 *27:19 0.103703
6 *27:17 0.0572146
7 *27:5 0.0593594
8 *987:ch1 *987:switchon 0.000827422
*RES
1 *987:out *27:5 1.125 
2 *27:5 *987:ch1 44.3125 
3 *27:5 *27:17 1139.88 
4 *27:17 *27:19 3.41 
5 *27:19 analog_io[7] 314.342 
6 *987:ch1 *987:ch2 8.1875 
*END

*D_NET *28 0.344159
*CONN
*P analog_io[8] I
*I *987:ng I *D CF_REFBUF
*I *987:vpwre I *D CF_REFBUF
*CAP
1 analog_io[8] 0.0653355
2 *987:ng 4.32496e-05
3 *987:vpwre 0.00367605
4 *28:27 0.00550692
5 *28:25 0.00546367
6 *28:13 0.0041364
7 *28:9 0.0975613
8 *28:7 0.0971009
9 *28:5 0.0653355
*RES
1 analog_io[8] *28:5 1345.49 
2 *28:5 *28:7 3.41 
3 *28:7 *28:9 294.403 
4 *28:9 *28:13 1.53377 
5 *28:13 *987:vpwre 15.9762 
6 *28:13 *28:25 3.41 
7 *28:25 *28:27 112.446 
8 *28:27 *987:ng 0.883929 
*END

*D_NET *31 0.922513
*CONN
*P io_in[10] I
*I *988:io_in[3] I *D soc_sys
*CAP
1 io_in[10] 0.000233031
2 *988:io_in[3] 0.00258553
3 *31:29 0.017685
4 *31:27 0.015331
5 *31:17 0.0291541
6 *31:15 0.0289226
7 *31:13 0.071131
8 *31:11 0.071131
9 *31:9 0.0203435
10 *31:7 0.0205765
11 *988:io_in[3] *988:io_in[0] 0.000192475
12 *988:io_in[3] *988:io_in[1] 0.00489525
13 *988:io_in[3] *988:io_in[20] 0.000577877
14 *988:io_in[3] *988:io_in[2] 0
15 *988:io_in[3] *988:io_in[4] 0
16 *988:io_in[3] *988:wb_clk_i 4.71193e-06
17 *988:io_in[3] *40:39 0.0031164
18 *988:io_in[3] *42:47 0.00358272
19 *988:io_in[3] *44:41 0.000751601
20 *988:io_in[3] *69:9 0.000415996
21 *988:io_in[3] *111:27 0.000225755
22 *988:io_in[3] *111:29 0.00063183
23 *988:io_in[3] *113:27 0.00490395
24 *988:io_in[3] *540:21 4.22135e-06
25 *31:9 io_out[7] 0.000149758
26 *31:9 *32:9 0.100358
27 *31:9 *33:9 0
28 *31:9 *66:11 0.000388632
29 *31:9 *67:9 0.0829295
30 *31:9 *108:17 0
31 *31:13 *751:13 0.00691095
32 *31:13 *761:13 0.0072998
33 *31:13 *791:21 0.00251218
34 *31:13 *794:45 0.0362341
35 *31:13 *809:13 0.0364381
36 *31:13 *872:21 5.4345e-05
37 *31:17 *33:17 0.0573076
38 *31:17 *69:33 0.0181616
39 *31:17 *889:9 0.00379711
40 *31:17 *898:9 0.00546386
41 *31:17 *917:17 0.00345949
42 *31:17 *951:9 0.000263097
43 *31:17 *959:9 0.00380816
44 *31:27 *989:wbs_dat_i[5] 0.000310498
45 *31:27 *912:9 0
46 *31:27 *951:9 0.000202663
47 *31:27 *960:27 0.000306514
48 *31:29 *40:29 0.000719649
49 *31:29 *69:29 0.117423
50 *31:29 *111:29 0.000472656
51 *31:29 *113:29 0.115981
52 *31:29 *115:25 0
53 *31:29 *540:25 0.00046195
54 *31:29 *541:27 0.0247023
55 *20:11 *31:13 0
*RES
1 io_in[10] *31:7 3.90193 
2 *31:7 *31:9 1253.88 
3 *31:9 *31:11 3.41 
4 *31:11 *31:13 253.83 
5 *31:13 *31:15 3.41 
6 *31:15 *31:17 120.643 
7 *31:17 *31:27 14.5408 
8 *31:27 *31:29 1115.21 
9 *31:29 *988:io_in[3] 48.3048 
*END

*D_NET *32 0.942218
*CONN
*P io_in[11] I
*I *988:io_in[4] I *D soc_sys
*CAP
1 io_in[11] 0.000187956
2 *988:io_in[4] 0.000436341
3 *32:39 0.00182855
4 *32:37 0.0899137
5 *32:17 0.111446
6 *32:15 0.022924
7 *32:13 0.044174
8 *32:11 0.044174
9 *32:9 0.0228483
10 *32:7 0.0230363
11 *988:io_in[4] *988:io_in[5] 0
12 *32:9 *33:9 2.75016e-05
13 *32:9 *66:11 0.000540471
14 *32:9 *66:13 0.00901052
15 *32:9 *69:41 0.10994
16 *32:9 *70:37 0.00544477
17 *32:9 *72:32 0.0101606
18 *32:13 *70:33 0.0462744
19 *32:13 *104:29 0
20 *32:13 *656:65 0.0349487
21 *32:13 *660:18 0.0331353
22 *32:13 *662:23 0.00659057
23 *32:13 *663:31 0.00710674
24 *32:13 *664:31 0.0131811
25 *32:17 *988:sram_dat_i[23] 0.000111243
26 *32:17 *33:17 0.0587442
27 *32:17 *914:17 0.000674085
28 *32:17 *926:21 0.0239374
29 *32:17 *950:13 0
30 *32:37 *988:wbs_adr_i[5] 0.0020184
31 *32:37 *988:wbs_adr_i[7] 0.00207982
32 *32:37 *988:wbs_cyc_i 0.000705857
33 *32:37 *988:wbs_dat_i[0] 0.000815701
34 *32:37 *988:wbs_sel_i[0] 0.000714207
35 *32:37 *989:wbs_adr_i[3] 0.000461868
36 *32:37 *33:29 0.000341961
37 *32:37 *34:35 0.00202055
38 *32:37 *105:44 0.00296946
39 *32:37 *115:15 0.000705421
40 *32:37 *115:17 0.000461868
41 *32:37 *143:13 0.0258269
42 *32:37 *542:15 0.000980645
43 *32:37 *544:17 0.002199
44 *32:37 *559:15 0.0044018
45 *32:37 *581:15 0.00610389
46 *32:37 *589:15 0.00446281
47 *32:37 *633:15 0.00291823
48 *32:37 *634:15 0.00320376
49 *32:37 *882:15 0.00105114
50 *32:37 *884:19 0.00293658
51 *32:37 *885:19 4.47593e-05
52 *32:37 *887:19 0.00168593
53 *32:37 *890:19 0.000350335
54 *32:37 *918:19 0.000376666
55 *32:37 *956:19 0.000163198
56 *32:39 *33:41 0.00610656
57 *32:39 *34:37 0.00624806
58 *32:39 *105:40 0
59 *32:39 *115:9 9.84624e-05
60 *988:io_in[3] *988:io_in[4] 0
61 *26:13 *32:13 0.0386098
62 *31:9 *32:9 0.100358
*RES
1 io_in[11] *32:7 3.82987 
2 *32:7 *32:9 1467.59 
3 *32:9 *32:11 3.41 
4 *32:11 *32:13 253.614 
5 *32:13 *32:15 3.41 
6 *32:15 *32:17 126.396 
7 *32:17 *32:37 42.6123 
8 *32:37 *32:39 79.6607 
9 *32:39 *988:io_in[4] 4.26853 
*END

*D_NET *33 1.19101
*CONN
*P io_in[12] I
*I *988:io_in[5] I *D soc_sys
*CAP
1 io_in[12] 8.23128e-05
2 *988:io_in[5] 0.000463312
3 *33:41 0.00181949
4 *33:39 0.00135618
5 *33:37 0.0228102
6 *33:35 0.0228245
7 *33:29 0.00210112
8 *33:17 0.0165552
9 *33:15 0.0144683
10 *33:13 0.0245283
11 *33:11 0.0245283
12 *33:9 0.0244473
13 *33:7 0.0245296
14 *988:io_in[5] *988:io_in[6] 3.17287e-05
15 *33:9 *34:13 0.00566662
16 *33:9 *66:11 0.000558257
17 *33:9 *66:13 0.0137737
18 *33:9 *69:41 4.22135e-06
19 *33:9 *70:37 0.129291
20 *33:9 *72:32 0.0174724
21 *33:9 *108:17 0.125425
22 *33:13 *35:13 0.161119
23 *33:13 *66:17 0.162573
24 *33:13 *104:29 0
25 *33:13 *734:13 0.00660942
26 *33:13 *739:13 0.00712707
27 *33:13 *791:21 0.00251218
28 *33:17 *948:9 0.00138447
29 *33:17 *953:9 0.00297108
30 *33:29 *989:wbs_dat_i[6] 0.000354234
31 *33:29 *35:29 0
32 *33:29 *37:35 0
33 *33:29 *115:25 0
34 *33:29 *890:19 0.000182432
35 *33:29 *893:13 0
36 *33:29 *948:19 0.000205322
37 *33:29 *951:25 0.000206816
38 *33:35 *933:21 2.11419e-05
39 *33:37 *37:37 0.121231
40 *33:37 *38:33 0.122112
41 *33:37 *66:25 3.5232e-05
42 *33:37 *118:13 7.81766e-05
43 *33:37 *884:19 0.000466973
44 *33:41 *34:37 0.000154447
45 *33:41 *115:9 0.00640037
46 *988:io_in[4] *988:io_in[5] 0
47 *31:9 *33:9 0
48 *31:17 *33:17 0.0573076
49 *32:9 *33:9 2.75016e-05
50 *32:17 *33:17 0.0587442
51 *32:37 *33:29 0.000341961
52 *32:39 *33:41 0.00610656
*RES
1 io_in[12] *33:7 3.61367 
2 *33:7 *33:9 1715.3 
3 *33:9 *33:11 3.41 
4 *33:11 *33:13 253.974 
5 *33:13 *33:15 3.41 
6 *33:15 *33:17 123.945 
7 *33:17 *33:29 47.595 
8 *33:29 *33:35 8.18679 
9 *33:35 *33:37 195.276 
10 *33:37 *33:39 3.41 
11 *33:39 *33:41 80.2679 
12 *33:41 *988:io_in[5] 4.3406 
*END

*D_NET *34 0.918918
*CONN
*P io_in[13] I
*I *988:io_in[6] I *D soc_sys
*CAP
1 io_in[13] 0.000510832
2 *988:io_in[6] 0.000598287
3 *34:37 0.00208504
4 *34:35 0.00359471
5 *34:25 0.0195876
6 *34:23 0.0174797
7 *34:21 0.018471
8 *34:19 0.018471
9 *34:17 0.0693488
10 *34:15 0.0693488
11 *34:13 0.0651083
12 *34:11 0.0656192
13 *988:io_in[6] *988:io_in[7] 0
14 *34:11 *72:32 0.000158116
15 *34:13 *66:11 0.000577255
16 *34:13 *66:13 0.0133962
17 *34:13 *72:32 0.0242862
18 *34:13 *105:56 0.0916136
19 *34:13 *108:17 0.0189657
20 *34:17 *38:17 0.00273273
21 *34:17 *66:17 0.0698281
22 *34:17 *734:13 0.0333226
23 *34:17 *746:13 0.000472484
24 *34:21 *35:17 0.00837574
25 *34:21 *37:25 0.0571688
26 *34:21 *887:9 0.0189414
27 *34:25 *35:29 0.058353
28 *34:25 *36:25 0.00363133
29 *34:25 *36:29 0.102078
30 *34:25 *37:35 0.00315705
31 *34:25 *38:31 0.000995686
32 *34:25 *38:33 0.000228937
33 *34:25 *39:17 0.0227226
34 *34:25 *40:29 0
35 *34:25 *890:19 0.000122127
36 *34:35 *115:15 0.00243178
37 *34:35 *115:17 0.00426811
38 *34:35 *118:13 0.0100309
39 *34:35 *568:11 9.75109e-05
40 *34:37 *35:33 0.00645517
41 *34:37 *37:41 9.41935e-05
42 *34:37 *115:9 6.77008e-05
43 *988:io_in[5] *988:io_in[6] 3.17287e-05
44 *32:37 *34:35 0.00202055
45 *32:39 *34:37 0.00624806
46 *33:9 *34:13 0.00566662
47 *33:41 *34:37 0.000154447
*RES
1 io_in[13] *34:11 13.1838 
2 *34:11 *34:13 1943.79 
3 *34:13 *34:15 4.5 
4 *34:15 *34:17 1462.68 
5 *34:17 *34:19 4.5 
6 *34:19 *34:21 706.232 
7 *34:21 *34:23 4.5 
8 *34:23 *34:25 1044.16 
9 *34:25 *34:35 31.3007 
10 *34:35 *34:37 84.5179 
11 *34:37 *988:io_in[6] 4.51607 
*END

*D_NET *35 1.16817
*CONN
*P io_in[14] I
*I *988:io_in[7] I *D soc_sys
*CAP
1 io_in[14] 0.000858005
2 *988:io_in[7] 0.000347975
3 *35:33 0.0018798
4 *35:31 0.00153183
5 *35:29 0.0402939
6 *35:27 0.0404747
7 *35:17 0.0359232
8 *35:15 0.0357424
9 *35:13 0.0263359
10 *35:11 0.0263359
11 *35:9 0.0438284
12 *35:7 0.0446865
13 *988:io_in[7] *988:io_in[8] 0
14 *35:9 *107:37 0.0108886
15 *35:9 *110:26 0.0240446
16 *35:9 *111:41 0.178641
17 *35:9 *143:25 0.0866924
18 *35:13 *36:9 0.151968
19 *35:13 *66:17 0.000744492
20 *35:13 *104:29 0
21 *35:13 *734:13 0.000257349
22 *35:13 *739:13 0.000238658
23 *35:13 *746:13 0.0068827
24 *35:13 *747:13 0.00742175
25 *35:13 *791:21 0.00251218
26 *35:13 *816:13 4.31981e-05
27 *35:17 *36:13 0.0587332
28 *35:17 *37:25 0.00834263
29 *35:17 *40:25 0.00873007
30 *35:17 *70:29 0.00974697
31 *35:17 *111:33 0.0105444
32 *35:17 *883:15 0
33 *35:17 *887:9 0.00180272
34 *35:17 *924:13 0.00360254
35 *35:17 *944:21 0.00254651
36 *35:27 *36:23 0.000535075
37 *35:27 *890:19 0.00054068
38 *35:27 *949:9 4.19624e-06
39 *35:29 *36:29 0.0033615
40 *35:29 *37:35 0.00286669
41 *35:29 *39:17 0.0468469
42 *35:29 *890:19 0.000254013
43 *35:33 *37:41 0.00684103
44 *988:io_in[6] *988:io_in[7] 0
45 *33:13 *35:13 0.161119
46 *33:29 *35:29 0
47 *34:21 *35:17 0.00837574
48 *34:25 *35:29 0.058353
49 *34:37 *35:33 0.00645517
*RES
1 io_in[14] *35:7 5.9198 
2 *35:7 *35:9 2189.48 
3 *35:9 *35:11 3.41 
4 *35:11 *35:13 253.83 
5 *35:13 *35:15 3.41 
6 *35:15 *35:17 124.158 
7 *35:17 *35:27 12.4726 
8 *35:27 *35:29 1130.41 
9 *35:29 *35:31 4.5 
10 *35:31 *35:33 85.8839 
11 *35:33 *988:io_in[7] 4.1244 
*END

*D_NET *36 0.873194
*CONN
*P io_in[15] I
*I *988:io_in[8] I *D soc_sys
*CAP
1 io_in[15] 0.113494
2 *988:io_in[8] 0.00010682
3 *36:33 0.00299758
4 *36:31 0.00289076
5 *36:29 0.034357
6 *36:27 0.0343795
7 *36:25 0.00290649
8 *36:23 0.00311138
9 *36:13 0.0281703
10 *36:11 0.0279429
11 *36:9 0.0449603
12 *36:7 0.0449603
13 *36:5 0.113494
14 *988:io_in[8] *988:io_in[9] 0
15 *36:9 *37:21 0.012706
16 *36:9 *38:17 0.0116951
17 *36:9 *104:29 0
18 *36:9 *741:13 0.000618271
19 *36:9 *791:21 0.00251218
20 *36:9 *816:13 0.0343337
21 *36:13 *961:13 0.00361361
22 *36:23 *989:wbs_dat_i[6] 0.000610727
23 *36:23 *890:19 4.20573e-05
24 *36:23 *949:9 1.10422e-05
25 *36:25 *989:wbs_dat_i[6] 0.000141343
26 *36:25 *38:31 0.000993981
27 *36:25 *40:29 0
28 *36:25 *66:25 0.00102783
29 *36:29 *40:29 0
30 *36:29 *42:29 0
31 *36:29 *43:25 0
32 *36:29 *44:25 0
33 *36:29 *66:25 0.0225013
34 *36:29 *113:29 0
35 *36:29 *541:25 0
36 *36:29 *608:27 0.000338473
37 *36:33 *988:io_in[20] 0.000802614
38 *36:33 *39:21 0.00716755
39 *988:io_in[7] *988:io_in[8] 0
40 *34:25 *36:25 0.00363133
41 *34:25 *36:29 0.102078
42 *35:13 *36:9 0.151968
43 *35:17 *36:13 0.0587332
44 *35:27 *36:23 0.000535075
45 *35:29 *36:29 0.0033615
*RES
1 io_in[15] *36:5 2335.74 
2 *36:5 *36:7 3.41 
3 *36:7 *36:9 237.471 
4 *36:9 *36:11 3.41 
5 *36:11 *36:13 124.158 
6 *36:13 *36:23 12.9203 
7 *36:23 *36:25 74.2589 
8 *36:25 *36:27 0.428571 
9 *36:27 *36:29 1053.81 
10 *36:29 *36:31 4.5 
11 *36:31 *36:33 88.6161 
12 *36:33 *988:io_in[8] 3.692 
*END

*D_NET *37 0.965684
*CONN
*P io_in[16] I
*I *988:io_in[9] I *D soc_sys
*CAP
1 io_in[16] 0.00122574
2 *988:io_in[9] 0.00030201
3 *37:41 0.00207024
4 *37:39 0.00176823
5 *37:37 0.0257834
6 *37:35 0.0265212
7 *37:25 0.010849
8 *37:23 0.0101112
9 *37:21 0.0116972
10 *37:19 0.0116972
11 *37:17 0.0712655
12 *37:15 0.0712655
13 *37:13 0.0169304
14 *37:11 0.0181562
15 *988:io_in[9] *988:io_in[10] 0
16 *37:13 io_out[16] 0.00209658
17 *37:13 io_out[17] 0.00327635
18 *37:13 *38:9 0.000351253
19 *37:13 *113:45 0.0422725
20 *37:17 *38:13 0.190511
21 *37:21 *38:17 0.0588269
22 *37:21 *777:13 0.0352233
23 *37:25 *40:25 2.0653e-05
24 *37:25 *70:29 0.0562987
25 *37:25 *111:33 0.000362179
26 *37:25 *887:9 8.44271e-06
27 *37:25 *924:13 0
28 *37:35 *890:19 0.00013886
29 *37:35 *911:15 0.000205446
30 *37:35 *955:9 0.00020697
31 *37:37 *115:17 0.0166845
32 *37:37 *118:13 0.0554094
33 *37:37 *581:15 0.0016662
34 *37:37 *882:15 0.000468349
35 *37:37 *884:19 0.00209814
36 *37:41 *38:37 0.00750803
37 *988:io_in[8] *988:io_in[9] 0
38 *33:29 *37:35 0
39 *33:37 *37:37 0.121231
40 *34:21 *37:25 0.0571688
41 *34:25 *37:35 0.00315705
42 *34:37 *37:41 9.41935e-05
43 *35:17 *37:25 0.00834263
44 *35:29 *37:35 0.00286669
45 *35:33 *37:41 0.00684103
46 *36:9 *37:21 0.012706
*RES
1 io_in[16] *37:11 27.8482 
2 *37:11 *37:13 489.902 
3 *37:13 *37:15 4.5 
4 *37:15 *37:17 2335.5 
5 *37:17 *37:19 4.5 
6 *37:19 *37:21 554.179 
7 *37:21 *37:23 4.5 
8 *37:23 *37:25 708.357 
9 *37:25 *37:35 46.0439 
10 *37:35 *37:37 193.474 
11 *37:37 *37:39 3.41 
12 *37:39 *37:41 95.4464 
13 *37:41 *988:io_in[9] 4.05233 
*END

*D_NET *38 0.91414
*CONN
*P io_in[17] I
*I *988:io_in[10] I *D soc_sys
*CAP
1 io_in[17] 3.63311e-05
2 *988:io_in[10] 0.00025598
3 *38:37 0.00201897
4 *38:35 0.00176298
5 *38:33 0.0281807
6 *38:31 0.0284666
7 *38:21 0.0108537
8 *38:19 0.0105677
9 *38:17 0.0108349
10 *38:15 0.0108349
11 *38:13 0.0712532
12 *38:11 0.0712532
13 *38:9 0.00719876
14 *38:7 0.00723509
15 *988:io_in[10] *988:io_in[11] 0
16 *38:9 io_out[17] 0.00525384
17 *38:9 *113:45 0.0229222
18 *38:17 *746:13 0.000775265
19 *38:17 *747:13 0.0344597
20 *38:17 *777:13 0.000722278
21 *38:17 *816:13 0.000294685
22 *38:21 *39:13 0.0570277
23 *38:21 *66:21 0.0089242
24 *38:21 *113:33 0.0550301
25 *38:21 *900:9 7.12256e-05
26 *38:31 *890:9 0.000107024
27 *38:31 *933:21 2.41874e-05
28 *38:33 *39:17 0.064131
29 *38:33 *66:25 3.89139e-05
30 *38:33 *627:23 5.0145e-05
31 *38:33 *884:19 1.53359e-05
32 *38:33 *890:19 7.55918e-05
33 *38:37 *39:21 8.51706e-05
34 *38:37 *40:41 0.00742237
35 *988:io_in[9] *988:io_in[10] 0
36 *33:37 *38:33 0.122112
37 *34:17 *38:17 0.00273273
38 *34:25 *38:31 0.000995686
39 *34:25 *38:33 0.000228937
40 *36:9 *38:17 0.0116951
41 *36:25 *38:31 0.000993981
42 *37:13 *38:9 0.000351253
43 *37:17 *38:13 0.190511
44 *37:21 *38:17 0.0588269
45 *37:41 *38:37 0.00750803
*RES
1 io_in[17] *38:7 5.01786 
2 *38:7 *38:9 221.5 
3 *38:9 *38:11 4.5 
4 *38:11 *38:13 2335.2 
5 *38:13 *38:15 4.5 
6 *38:15 *38:17 566.911 
7 *38:17 *38:19 4.5 
8 *38:19 *38:21 707.446 
9 *38:21 *38:31 24.0796 
10 *38:31 *38:33 194.987 
11 *38:33 *38:35 3.41 
12 *38:35 *38:37 97.875 
13 *38:37 *988:io_in[10] 3.98027 
*END

*D_NET *39 0.785115
*CONN
*P io_in[18] I
*I *988:io_in[11] I *D soc_sys
*CAP
1 io_in[18] 0.113666
2 *988:io_in[11] 0.000131805
3 *39:21 0.00227528
4 *39:19 0.00214348
5 *39:17 0.0292904
6 *39:15 0.0292904
7 *39:13 0.0203441
8 *39:11 0.0203441
9 *39:9 0.0152105
10 *39:7 0.0152105
11 *39:5 0.113666
12 *988:io_in[11] *988:io_in[12] 0
13 *39:9 *66:17 0.0558275
14 *39:9 *791:21 0.00251218
15 *39:9 *797:13 0
16 *39:9 *807:13 0.00963978
17 *39:9 *814:13 0.000458938
18 *39:13 *66:21 0.0174296
19 *39:13 *900:9 0
20 *39:13 *909:9 0.0109512
21 *39:17 *989:wbs_dat_i[6] 3.39094e-05
22 *39:17 *66:25 0.122947
23 *39:17 *627:23 4.73953e-05
24 *39:17 *890:19 0.00106359
25 *39:21 *988:io_in[20] 0.00057713
26 *39:21 *40:41 0.00407337
27 *988:io_in[10] *988:io_in[11] 0
28 *34:25 *39:17 0.0227226
29 *35:29 *39:17 0.0468469
30 *36:33 *39:21 0.00716755
31 *38:21 *39:13 0.0570277
32 *38:33 *39:17 0.064131
33 *38:37 *39:21 8.51706e-05
*RES
1 io_in[18] *39:5 2338.17 
2 *39:5 *39:7 3.41 
3 *39:7 *39:9 87.608 
4 *39:9 *39:11 3.41 
5 *39:11 *39:13 705.625 
6 *39:13 *39:15 3.41 
7 *39:15 *39:17 196.357 
8 *39:17 *39:19 3.41 
9 *39:19 *39:21 100.304 
10 *39:21 *988:io_in[11] 3.76407 
*END

*D_NET *40 0.780994
*CONN
*P io_in[19] I
*I *988:io_in[12] I *D soc_sys
*CAP
1 io_in[19] 0.00807719
2 *988:io_in[12] 0.000198024
3 *40:41 0.00238285
4 *40:39 0.00300088
5 *40:29 0.027821
6 *40:27 0.0270049
7 *40:25 0.0164043
8 *40:23 0.0164043
9 *40:21 0.0134855
10 *40:19 0.0134855
11 *40:17 0.118397
12 *40:15 0.126474
13 *988:io_in[12] *988:io_in[13] 0
14 *40:17 *984:RESET1 0.00153964
15 *40:17 *764:25 0.00312
16 *40:17 *765:17 0.00310861
17 *40:17 *766:25 0.00491211
18 *40:17 *767:17 0.00321492
19 *40:17 *768:17 0.00462411
20 *40:17 *775:17 0.00314658
21 *40:17 *781:17 1.49122e-05
22 *40:17 *790:41 0.0283299
23 *40:17 *794:59 0.000358471
24 *40:17 *797:17 0.0244884
25 *40:21 *766:21 0.0374004
26 *40:21 *815:13 0
27 *40:25 *111:33 0.0548589
28 *40:25 *924:13 0.0225538
29 *40:25 *961:13 3.38439e-05
30 *40:29 *989:wbs_dat_i[2] 0.000101601
31 *40:29 *42:29 0.000543716
32 *40:29 *43:25 0.0464385
33 *40:29 *44:39 0.000335312
34 *40:29 *113:29 0.114858
35 *40:29 *541:25 0.000128204
36 *40:29 *541:27 0.00806702
37 *40:29 *631:13 0.0109827
38 *40:29 *638:15 0.00442856
39 *40:39 *988:io_in[20] 0.000609647
40 *40:39 *988:wb_rst_i 9.59532e-06
41 *40:39 *42:47 2.959e-05
42 *40:39 *44:39 0.00335851
43 *40:39 *111:27 0.000908091
44 *40:39 *113:29 0.000160191
45 *40:39 *540:25 0.00111188
46 *988:io_in[11] *988:io_in[12] 0
47 *988:io_in[3] *40:39 0.0031164
48 *31:29 *40:29 0.000719649
49 *34:25 *40:29 0
50 *35:17 *40:25 0.00873007
51 *36:25 *40:29 0
52 *36:29 *40:29 0
53 *37:25 *40:25 2.0653e-05
54 *38:37 *40:41 0.00742237
55 *39:21 *40:41 0.00407337
*RES
1 io_in[19] *40:15 33.3215 
2 *40:15 *40:17 414.675 
3 *40:17 *40:19 3.41 
4 *40:19 *40:21 58.6012 
5 *40:21 *40:23 3.41 
6 *40:23 *40:25 677.241 
7 *40:25 *40:27 4.5 
8 *40:27 *40:29 1095.5 
9 *40:29 *40:39 18.346 
10 *40:39 *40:41 100.304 
11 *40:41 *988:io_in[12] 3.9082 
*END

*D_NET *42 0.623727
*CONN
*P io_in[20] I
*I *988:io_in[13] I *D soc_sys
*CAP
1 io_in[20] 9.3395e-05
2 *988:io_in[13] 0.000918507
3 *42:49 0.00254129
4 *42:47 0.00354849
5 *42:29 0.00779849
6 *42:27 0.00612492
7 *42:17 0.1698
8 *42:15 0.169548
9 *42:13 0.0236245
10 *42:11 0.0237179
11 *988:io_in[13] *988:io_in[14] 0
12 *42:13 *81:28 0.0144743
13 *42:13 *118:21 0.0232186
14 *42:17 *867:17 0.0271723
15 *42:17 *871:17 0.0225645
16 *42:17 *876:11 0.000577119
17 *42:17 *876:13 0.00458475
18 *42:27 *541:27 0.000605663
19 *42:27 *579:15 4.19624e-06
20 *42:27 *626:13 0.000317683
21 *42:29 *988:wbs_adr_i[3] 0.00261989
22 *42:29 *988:wbs_stb_i 0.000213386
23 *42:29 *43:25 0.0444859
24 *42:29 *44:25 0.0429135
25 *42:29 *541:25 0.00152036
26 *42:29 *541:27 0.00180526
27 *42:29 *638:15 0.00248774
28 *42:29 *639:15 0.00200001
29 *42:47 *988:io_in[20] 0.00064946
30 *42:47 *988:wbs_stb_i 0.000592683
31 *42:47 *43:35 0.000598559
32 *42:47 *46:29 0
33 *42:47 *69:27 0.00261272
34 *42:47 *111:27 4.43356e-05
35 *42:47 *540:25 0.000909633
36 *42:47 *608:27 4.01462e-06
37 *42:49 *45:29 2.82057e-05
38 *42:49 *46:33 0.00788331
39 *42:49 *111:9 0.00060565
40 *42:49 *118:9 0.00436676
41 *42:49 *136:9 0.00199521
42 *42:49 *143:9 0
43 *988:io_in[12] *988:io_in[13] 0
44 *988:io_in[3] *42:47 0.00358272
45 *36:29 *42:29 0
46 *40:29 *42:29 0.000543716
47 *40:39 *42:47 2.959e-05
*RES
1 io_in[20] *42:11 5.75821 
2 *42:11 *42:13 98.8864 
3 *42:13 *42:15 3.41 
4 *42:15 *42:17 533.566 
5 *42:17 *42:27 12.5446 
6 *42:27 *42:29 428.5 
7 *42:29 *42:47 28.7212 
8 *42:47 *42:49 102.732 
9 *42:49 *988:io_in[13] 5.34953 
*END

*D_NET *43 0.559578
*CONN
*P io_in[21] I
*I *988:io_in[14] I *D soc_sys
*CAP
1 io_in[21] 0.000109286
2 *988:io_in[14] 0.000668303
3 *43:37 0.00220542
4 *43:35 0.0032284
5 *43:25 0.00776974
6 *43:23 0.00628651
7 *43:13 0.180416
8 *43:11 0.189824
9 *43:7 0.00972503
10 *988:io_in[14] *988:io_in[15] 0
11 *43:11 *81:28 0.000531441
12 *43:11 *118:21 0.0277857
13 *43:23 *541:27 0.000655437
14 *43:23 *626:13 0.000342155
15 *43:25 *541:27 0.00544337
16 *43:25 *638:15 0.00409912
17 *43:35 *988:wbs_stb_i 0.00127069
18 *43:35 *66:25 0.006003
19 *43:35 *69:27 5.27153e-05
20 *43:35 *113:27 0.00211134
21 *43:35 *587:11 4.29626e-05
22 *43:35 *608:27 0.00107392
23 *43:37 *44:41 0.00885656
24 *43:37 *105:40 0.00648299
25 *43:37 *112:9 0.00137974
26 *43:37 *113:27 0.00169083
27 *43:37 *115:9 0
28 *988:io_in[13] *988:io_in[14] 0
29 *36:29 *43:25 0
30 *40:29 *43:25 0.0464385
31 *42:29 *43:25 0.0444859
32 *42:47 *43:35 0.000598559
*RES
1 io_in[21] *43:7 5.29393 
2 *43:7 *43:11 48.3185 
3 *43:11 *43:13 533.246 
4 *43:13 *43:23 12.6167 
5 *43:23 *43:25 437.536 
6 *43:25 *43:35 23.3383 
7 *43:35 *43:37 110.018 
8 *43:37 *988:io_in[14] 4.84507 
*END

*D_NET *44 0.461586
*CONN
*P io_in[22] I
*I *988:io_in[15] I *D soc_sys
*CAP
1 io_in[22] 0.000320242
2 *988:io_in[15] 0.000625878
3 *44:41 0.00247875
4 *44:39 0.00354187
5 *44:25 0.0148319
6 *44:23 0.0132304
7 *44:13 0.168277
8 *44:11 0.16851
9 *988:io_in[15] *988:io_in[16] 0
10 *988:io_in[15] *105:36 6.27662e-06
11 *44:11 *81:28 0.000195002
12 *44:13 *874:9 0.00716972
13 *44:23 *988:wbs_adr_i[12] 2.04122e-05
14 *44:23 *541:27 9.32361e-05
15 *44:23 *624:13 3.30056e-05
16 *44:25 *988:wbs_adr_i[3] 0.00242182
17 *44:25 *988:wbs_stb_i 0.000197888
18 *44:25 *541:27 0.0015693
19 *44:25 *638:15 0.00268258
20 *44:25 *639:15 0.00184696
21 *44:39 *988:io_in[20] 0.000889793
22 *44:39 *988:wbs_cyc_i 4.15526e-05
23 *44:39 *988:wbs_dat_i[1] 9.55853e-05
24 *44:39 *988:wbs_stb_i 0.00486271
25 *44:39 *111:27 0.001392
26 *44:39 *113:27 0.00170087
27 *44:39 *113:29 0.000299497
28 *44:39 *540:25 0.00100651
29 *44:39 *541:27 0.000162047
30 *44:39 *619:23 5.11642e-05
31 *44:41 *69:9 0.00206966
32 *44:41 *105:36 0.00277252
33 *44:41 *112:9 0.000107036
34 *44:41 *113:27 0.00186666
35 *44:41 *115:9 0
36 *988:io_in[14] *988:io_in[15] 0
37 *988:io_in[3] *44:41 0.000751601
38 *36:29 *44:25 0
39 *40:29 *44:39 0.000335312
40 *40:39 *44:39 0.00335851
41 *42:29 *44:25 0.0429135
42 *43:37 *44:41 0.00885656
*RES
1 io_in[22] *44:11 10.1148 
2 *44:11 *44:13 533.14 
3 *44:13 *44:23 12.0555 
4 *44:23 *44:25 406.732 
5 *44:25 *44:39 23.03 
6 *44:39 *44:41 112.446 
7 *44:41 *988:io_in[15] 4.773 
*END

*D_NET *45 0.578842
*CONN
*P io_in[23] I
*I *988:io_in[16] I *D soc_sys
*CAP
1 io_in[23] 0.00158835
2 *988:io_in[16] 0.000762555
3 *45:29 0.00240899
4 *45:27 0.0101838
5 *45:21 0.121425
6 *45:19 0.117579
7 *45:13 0.0506195
8 *45:11 0.0475169
9 *988:io_in[16] *988:io_in[17] 0
10 *988:io_in[16] *105:36 0.000285638
11 *45:11 io_out[23] 0.00256055
12 *45:11 *82:30 0.010735
13 *45:11 *120:41 0.000511229
14 *45:11 *120:43 0.00726539
15 *45:13 *71:27 0.0202429
16 *45:13 *121:22 0.122144
17 *45:13 *670:13 0
18 *45:13 *670:15 0.000298561
19 *45:19 *107:33 0
20 *45:19 *109:18 0
21 *45:19 *110:22 0
22 *45:19 *655:16 0.000377089
23 *45:19 *656:19 0.0154277
24 *45:19 *670:19 0.00673407
25 *45:21 *141:14 0
26 *45:27 *988:wbs_dat_i[1] 0
27 *45:27 *46:29 0.0245533
28 *45:27 *69:27 0
29 *45:27 *540:25 0
30 *45:27 *619:23 0
31 *45:29 *46:33 0.00876823
32 *45:29 *98:21 0.00187204
33 *45:29 *105:24 5.79809e-05
34 *45:29 *143:9 0.00489724
35 *985:dft_curr_in *45:13 0
36 *988:io_in[15] *988:io_in[16] 0
37 *42:49 *45:29 2.82057e-05
*RES
1 io_in[23] *45:11 25.3983 
2 *45:11 *45:13 1504.62 
3 *45:13 *45:19 30.7571 
4 *45:19 *45:21 267.978 
5 *45:21 *45:27 45.2425 
6 *45:27 *45:29 108.196 
7 *45:29 *988:io_in[16] 5.2054 
*END

*D_NET *46 0.667684
*CONN
*P io_in[24] I
*I *988:io_in[17] I *D soc_sys
*CAP
1 io_in[24] 0.000133909
2 *988:io_in[17] 0.000849342
3 *46:33 0.00230395
4 *46:31 0.00145461
5 *46:29 0.00517154
6 *46:25 0.0303568
7 *46:23 0.0251853
8 *46:21 0.0112431
9 *46:17 0.0311395
10 *46:15 0.0202378
11 *46:9 0.0330433
12 *46:7 0.0328358
13 *46:9 io_oeb[27] 0.000322558
14 *46:9 io_out[25] 0.000322558
15 *46:9 io_out[26] 0.000322558
16 *46:9 io_out[29] 0.000322558
17 *46:9 *50:9 0.000322558
18 *46:9 *122:17 0.121843
19 *46:9 *123:21 0.102188
20 *46:17 *50:11 0.00970431
21 *46:17 *55:15 0.00583568
22 *46:17 *122:9 0.0649935
23 *46:17 *123:13 0.0604851
24 *46:17 *132:29 0.00604504
25 *46:21 *65:13 0.0271797
26 *46:21 *67:13 1.75318e-05
27 *46:25 *821:17 0.000281588
28 *46:29 *114:13 0.0287546
29 *46:33 *98:21 0.00210901
30 *46:33 *105:24 0.000165707
31 *46:33 *111:9 0.000664365
32 analog_io[20] *46:9 0.000322558
33 analog_io[22] *46:9 0.000322558
34 *988:io_in[16] *988:io_in[17] 0
35 *42:47 *46:29 0
36 *42:49 *46:33 0.00788331
37 *45:27 *46:29 0.0245533
38 *45:29 *46:33 0.00876823
*RES
1 io_in[24] *46:7 3.85963 
2 *46:7 *46:9 264.356 
3 *46:9 *46:15 7.6237 
4 *46:15 *46:17 981.268 
5 *46:17 *46:21 47.9582 
6 *46:21 *46:23 3.41 
7 *46:23 *46:25 80.1601 
8 *46:25 *46:29 48.3906 
9 *46:29 *46:31 3.41 
10 *46:31 *46:33 111.232 
11 *46:33 *988:io_in[17] 5.27747 
*END

*D_NET *47 0.416684
*CONN
*P io_in[25] I
*I *988:io_in[18] I *D soc_sys
*CAP
1 io_in[25] 0.00482829
2 *988:io_in[18] 0.00812438
3 *47:23 0.0320058
4 *47:21 0.0251888
5 *47:15 0.120829
6 *47:13 0.12435
7 *988:io_in[18] *988:io_in[20] 0.000123163
8 *47:15 *82:24 0
9 *47:15 *86:26 0.0868526
10 *47:15 *120:35 0.00808376
11 *47:21 *108:13 0.000640963
12 *47:21 *671:15 9.74811e-05
13 *47:21 *693:13 0.00154334
14 *47:21 *715:31 0.000132815
15 *47:21 *844:15 0.000546446
16 *47:23 *72:24 0.00333706
*RES
1 io_in[25] *47:13 17.3361 
2 *47:13 *47:15 397.949 
3 *47:15 *47:21 12.6323 
4 *47:21 *47:23 58.6403 
5 *47:23 *988:io_in[18] 6.78625 
*END

*D_NET *48 0.485168
*CONN
*P io_in[26] I
*I *988:io_in[19] I *D soc_sys
*CAP
1 io_in[26] 0.00546728
2 *988:io_in[19] 0.000154108
3 *48:53 0.00296948
4 *48:51 0.00281537
5 *48:49 0.0173128
6 *48:15 0.0558811
7 *48:13 0.0440356
8 *48:15 *49:15 0.152197
9 *48:15 *71:27 0.00233462
10 *48:15 *82:24 0.171972
11 *48:49 io_out[35] 5.17998e-06
12 *48:49 io_out[36] 0
13 *48:49 *988:io_in[26] 0.000137543
14 *48:49 *49:21 0.000935126
15 *48:49 *51:17 1.41876e-05
16 *48:49 *71:27 0.00141217
17 *48:49 *72:24 0.00204985
18 *48:49 *76:23 0.000316739
19 *48:49 *82:24 0.000994666
20 *48:49 *103:12 0.00227275
21 *48:49 *105:22 0.000129529
22 *48:49 *116:33 0.000350589
23 *48:49 *133:15 1.98951e-05
24 *48:53 *50:19 0.0109863
25 *48:53 *53:19 0.0104039
*RES
1 io_in[26] *48:13 18.2009 
2 *48:13 *48:15 359.171 
3 *48:15 *48:49 49.8199 
4 *48:49 *48:51 3.41 
5 *48:51 *48:53 144.929 
6 *48:53 *988:io_in[19] 3.85807 
*END

*D_NET *49 0.459642
*CONN
*P io_in[27] I
*I *988:io_in[20] I *D soc_sys
*CAP
1 io_in[27] 0.00531626
2 *988:io_in[20] 0.0241357
3 *49:23 0.048489
4 *49:21 0.0306485
5 *49:15 0.0476059
6 *49:13 0.046627
7 *988:io_in[20] *988:wbs_dat_i[1] 0.0012081
8 *988:io_in[20] *69:27 0.000632483
9 *988:io_in[20] *111:27 0.000174332
10 *988:io_in[20] *540:25 0.000891765
11 *988:io_in[20] *541:27 0.00334669
12 *988:io_in[20] *619:23 0.00198345
13 *988:io_in[20] *638:15 0.000413686
14 *49:15 *71:27 0.0566346
15 *49:15 *121:22 0.0234815
16 *49:15 *656:15 0.00307455
17 *49:15 *670:15 0.00128273
18 *49:21 *51:17 0.00633397
19 *49:21 *770:15 0
20 *988:io_in[18] *988:io_in[20] 0.000123163
21 *988:io_in[3] *988:io_in[20] 0.000577877
22 *36:33 *988:io_in[20] 0.000802614
23 *39:21 *988:io_in[20] 0.00057713
24 *40:39 *988:io_in[20] 0.000609647
25 *42:47 *988:io_in[20] 0.00064946
26 *44:39 *988:io_in[20] 0.000889793
27 *48:15 *49:15 0.152197
28 *48:49 *49:21 0.000935126
*RES
1 io_in[27] *49:13 18.345 
2 *49:13 *49:15 317.942 
3 *49:15 *49:21 28.9194 
4 *49:21 *49:23 77.8163 
5 *49:23 *988:io_in[20] 31.4616 
*END

*D_NET *50 0.338218
*CONN
*P io_in[28] I
*I *988:io_in[21] I *D soc_sys
*CAP
1 io_in[28] 0.00052762
2 *988:io_in[21] 0.000114488
3 *50:19 0.0163798
4 *50:17 0.0167701
5 *50:11 0.0322022
6 *50:9 0.0322251
7 *50:11 *53:11 0.0394684
8 *50:11 *55:13 0.000111282
9 *50:11 *122:9 0.00309744
10 *50:11 *124:17 0.0237496
11 *50:11 *130:25 0.00786036
12 *50:19 io_out[35] 2.00751e-05
13 *50:19 *988:io_in[26] 0.000364647
14 *50:19 *53:19 0.00145926
15 *50:19 *54:11 0.00823318
16 *50:19 *56:35 0.00490666
17 *50:19 *71:25 0.00197264
18 *50:19 *78:9 0.0620677
19 *50:19 *80:9 0.0607782
20 *50:19 *116:33 0.00195464
21 *50:19 *129:19 0.00294153
22 *46:9 *50:9 0.000322558
23 *46:17 *50:11 0.00970431
24 *48:53 *50:19 0.0109863
*RES
1 io_in[28] *50:9 4.77143 
2 *50:9 *50:11 163.576 
3 *50:11 *50:17 7.8399 
4 *50:17 *50:19 955.161 
5 *50:19 *988:io_in[21] 3.76407 
*END

*D_NET *51 0.298447
*CONN
*P io_in[29] I
*I *988:io_in[22] I *D soc_sys
*CAP
1 io_in[29] 0.00414497
2 *988:io_in[22] 0.00939352
3 *51:19 0.0252485
4 *51:17 0.0194368
5 *51:11 0.0334084
6 *51:9 0.0339716
7 *51:11 *73:37 0.113
8 *51:11 *88:12 0.0379256
9 *51:11 *800:19 0.0111186
10 *51:17 *770:15 0.000389362
11 *51:19 *75:14 0.004061
12 *51:19 *121:14 0
13 *51:19 *129:29 0
14 *48:49 *51:17 1.41876e-05
15 *49:21 *51:17 0.00633397
*RES
1 io_in[29] *51:9 14.8294 
2 *51:9 *51:11 236.018 
3 *51:11 *51:17 20.2714 
4 *51:17 *51:19 54.4855 
5 *51:19 *988:io_in[22] 7.22238 
*END

*D_NET *53 0.259334
*CONN
*P io_in[30] I
*I *988:io_in[23] I *D soc_sys
*CAP
1 io_in[30] 0.000488362
2 *988:io_in[23] 0.000201809
3 *53:19 0.0157155
4 *53:17 0.0158624
5 *53:11 0.036451
6 *53:9 0.0365907
7 *988:io_in[23] *988:io_in[24] 0
8 *53:11 *55:13 1.26492e-05
9 *53:11 *55:15 0.0194146
10 *53:17 *56:19 2.82126e-05
11 *53:19 *54:19 0.0390401
12 *53:19 *71:25 0.00197666
13 *53:19 *80:9 0.0422207
14 *48:53 *53:19 0.0104039
15 *50:11 *53:11 0.0394684
16 *50:19 *53:19 0.00145926
*RES
1 io_in[30] *53:9 4.59597 
2 *53:9 *53:11 122.986 
3 *53:11 *53:17 7.55163 
4 *53:17 *53:19 716.554 
5 *53:19 *988:io_in[23] 3.9082 
*END

*D_NET *54 0.235391
*CONN
*P io_in[31] I
*I *988:io_in[24] I *D soc_sys
*CAP
1 io_in[31] 0.000972612
2 *988:io_in[24] 0.000237109
3 *54:19 0.0111825
4 *54:17 0.011086
5 *54:11 0.0341943
6 *54:9 0.0350262
7 *988:io_in[24] *988:io_in[25] 0
8 *54:9 *91:17 0.000246133
9 *54:11 *78:9 0.012308
10 *54:11 *127:25 0.0579809
11 *54:17 *56:33 0.000167762
12 *54:19 *55:23 0.000230649
13 *54:19 *65:17 0.0244855
14 *988:io_in[23] *988:io_in[24] 0
15 *50:19 *54:11 0.00823318
16 *53:19 *54:19 0.0390401
*RES
1 io_in[31] *54:9 5.67383 
2 *54:9 *54:11 121.175 
3 *54:11 *54:17 7.11923 
4 *54:17 *54:19 488.268 
5 *54:19 *988:io_in[24] 3.98027 
*END

*D_NET *55 0.183519
*CONN
*P io_in[32] I
*I *988:io_in[25] I *D soc_sys
*CAP
1 io_in[32] 0.000678998
2 *988:io_in[25] 0.000335706
3 *55:23 0.00518071
4 *55:21 0.0051107
5 *55:15 0.0175498
6 *55:13 0.0179631
7 *988:io_in[25] *988:io_in[26] 6.21682e-06
8 *988:io_in[25] *126:25 0.000144979
9 *55:13 *91:17 0.000322558
10 *55:13 *130:25 0.000158487
11 *55:15 *56:19 0.0017953
12 *55:15 *56:33 0.00260062
13 *55:15 *57:11 0.0196306
14 *55:15 *122:9 0.00521992
15 *55:15 *130:25 0.0130578
16 *55:15 *132:29 0.0340932
17 *55:21 *58:17 2.71935e-05
18 *55:21 *98:11 0.000146384
19 *55:23 *65:17 2.2355e-05
20 *55:23 *67:17 0.0187563
21 *55:23 *69:9 0
22 *55:23 *73:15 0.000914794
23 *55:23 *74:9 0.00646279
24 *55:23 *115:9 3.38504e-05
25 *55:23 *122:9 0
26 *55:23 *126:9 0.0077016
27 *988:io_in[24] *988:io_in[25] 0
28 *46:17 *55:15 0.00583568
29 *50:11 *55:13 0.000111282
30 *53:11 *55:13 1.26492e-05
31 *53:11 *55:15 0.0194146
32 *54:19 *55:23 0.000230649
*RES
1 io_in[32] *55:13 5.18503 
2 *55:13 *55:15 122.028 
3 *55:15 *55:21 7.4075 
4 *55:21 *55:23 244.196 
5 *55:23 *988:io_in[25] 4.36567 
*END

*D_NET *56 0.137029
*CONN
*P io_in[33] I
*I *988:io_in[26] I *D soc_sys
*CAP
1 io_in[33] 0.00862074
2 *988:io_in[26] 0.00978828
3 *56:35 0.0282102
4 *56:33 0.0211865
5 *56:19 0.0113853
6 *988:io_in[26] io_out[35] 0.000959446
7 *988:io_in[26] *988:io_in[27] 0
8 *988:io_in[26] *988:io_in[29] 0.00237856
9 *988:io_in[26] *73:35 0.000150163
10 *988:io_in[26] *105:22 0.000257155
11 *988:io_in[26] *110:16 0.000140978
12 *988:io_in[26] *116:33 0.000360647
13 *988:io_in[26] *119:16 6.48675e-05
14 *988:io_in[26] *120:25 0.000131288
15 *988:io_in[26] *121:12 2.62487e-05
16 *988:io_in[26] *126:25 4.2486e-05
17 *988:io_in[26] *129:19 0.000121549
18 *56:19 *85:17 0
19 *56:19 *87:31 0.0145436
20 *56:19 *91:17 0.000322558
21 *56:35 io_oeb[34] 3.79788e-06
22 *56:35 io_out[35] 0.000824266
23 *56:35 *71:25 0.000137543
24 *56:35 *72:22 0.000142048
25 *56:35 *75:12 8.60528e-05
26 *56:35 *78:9 0.00486605
27 *56:35 *82:22 0.000167588
28 *56:35 *84:20 0.000233405
29 *56:35 *86:24 0.000154
30 *56:35 *87:29 0.00262185
31 *56:35 *87:31 0.00136786
32 *56:35 *92:23 0.00130199
33 *56:35 *127:25 0.0164254
34 *988:io_in[25] *988:io_in[26] 6.21682e-06
35 *48:49 *988:io_in[26] 0.000137543
36 *50:19 *988:io_in[26] 0.000364647
37 *50:19 *56:35 0.00490666
38 *53:17 *56:19 2.82126e-05
39 *54:17 *56:33 0.000167762
40 *55:15 *56:19 0.0017953
41 *55:15 *56:33 0.00260062
*RES
1 io_in[33] *56:19 47.1579 
2 *56:19 *56:33 21.3762 
3 *56:33 *56:35 59.4926 
4 *56:35 *988:io_in[26] 35.433 
*END

*D_NET *57 0.0941267
*CONN
*P io_in[34] I
*I *988:io_in[27] I *D soc_sys
*CAP
1 io_in[34] 0.000556921
2 *988:io_in[27] 0.000800784
3 *57:11 0.0260169
4 *57:9 0.025773
5 *988:io_in[27] *988:io_in[0] 2.48952e-05
6 *988:io_in[27] *988:io_in[28] 0.000401517
7 *988:io_in[27] *988:io_in[2] 0.000297429
8 *988:io_in[27] *126:25 0
9 *57:11 *58:17 0.0194465
10 *57:11 *69:9 0.00114253
11 *57:11 *113:27 2.26355e-05
12 *57:11 *132:29 1.30275e-05
13 *988:io_in[26] *988:io_in[27] 0
14 *55:15 *57:11 0.0196306
*RES
1 io_in[34] *57:9 4.59597 
2 *57:9 *57:11 82.2907 
3 *57:11 *988:io_in[27] 5.28217 
*END

*D_NET *58 0.0494741
*CONN
*P io_in[35] I
*I *988:io_in[28] I *D soc_sys
*CAP
1 io_in[35] 0.00711163
2 *988:io_in[28] 0.000580769
3 *58:17 0.0076924
4 *988:io_in[28] *988:io_in[0] 2.56434e-05
5 *58:17 io_oeb[35] 0.00245946
6 *58:17 io_out[36] 9.16577e-05
7 *58:17 *76:23 4.52709e-05
8 *58:17 *97:7 0
9 *58:17 *98:11 0.000240936
10 *58:17 *104:15 0.000114537
11 *58:17 *112:9 0.000116155
12 *58:17 *113:13 0.000309406
13 *58:17 *113:27 0.000425476
14 *58:17 *122:9 0.00126208
15 *58:17 *123:11 0.000358471
16 *58:17 *127:15 0.000110498
17 *58:17 *132:27 0.00210531
18 *58:17 *132:29 0.002455
19 *58:17 *136:9 0
20 *58:17 *142:23 0.00317943
21 *58:17 *142:25 0.000914777
22 *988:io_in[27] *988:io_in[28] 0.000401517
23 *55:21 *58:17 2.71935e-05
24 *57:11 *58:17 0.0194465
*RES
1 io_in[35] *58:17 49.0182 
2 *58:17 *988:io_in[28] 1.32697 
*END

*D_NET *59 0.0122165
*CONN
*P io_in[36] I
*I *988:io_in[29] I *D soc_sys
*CAP
1 io_in[36] 0.00374692
2 *988:io_in[29] 0.00374692
3 *988:io_in[29] *988:io_in[30] 5.82393e-06
4 *988:io_in[29] *73:35 0.000154677
5 *988:io_in[29] *109:12 0.000145501
6 *988:io_in[29] *110:16 0.000144183
7 *988:io_in[29] *116:33 2.28437e-05
8 *988:io_in[29] *118:7 0.00114692
9 *988:io_in[29] *119:16 0.000350157
10 *988:io_in[29] *136:9 0.000228481
11 *988:io_in[29] *141:12 0.000145501
12 *988:io_in[26] *988:io_in[29] 0.00237856
*RES
1 io_in[36] *988:io_in[29] 20.0113 
*END

*D_NET *60 0.0250851
*CONN
*P io_in[37] I
*I *988:io_in[30] I *D soc_sys
*CAP
1 io_in[37] 0.00547301
2 *988:io_in[30] 0.00547301
3 *988:io_in[30] io_out[36] 0.000336187
4 *988:io_in[30] *70:21 0.00211876
5 *988:io_in[30] *98:21 2.41917e-05
6 *988:io_in[30] *113:13 1.64148e-05
7 *988:io_in[30] *118:9 0.00134257
8 *988:io_in[30] *136:9 0.0102952
9 *988:io_in[29] *988:io_in[30] 5.82393e-06
*RES
1 io_in[37] *988:io_in[30] 30.4955 
*END

*D_NET *65 0.703837
*CONN
*P io_in[7] I
*I *988:io_in[0] I *D soc_sys
*CAP
1 io_in[7] 0.000379747
2 *988:io_in[0] 0.00325355
3 *65:17 0.00831985
4 *65:15 0.0050663
5 *65:13 0.10309
6 *65:11 0.10309
7 *65:9 0.0240729
8 *65:7 0.0244527
9 *988:io_in[0] *988:io_in[1] 0.000331259
10 *988:io_in[0] *988:io_in[2] 0.00806455
11 *988:io_in[0] *105:36 0.000475193
12 *988:io_in[0] *113:27 0.00820353
13 *65:9 *104:33 0.042753
14 *65:9 *142:33 0.0112306
15 *65:13 *67:13 0.284733
16 *65:13 *689:15 0
17 *65:17 *67:17 0.0243904
18 *988:io_in[27] *988:io_in[0] 2.48952e-05
19 *988:io_in[28] *988:io_in[0] 2.56434e-05
20 *988:io_in[3] *988:io_in[0] 0.000192475
21 *46:21 *65:13 0.0271797
22 *54:19 *65:17 0.0244855
23 *55:23 *65:17 2.2355e-05
*RES
1 io_in[7] *65:7 4.1902 
2 *65:7 *65:9 769.375 
3 *65:9 *65:11 3.41 
4 *65:11 *65:13 454.644 
5 *65:13 *65:15 3.41 
6 *65:15 *65:17 306.732 
7 *65:17 *988:io_in[0] 29.9763 
*END

*D_NET *66 0.999831
*CONN
*P io_in[8] I
*I *988:io_in[1] I *D soc_sys
*CAP
1 io_in[8] 0.00185571
2 *988:io_in[1] 0.00392651
3 *66:25 0.0317329
4 *66:23 0.0278064
5 *66:21 0.0477242
6 *66:19 0.0477242
7 *66:17 0.0459929
8 *66:15 0.0459929
9 *66:13 0.0406522
10 *66:11 0.0425079
11 *988:io_in[1] *988:io_in[2] 0
12 *988:io_in[1] *69:9 0.000884094
13 *988:io_in[1] *98:21 8.38304e-06
14 *988:io_in[1] *113:27 0.000112619
15 *66:11 *67:9 0.000388632
16 *66:11 *69:41 0.000584817
17 *66:11 *70:37 0.000632661
18 *66:11 *105:56 0.000615553
19 *66:11 *108:17 0.000550277
20 *66:13 io_out[7] 0
21 *66:13 *69:41 0.00901052
22 *66:13 *70:37 0.0125309
23 *66:13 *105:56 0.0133409
24 *66:13 *108:17 0.0149252
25 *66:17 *734:13 0.000530943
26 *66:17 *739:13 0.000233389
27 *66:17 *791:21 0.00251218
28 *66:17 *807:13 8.7876e-06
29 *66:17 *816:13 0.000425088
30 *66:21 *113:33 0.00777231
31 *66:21 *909:9 0.00187194
32 *66:21 *940:13 0.00128185
33 *66:21 *977:9 0.0014339
34 *66:25 *988:wbs_adr_i[3] 0.00341308
35 *66:25 *988:wbs_dat_i[10] 4.98422e-05
36 *66:25 *989:wbs_dat_i[6] 0.00187148
37 *66:25 *118:13 0
38 *66:25 *541:27 0.00188113
39 *66:25 *608:27 0.00519911
40 *66:25 *622:23 9.56793e-06
41 *66:25 *624:13 0.0425848
42 *66:25 *625:15 0.00088954
43 *66:25 *626:13 0.00212833
44 *66:25 *629:15 0.0106552
45 *66:25 *632:15 0.00327677
46 *66:25 *635:19 0.00258954
47 *66:25 *636:15 0.00326615
48 *66:25 *637:15 0.00163015
49 *66:25 *638:15 0.00143565
50 *66:25 *639:15 0.00202827
51 *988:io_in[0] *988:io_in[1] 0.000331259
52 *988:io_in[3] *988:io_in[1] 0.00489525
53 *31:9 *66:11 0.000388632
54 *32:9 *66:11 0.000540471
55 *32:9 *66:13 0.00901052
56 *33:9 *66:11 0.000558257
57 *33:9 *66:13 0.0137737
58 *33:13 *66:17 0.162573
59 *33:37 *66:25 3.5232e-05
60 *34:13 *66:11 0.000577255
61 *34:13 *66:13 0.0133962
62 *34:17 *66:17 0.0698281
63 *35:13 *66:17 0.000744492
64 *36:25 *66:25 0.00102783
65 *36:29 *66:25 0.0225013
66 *38:21 *66:21 0.0089242
67 *38:33 *66:25 3.89139e-05
68 *39:9 *66:17 0.0558275
69 *39:13 *66:21 0.0174296
70 *39:17 *66:25 0.122947
71 *43:35 *66:25 0.006003
*RES
1 io_in[8] *66:11 9.22077 
2 *66:11 *66:13 129.3 
3 *66:13 *66:15 3.41 
4 *66:15 *66:17 258.91 
5 *66:17 *66:19 3.41 
6 *66:19 *66:21 123.839 
7 *66:21 *66:23 3.41 
8 *66:23 *66:25 197.077 
9 *66:25 *988:io_in[1] 19.1293 
*END

*D_NET *67 0.788622
*CONN
*P io_in[9] I
*I *988:io_in[2] I *D soc_sys
*CAP
1 io_in[9] 0.000265565
2 *988:io_in[2] 0.00590415
3 *67:17 0.0112289
4 *67:15 0.00532471
5 *67:13 0.1039
6 *67:11 0.1039
7 *67:9 0.0218911
8 *67:7 0.0221567
9 *988:io_in[2] *69:9 0.00133718
10 *988:io_in[2] *112:9 0.000483892
11 *988:io_in[2] *113:27 2.26355e-05
12 *67:9 io_out[7] 0.000149758
13 *67:9 *104:33 0.00271582
14 *67:9 *108:17 0
15 *67:9 *142:33 0.0869964
16 *67:13 *74:13 0
17 *67:13 *142:29 0
18 *67:17 *74:9 0.00276842
19 *67:17 *122:9 0
20 *988:io_in[0] *988:io_in[2] 0.00806455
21 *988:io_in[1] *988:io_in[2] 0
22 *988:io_in[27] *988:io_in[2] 0.000297429
23 *988:io_in[3] *988:io_in[2] 0
24 *22:11 *67:9 0
25 *31:9 *67:9 0.0829295
26 *46:21 *67:13 1.75318e-05
27 *55:23 *67:17 0.0187563
28 *65:13 *67:13 0.284733
29 *65:17 *67:17 0.0243904
30 *66:11 *67:9 0.000388632
*RES
1 io_in[9] *67:7 3.974 
2 *67:7 *67:9 1244.16 
3 *67:9 *67:11 3.41 
4 *67:11 *67:13 454.932 
5 *67:13 *67:15 3.41 
6 *67:15 *67:17 305.518 
7 *67:17 *988:io_in[2] 28.3814 
*END

*D_NET *69 0.957378
*CONN
*P io_oeb[10] O
*I *988:io_oeb[3] O *D soc_sys
*CAP
1 io_oeb[10] 0.000158156
2 *988:io_oeb[3] 0.000596113
3 *69:41 0.0169175
4 *69:39 0.0167593
5 *69:37 0.0619756
6 *69:35 0.0619756
7 *69:33 0.0290902
8 *69:31 0.0290902
9 *69:29 0.0148811
10 *69:27 0.017335
11 *69:9 0.0104183
12 *69:7 0.00856054
13 *69:7 io_out[35] 4.73891e-05
14 *69:7 *70:19 0
15 *69:7 *129:19 1.12406e-05
16 *69:9 *73:15 0.000844289
17 *69:9 *73:17 0
18 *69:9 *105:36 0.0016779
19 *69:9 *107:9 0
20 *69:9 *112:9 0
21 *69:9 *113:13 0.00119472
22 *69:9 *115:9 0.00934661
23 *69:9 *122:9 0.000922561
24 *69:9 *126:9 0
25 *69:9 *127:15 0.00139904
26 *69:27 *988:wbs_stb_i 4.73891e-05
27 *69:29 *111:29 0.116438
28 *69:29 *540:25 0.0232285
29 *69:29 *540:33 0.000495803
30 *69:33 *898:9 0.0275141
31 *69:33 *912:9 0
32 *69:33 *951:9 0.00136778
33 *69:33 *953:19 0.0011818
34 *69:37 *70:33 0.0347371
35 *69:37 *660:18 0.0071644
36 *69:37 *661:23 0.0325256
37 *69:37 *663:31 2.12005e-05
38 *69:37 *744:13 0.0318557
39 *69:41 *70:37 0.109927
40 *69:41 *72:32 0.00646997
41 *988:io_in[1] *69:9 0.000884094
42 *988:io_in[20] *69:27 0.000632483
43 *988:io_in[2] *69:9 0.00133718
44 *988:io_in[3] *69:9 0.000415996
45 *26:13 *69:37 0.0169303
46 *31:17 *69:33 0.0181616
47 *31:29 *69:29 0.117423
48 *32:9 *69:41 0.10994
49 *33:9 *69:41 4.22135e-06
50 *42:47 *69:27 0.00261272
51 *43:35 *69:27 5.27153e-05
52 *44:41 *69:9 0.00206966
53 *45:27 *69:27 0
54 *55:23 *69:9 0
55 *57:11 *69:9 0.00114253
56 *66:11 *69:41 0.000584817
57 *66:13 *69:41 0.00901052
*RES
1 *988:io_oeb[3] *69:7 4.5568 
2 *69:7 *69:9 290.946 
3 *69:9 *69:27 28.6505 
4 *69:27 *69:29 1108.64 
5 *69:29 *69:31 4.5 
6 *69:31 *69:33 714.429 
7 *69:33 *69:35 4.5 
8 *69:35 *69:37 1448.3 
9 *69:37 *69:39 4.5 
10 *69:39 *69:41 1347.53 
11 *69:41 io_oeb[10] 3.7578 
*END

*D_NET *70 1.06196
*CONN
*P io_oeb[11] O
*I *988:io_oeb[4] O *D soc_sys
*CAP
1 io_oeb[11] 0.000114748
2 *988:io_oeb[4] 0.00216998
3 *70:37 0.0222467
4 *70:35 0.0221319
5 *70:33 0.0462645
6 *70:31 0.0462645
7 *70:29 0.0108234
8 *70:27 0.0108234
9 *70:25 0.042487
10 *70:23 0.042487
11 *70:21 0.00335337
12 *70:19 0.00552334
13 *70:19 io_oeb[35] 0.000380718
14 *70:19 *71:25 0
15 *70:19 *97:9 0.00022689
16 *70:19 *98:13 0.000305586
17 *70:19 *104:15 0.000163776
18 *70:19 *104:17 0.00159601
19 *70:19 *108:9 0.000197443
20 *70:19 *127:15 7.13706e-06
21 *70:19 *127:17 0.000265217
22 *70:19 *130:15 0.000169234
23 *70:19 *130:17 0.000182471
24 *70:19 *131:11 0.00174101
25 *70:19 *133:17 9.51977e-05
26 *70:21 *98:13 0.00124815
27 *70:21 *104:17 0.00231095
28 *70:21 *114:9 0.0160189
29 *70:21 *118:9 0.0169015
30 *70:21 *120:25 0.000563604
31 *70:21 *136:9 0.00187502
32 *70:25 *104:21 0.000166862
33 *70:25 *112:13 0.126786
34 *70:25 *923:19 0.00112168
35 *70:25 *946:29 0.000282844
36 *70:29 *111:33 0.0542557
37 *70:33 *112:48 0.00561878
38 *70:33 *649:14 4.8247e-05
39 *70:33 *660:18 0.0346883
40 *70:33 *661:23 0.00027436
41 *70:33 *744:13 0.00691571
42 *70:33 *752:21 0.00028634
43 *70:33 *817:13 0.0340514
44 *70:37 *72:32 0.0130954
45 *986:vgnd1 *70:33 0.000105941
46 *988:io_in[30] *70:21 0.00211876
47 *23:36 *70:33 0.00171698
48 *25:13 *70:33 0.0379921
49 *26:13 *70:33 0.0386098
50 *32:9 *70:37 0.00544477
51 *32:13 *70:33 0.0462744
52 *33:9 *70:37 0.129291
53 *35:17 *70:29 0.00974697
54 *37:25 *70:29 0.0562987
55 *66:11 *70:37 0.000632661
56 *66:13 *70:37 0.0125309
57 *69:7 *70:19 0
58 *69:37 *70:33 0.0347371
59 *69:41 *70:37 0.109927
*RES
1 *988:io_oeb[4] *70:19 41.358 
2 *70:19 *70:21 246.643 
3 *70:21 *70:23 3.41 
4 *70:23 *70:25 200.464 
5 *70:25 *70:27 3.41 
6 *70:27 *70:29 705.625 
7 *70:29 *70:31 3.41 
8 *70:31 *70:33 256.244 
9 *70:33 *70:35 3.41 
10 *70:35 *70:37 1584.77 
11 *70:37 io_oeb[11] 3.68573 
*END

*D_NET *71 0.59424
*CONN
*P io_oeb[12] O
*I *988:io_oeb[5] O *D soc_sys
*CAP
1 io_oeb[12] 0.145804
2 *988:io_oeb[5] 0.005651
3 *71:29 0.145804
4 *71:27 0.0957652
5 *71:25 0.101416
6 *71:25 io_out[35] 0.000129529
7 *71:25 *77:14 0.00105946
8 *71:25 *78:7 6.92073e-05
9 *71:25 *81:22 0.00245522
10 *71:27 *82:24 0
11 *71:27 *121:22 0.0106047
12 *71:27 *655:16 0.000770249
13 *45:13 *71:27 0.0202429
14 *48:15 *71:27 0.00233462
15 *48:49 *71:27 0.00141217
16 *49:15 *71:27 0.0566346
17 *50:19 *71:25 0.00197264
18 *53:19 *71:25 0.00197666
19 *56:35 *71:25 0.000137543
20 *70:19 *71:25 0
*RES
1 *988:io_oeb[5] *71:25 38.7094 
2 *71:25 *71:27 387.615 
3 *71:27 *71:29 3.41 
4 *71:29 io_oeb[12] 441.936 
*END

*D_NET *72 0.721503
*CONN
*P io_oeb[13] O
*I *988:io_oeb[6] O *D soc_sys
*CAP
1 io_oeb[13] 0.000123708
2 *988:io_oeb[6] 0.0102375
3 *72:32 0.0681783
4 *72:30 0.0680546
5 *72:28 0.151116
6 *72:26 0.151116
7 *72:24 0.0642611
8 *72:22 0.0744986
9 *72:22 io_out[35] 0.000142048
10 *72:22 *75:12 0.00160318
11 *72:22 *81:24 1.8492e-06
12 *72:24 *759:9 0.0330651
13 *72:28 *76:29 0
14 *72:28 *77:20 0
15 *72:28 *119:22 0
16 *72:28 *121:20 0.00267691
17 *72:28 *656:19 0
18 *72:32 *105:56 0.00513881
19 *72:32 *108:17 0.0141176
20 *32:9 *72:32 0.0101606
21 *33:9 *72:32 0.0174724
22 *34:11 *72:32 0.000158116
23 *34:13 *72:32 0.0242862
24 *47:23 *72:24 0.00333706
25 *48:49 *72:24 0.00204985
26 *56:35 *72:22 0.000142048
27 *69:41 *72:32 0.00646997
28 *70:37 *72:32 0.0130954
*RES
1 *988:io_oeb[6] *72:22 14.0629 
2 *72:22 *72:24 210.024 
3 *72:24 *72:26 3.41 
4 *72:26 *72:28 437.203 
5 *72:28 *72:30 3.41 
6 *72:30 *72:32 216.416 
7 *72:32 io_oeb[13] 3.9223 
*END

*D_NET *73 0.710521
*CONN
*P io_oeb[14] O
*I *988:io_oeb[7] O *D soc_sys
*CAP
1 io_oeb[14] 0.147068
2 *988:io_oeb[7] 0.00174707
3 *73:39 0.147068
4 *73:37 0.0960098
5 *73:35 0.100011
6 *73:17 0.00557594
7 *73:15 0.00332187
8 *73:15 io_out[36] 0.000320026
9 *73:15 *74:7 0
10 *73:15 *122:9 0
11 *73:17 *107:9 0.00157253
12 *73:17 *122:9 0.000164963
13 *73:17 *123:11 0.00319833
14 *73:17 *124:9 0.00290401
15 *73:17 *142:23 0.000711713
16 *73:35 *110:16 0.00380778
17 *73:35 *112:7 0
18 *73:35 *113:13 0.000187284
19 *73:35 *114:7 0.000229032
20 *73:35 *119:16 0.000609183
21 *73:35 *121:12 0
22 *73:37 *81:24 0
23 *73:37 *82:22 0.000126755
24 *73:37 *84:22 0.0770372
25 *73:37 *86:24 0.000533411
26 *73:37 *88:12 0.00201483
27 *73:37 *782:13 0.00123769
28 *988:io_in[26] *73:35 0.000150163
29 *988:io_in[29] *73:35 0.000154677
30 *51:11 *73:37 0.113
31 *55:23 *73:15 0.000914794
32 *69:9 *73:15 0.000844289
33 *69:9 *73:17 0
*RES
1 *988:io_oeb[7] *73:15 45.302 
2 *73:15 *73:17 70.5536 
3 *73:17 *73:35 10.8646 
4 *73:35 *73:37 493.722 
5 *73:37 *73:39 3.41 
6 *73:39 io_oeb[14] 445.828 
*END

*D_NET *74 0.7198
*CONN
*P io_oeb[15] O
*I *988:io_oeb[8] O *D soc_sys
*CAP
1 io_oeb[15] 0.125561
2 *988:io_oeb[8] 0.000441886
3 *74:15 0.125561
4 *74:13 0.0905851
5 *74:11 0.0905851
6 *74:9 0.00305188
7 *74:7 0.00349376
8 *74:9 *76:23 0.00124394
9 *74:9 *85:9 0.00729594
10 *74:9 *89:9 7.23264e-05
11 *74:9 *122:9 0
12 *74:13 *142:29 0.262677
13 *55:23 *74:9 0.00646279
14 *67:13 *74:13 0
15 *67:17 *74:9 0.00276842
16 *73:15 *74:7 0
*RES
1 *988:io_oeb[8] *74:7 4.26853 
2 *74:7 *74:9 145.839 
3 *74:9 *74:11 3.41 
4 *74:11 *74:13 411.476 
5 *74:13 *74:15 3.41 
6 *74:15 io_oeb[15] 2582.85 
*END

*D_NET *75 0.616158
*CONN
*P io_oeb[16] O
*I *988:io_oeb[9] O *D soc_sys
*CAP
1 io_oeb[16] 0.0737303
2 *988:io_oeb[9] 0.0106662
3 *75:20 0.0737303
4 *75:18 0.0962259
5 *75:16 0.0962259
6 *75:14 0.06538
7 *75:12 0.0760462
8 *75:12 io_out[35] 9.90112e-05
9 *75:14 *77:16 0
10 *75:14 *121:14 0
11 *75:14 *129:29 0
12 *75:18 *985:CurrAbsTrim[1] 0
13 *75:18 *985:inl_ctrl[0] 0
14 *75:18 *110:22 0
15 *75:18 *116:39 0.118304
16 *75:18 *857:15 0
17 *51:19 *75:14 0.004061
18 *56:35 *75:12 8.60528e-05
19 *72:22 *75:12 0.00160318
*RES
1 *988:io_oeb[9] *75:12 7.16501 
2 *75:12 *75:14 212.155 
3 *75:14 *75:16 3.41 
4 *75:16 *75:18 336.923 
5 *75:18 *75:20 3.41 
6 *75:20 io_oeb[16] 1517.92 
*END

*D_NET *76 0.655578
*CONN
*P io_oeb[17] O
*I *988:io_oeb[10] O *D soc_sys
*CAP
1 io_oeb[17] 0.0730994
2 *988:io_oeb[10] 0.0125639
3 *76:31 0.0730994
4 *76:29 0.0534071
5 *76:27 0.0534071
6 *76:25 0.0470263
7 *76:23 0.0595902
8 *76:23 io_oeb[35] 0.000596274
9 *76:23 *82:22 0.000381915
10 *76:23 *84:20 9.2316e-05
11 *76:23 *85:9 5.73464e-05
12 *76:23 *86:24 0.000236543
13 *76:23 *88:10 0.00402415
14 *76:23 *93:12 0.000477965
15 *76:23 *122:9 0
16 *76:23 *123:13 0.000268517
17 *76:23 *124:9 0.000240042
18 *76:23 *125:13 0.000248006
19 *76:23 *132:27 0.00101579
20 *76:25 *107:29 0
21 *76:25 *119:18 0.0529924
22 *76:25 *797:9 0.00777984
23 *76:29 *77:20 0.149565
24 *76:29 *109:18 0
25 *76:29 *656:19 0.0491619
26 *76:29 *656:40 0.0146409
27 *76:29 *868:17 0
28 *48:49 *76:23 0.000316739
29 *58:17 *76:23 4.52709e-05
30 *72:28 *76:29 0
31 *74:9 *76:23 0.00124394
*RES
1 *988:io_oeb[10] *76:23 48.0109 
2 *76:23 *76:25 205.869 
3 *76:25 *76:27 3.41 
4 *76:27 *76:29 283.665 
5 *76:29 *76:31 3.41 
6 *76:31 io_oeb[17] 1505.17 
*END

*D_NET *77 0.618358
*CONN
*P io_oeb[18] O
*I *988:io_oeb[11] O *D soc_sys
*CAP
1 io_oeb[18] 0.073045
2 *988:io_oeb[11] 0.0102719
3 *77:22 0.073045
4 *77:20 0.0397863
5 *77:18 0.0397863
6 *77:16 0.0516179
7 *77:14 0.0618897
8 *77:14 *81:22 0.00245522
9 *77:16 *119:18 0
10 *77:16 *129:29 0.0365638
11 *77:16 *796:9 0.0200075
12 *77:20 *119:22 0.0587977
13 *77:20 *656:19 0.00046754
14 *71:25 *77:14 0.00105946
15 *72:28 *77:20 0
16 *75:14 *77:16 0
17 *76:29 *77:20 0.149565
*RES
1 *988:io_oeb[11] *77:14 7.04707 
2 *77:14 *77:16 212.368 
3 *77:16 *77:18 3.41 
4 *77:18 *77:20 234.083 
5 *77:20 *77:22 3.41 
6 *77:22 io_oeb[18] 1504.56 
*END

*D_NET *78 0.47044
*CONN
*P io_oeb[19] O
*I *988:io_oeb[12] O *D soc_sys
*CAP
1 io_oeb[19] 0.0845809
2 *988:io_oeb[12] 0.000105813
3 *78:15 0.0845809
4 *78:13 0.0674053
5 *78:11 0.0674053
6 *78:9 0.0307795
7 *78:7 0.0308853
8 *78:7 *80:7 0
9 *78:9 *80:9 0.0085856
10 *78:9 *87:29 0.000721665
11 *78:9 *92:23 0.000107769
12 *78:13 *141:18 0
13 *78:13 *824:21 0.0159706
14 *50:19 *78:9 0.0620677
15 *54:11 *78:9 0.012308
16 *56:35 *78:9 0.00486605
17 *71:25 *78:7 6.92073e-05
*RES
1 *988:io_oeb[12] *78:7 3.71393 
2 *78:7 *78:9 974.286 
3 *78:9 *78:11 3.41 
4 *78:11 *78:13 207.599 
5 *78:13 *78:15 3.41 
6 *78:15 io_oeb[19] 1739.53 
*END

*D_NET *80 0.489822
*CONN
*P io_oeb[20] O
*I *988:io_oeb[13] O *D soc_sys
*CAP
1 io_oeb[20] 0.0853353
2 *988:io_oeb[13] 0.00018277
3 *80:15 0.0853353
4 *80:13 0.0400788
5 *80:11 0.0400788
6 *80:9 0.0230462
7 *80:7 0.0232289
8 *80:7 io_out[35] 4.50903e-05
9 *80:13 *695:17 0.0362345
10 *80:13 *711:33 0.00029473
11 *80:13 *735:25 0.000436851
12 *80:13 *737:13 0.00815368
13 *80:13 *748:25 0
14 *80:13 *749:29 0.0357865
15 *50:19 *80:9 0.0607782
16 *53:19 *80:9 0.0422207
17 *78:7 *80:7 0
18 *78:9 *80:9 0.0085856
*RES
1 *988:io_oeb[13] *80:7 3.85807 
2 *80:7 *80:9 957.893 
3 *80:9 *80:11 3.41 
4 *80:11 *80:13 156.936 
5 *80:13 *80:15 3.41 
6 *80:15 io_oeb[20] 1752.28 
*END

*D_NET *81 0.418729
*CONN
*P io_oeb[21] O
*I *988:io_oeb[14] O *D soc_sys
*CAP
1 io_oeb[21] 8.31429e-05
2 *988:io_oeb[14] 0.00445883
3 *81:28 0.0204579
4 *81:26 0.0203747
5 *81:24 0.127549
6 *81:22 0.132008
7 *81:22 io_out[35] 0.00030963
8 *81:22 *82:22 0.0014641
9 *81:22 *126:27 0
10 *81:24 *82:22 0.000321653
11 *81:24 *88:12 0.0484258
12 *81:24 *811:17 0.00129797
13 *81:28 *82:30 0.0274584
14 *81:28 *118:21 0.0113579
15 *81:28 *120:41 8.19541e-05
16 *81:28 *120:43 0.00296689
17 *42:13 *81:28 0.0144743
18 *43:11 *81:28 0.000531441
19 *44:11 *81:28 0.000195002
20 *71:25 *81:22 0.00245522
21 *72:22 *81:24 1.8492e-06
22 *73:37 *81:24 0
23 *77:14 *81:22 0.00245522
*RES
1 *988:io_oeb[14] *81:22 11.3005 
2 *81:22 *81:24 473.055 
3 *81:24 *81:26 3.41 
4 *81:26 *81:28 95.5714 
5 *81:28 io_oeb[21] 5.02607 
*END

*D_NET *82 0.471009
*CONN
*P io_oeb[22] O
*I *988:io_oeb[15] O *D soc_sys
*CAP
1 io_oeb[22] 7.55088e-05
2 *988:io_oeb[15] 0.00593979
3 *82:30 0.00437521
4 *82:24 0.0858851
5 *82:22 0.0875252
6 *82:22 *88:10 9.40346e-05
7 *82:24 *86:26 0.0625187
8 *82:24 *121:22 0.000622683
9 *82:24 *844:17 0.000939483
10 *82:30 io_out[23] 2.24813e-05
11 *82:30 *120:41 0.000128134
12 *82:30 *120:43 0.00926106
13 *45:11 *82:30 0.010735
14 *47:15 *82:24 0
15 *48:15 *82:24 0.171972
16 *48:49 *82:24 0.000994666
17 *56:35 *82:22 0.000167588
18 *71:27 *82:24 0
19 *73:37 *82:22 0.000126755
20 *76:23 *82:22 0.000381915
21 *81:22 *82:22 0.0014641
22 *81:24 *82:22 0.000321653
23 *81:28 *82:30 0.0274584
*RES
1 *988:io_oeb[15] *82:22 9.81805 
2 *82:22 *82:24 470.818 
3 *82:24 *82:30 49.5665 
4 *82:30 io_oeb[22] 1.27679 
*END

*D_NET *83 0.309983
*CONN
*P io_oeb[23] O
*I *988:io_oeb[16] O *D soc_sys
*CAP
1 io_oeb[23] 0.000189775
2 *988:io_oeb[16] 0.00111975
3 *83:17 0.143166
4 *83:15 0.144833
5 *83:9 0.00356465
6 *83:7 0.00282765
7 *83:7 *132:27 0
8 *83:9 *108:9 0
9 *83:9 *127:17 0.00254597
10 *83:9 *131:13 0.00318675
11 *83:9 *131:21 0.00100133
12 *83:9 *133:17 0.00457586
13 *83:15 *85:15 0.000563492
14 *83:15 *89:15 0.00240917
15 *83:15 *127:23 0
16 *83:17 *89:17 0
*RES
1 *988:io_oeb[16] *83:7 5.56573 
2 *83:7 *83:9 99.6964 
3 *83:9 *83:15 12.8846 
4 *83:15 *83:17 455.797 
5 *83:17 io_oeb[23] 9.46617 
*END

*D_NET *84 0.340557
*CONN
*P io_oeb[24] O
*I *988:io_oeb[17] O *D soc_sys
*CAP
1 io_oeb[24] 0.00374496
2 *988:io_oeb[17] 0.00498013
3 *84:22 0.125263
4 *84:20 0.126499
5 *84:20 *86:24 0.000133931
6 *84:20 *87:29 0
7 *84:20 *92:23 0
8 *84:20 *93:12 0.00257316
9 *56:35 *84:20 0.000233405
10 *73:37 *84:22 0.0770372
11 *76:23 *84:20 9.2316e-05
*RES
1 *988:io_oeb[17] *84:20 11.6391 
2 *84:20 *84:22 431.614 
3 *84:22 io_oeb[24] 14.2529 
*END

*D_NET *85 0.264302
*CONN
*P io_oeb[25] O
*I *988:io_oeb[18] O *D soc_sys
*CAP
1 io_oeb[25] 0.00114006
2 *988:io_oeb[18] 0.000505788
3 *85:17 0.119331
4 *85:15 0.118842
5 *85:9 0.00233872
6 *85:7 0.00219337
7 *85:9 *89:9 0.00613013
8 *85:9 *122:9 0
9 *85:17 io_oeb[34] 0.00590351
10 *85:17 *87:31 0
11 *56:19 *85:17 0
12 *74:9 *85:9 0.00729594
13 *76:23 *85:9 5.73464e-05
14 *83:15 *85:15 0.000563492
*RES
1 *988:io_oeb[18] *85:7 4.3406 
2 *85:7 *85:9 91.1964 
3 *85:9 *85:15 8.63263 
4 *85:15 *85:17 379.945 
5 *85:17 io_oeb[25] 6.61383 
*END

*D_NET *86 0.322763
*CONN
*P io_oeb[26] O
*I *988:io_oeb[19] O *D soc_sys
*CAP
1 io_oeb[26] 0.00527966
2 *988:io_oeb[19] 0.00577223
3 *86:26 0.0588694
4 *86:24 0.059362
5 *86:24 *88:10 0.00359305
6 *86:26 *120:35 0.0300375
7 *86:26 *682:9 0.00942013
8 *47:15 *86:26 0.0868526
9 *56:35 *86:24 0.000154
10 *73:37 *86:24 0.000533411
11 *76:23 *86:24 0.000236543
12 *82:24 *86:26 0.0625187
13 *84:20 *86:24 0.000133931
*RES
1 *988:io_oeb[19] *86:24 10.4191 
2 *86:24 *86:26 350.542 
3 *86:26 io_oeb[26] 17.6244 
*END

*D_NET *87 0.270431
*CONN
*P io_oeb[27] O
*I *988:io_oeb[20] O *D soc_sys
*CAP
1 io_oeb[27] 0.00102845
2 *988:io_oeb[20] 0.0020908
3 *87:31 0.0687723
4 *87:29 0.0698347
5 *87:29 io_oeb[34] 8.33331e-06
6 *87:29 io_oeb[35] 8.76591e-06
7 *87:29 *91:7 6.63171e-06
8 *87:29 *92:23 0.000356084
9 *87:29 *97:7 5.99199e-06
10 *87:31 io_oeb[34] 0
11 *87:31 *127:25 0.108741
12 *46:9 io_oeb[27] 0.000322558
13 *56:19 *87:31 0.0145436
14 *56:35 *87:29 0.00262185
15 *56:35 *87:31 0.00136786
16 *78:9 *87:29 0.000721665
17 *84:20 *87:29 0
18 *85:17 *87:31 0
*RES
1 *988:io_oeb[20] *87:29 39.9144 
2 *87:29 *87:31 304.034 
3 *87:31 io_oeb[27] 6.06863 
*END

*D_NET *88 0.210445
*CONN
*P io_oeb[28] O
*I *988:io_oeb[21] O *D soc_sys
*CAP
1 io_oeb[28] 0.00427512
2 *988:io_oeb[21] 0.00225307
3 *88:12 0.049423
4 *88:10 0.0474009
5 *88:12 *800:19 0.00597592
6 *88:12 *855:9 0.0050393
7 *51:11 *88:12 0.0379256
8 *73:37 *88:12 0.00201483
9 *76:23 *88:10 0.00402415
10 *81:24 *88:12 0.0484258
11 *82:22 *88:10 9.40346e-05
12 *86:24 *88:10 0.00359305
*RES
1 *988:io_oeb[21] *88:10 5.27437 
2 *88:10 *88:12 271.387 
3 *88:12 io_oeb[28] 15.2618 
*END

*D_NET *89 0.161021
*CONN
*P io_oeb[29] O
*I *988:io_oeb[22] O *D soc_sys
*CAP
1 io_oeb[29] 0.00202011
2 *988:io_oeb[22] 0.000569844
3 *89:17 0.0719168
4 *89:15 0.0710258
5 *89:9 0.0037181
6 *89:7 0.00315887
7 *89:7 *91:7 0
8 *89:9 *122:9 0
9 *74:9 *89:9 7.23264e-05
10 *83:15 *89:15 0.00240917
11 *83:17 *89:17 0
12 *85:9 *89:9 0.00613013
*RES
1 *988:io_oeb[22] *89:7 4.41267 
2 *89:7 *89:9 78.4464 
3 *89:9 *89:15 10.7226 
4 *89:15 *89:17 216.416 
5 *89:17 io_oeb[29] 8.6317 
*END

*D_NET *91 0.210236
*CONN
*P io_oeb[30] O
*I *988:io_oeb[23] O *D soc_sys
*CAP
1 io_oeb[30] 3.87262e-05
2 *988:io_oeb[23] 0.000940905
3 *91:17 0.0137844
4 *91:15 0.0139433
5 *91:9 0.00798793
6 *91:7 0.0087312
7 *91:7 io_oeb[35] 1.91871e-05
8 *91:7 *92:23 0
9 *91:9 io_oeb[35] 0.000210142
10 *91:9 *94:9 0.00936472
11 *91:9 *125:13 0.0302489
12 *91:9 *130:17 0.0161955
13 *91:9 *133:17 0
14 *91:15 io_oeb[33] 6.66247e-05
15 *91:17 io_oeb[33] 0.000322558
16 *91:17 io_out[31] 0.000322558
17 *91:17 io_out[33] 0.000246133
18 *91:17 *92:25 0.0393835
19 *91:17 *122:17 0.0151481
20 *91:17 *123:21 0.0197588
21 *91:17 *125:21 0.00774852
22 *91:17 *131:21 0.0248762
23 *54:9 *91:17 0.000246133
24 *55:13 *91:17 0.000322558
25 *56:19 *91:17 0.000322558
26 *87:29 *91:7 6.63171e-06
27 *89:7 *91:7 0
*RES
1 *988:io_oeb[23] *91:7 5.13333 
2 *91:7 *91:9 371.089 
3 *91:9 *91:15 7.33543 
4 *91:15 *91:17 123.413 
5 *91:17 io_oeb[30] 3.54003 
*END

*D_NET *92 0.117456
*CONN
*P io_oeb[31] O
*I *988:io_oeb[24] O *D soc_sys
*CAP
1 io_oeb[31] 0.000133909
2 *988:io_oeb[24] 0.00153554
3 *92:25 0.0282522
4 *92:23 0.0296538
5 *92:23 io_oeb[34] 0.000240624
6 *92:23 io_oeb[35] 0.000248068
7 *92:23 *93:12 4.48652e-05
8 *92:23 *97:7 0.000334284
9 *92:25 *131:21 0.0158638
10 *56:35 *92:23 0.00130199
11 *78:9 *92:23 0.000107769
12 *84:20 *92:23 0
13 *87:29 *92:23 0.000356084
14 *91:7 *92:23 0
15 *91:17 *92:25 0.0393835
*RES
1 *988:io_oeb[24] *92:23 23.4982 
2 *92:23 *92:25 143.76 
3 *92:25 io_oeb[31] 3.85963 
*END

*D_NET *93 0.0805601
*CONN
*P io_oeb[32] O
*I *988:io_oeb[25] O *D soc_sys
*CAP
1 io_oeb[32] 0.00349976
2 *988:io_oeb[25] 0.00185918
3 *93:14 0.0368729
4 *93:12 0.0352323
5 *93:14 *126:27 0
6 *76:23 *93:12 0.000477965
7 *84:20 *93:12 0.00257316
8 *92:23 *93:12 4.48652e-05
*RES
1 *988:io_oeb[25] *93:12 5.033 
2 *93:12 *93:14 105.408 
3 *93:14 io_oeb[32] 12.235 
*END

*D_NET *94 0.0808492
*CONN
*P io_oeb[33] O
*I *988:io_oeb[26] O *D soc_sys
*CAP
1 io_oeb[33] 0.000307861
2 *988:io_oeb[26] 0.00100341
3 *94:9 0.00891163
4 *94:7 0.00960718
5 *94:9 io_oeb[35] 0.00065113
6 *94:9 *108:9 0.00135635
7 *94:9 *125:13 0.0070093
8 *94:9 *130:17 0.00316858
9 *94:9 *130:25 0.0146768
10 *94:9 *131:21 0.0162729
11 *94:9 *132:29 0.00813019
12 *91:9 *94:9 0.00936472
13 *91:15 io_oeb[33] 6.66247e-05
14 *91:17 io_oeb[33] 0.000322558
*RES
1 *988:io_oeb[26] *94:7 5.16937 
2 *94:7 *94:9 63.6474 
3 *94:9 io_oeb[33] 4.33903 
*END

*D_NET *95 0.0216593
*CONN
*P io_oeb[34] O
*I *988:io_oeb[27] O *D soc_sys
*CAP
1 io_oeb[34] 0.00775149
2 *988:io_oeb[27] 0.00775149
3 *56:35 io_oeb[34] 3.79788e-06
4 *85:17 io_oeb[34] 0.00590351
5 *87:29 io_oeb[34] 8.33331e-06
6 *87:31 io_oeb[34] 0
7 *92:23 io_oeb[34] 0.000240624
*RES
1 *988:io_oeb[27] io_oeb[34] 34.022 
*END

*D_NET *96 0.0275183
*CONN
*P io_oeb[35] O
*I *988:io_oeb[28] O *D soc_sys
*CAP
1 io_oeb[35] 0.0060586
2 *988:io_oeb[28] 0.0060586
3 io_oeb[35] *97:7 0
4 io_oeb[35] *98:13 0.000383385
5 io_oeb[35] *104:15 0.000544783
6 io_oeb[35] *108:9 0.00133937
7 io_oeb[35] *123:13 0.00126089
8 io_oeb[35] *124:9 0.00112718
9 io_oeb[35] *125:13 0.00100563
10 io_oeb[35] *127:15 7.43923e-05
11 io_oeb[35] *127:17 0.000437045
12 io_oeb[35] *130:17 0.000855699
13 io_oeb[35] *132:13 0.000914777
14 io_oeb[35] *132:27 0.000792124
15 io_oeb[35] *132:29 0.00181323
16 io_oeb[35] *136:7 0.000278817
17 *58:17 io_oeb[35] 0.00245946
18 *70:19 io_oeb[35] 0.000380718
19 *76:23 io_oeb[35] 0.000596274
20 *87:29 io_oeb[35] 8.76591e-06
21 *91:7 io_oeb[35] 1.91871e-05
22 *91:9 io_oeb[35] 0.000210142
23 *92:23 io_oeb[35] 0.000248068
24 *94:9 io_oeb[35] 0.00065113
*RES
1 *988:io_oeb[28] io_oeb[35] 35.5702 
*END

*D_NET *97 0.0436638
*CONN
*P io_oeb[36] O
*I *988:io_oeb[29] O *D soc_sys
*CAP
1 io_oeb[36] 0.000366806
2 *988:io_oeb[29] 0.00110234
3 *97:9 0.00901937
4 *97:7 0.0097549
5 *97:7 *98:11 9.88728e-05
6 *97:9 *104:17 0.0139855
7 *97:9 *133:17 0.0087689
8 io_oeb[35] *97:7 0
9 *58:17 *97:7 0
10 *70:19 *97:9 0.00022689
11 *87:29 *97:7 5.99199e-06
12 *92:23 *97:7 0.000334284
*RES
1 *988:io_oeb[29] *97:7 5.78193 
2 *97:7 *97:9 283.661 
3 *97:9 io_oeb[36] 3.94267 
*END

*D_NET *98 0.0898291
*CONN
*P io_oeb[37] O
*I *988:io_oeb[30] O *D soc_sys
*CAP
1 io_oeb[37] 0.000299228
2 *988:io_oeb[30] 0.00100533
3 *98:21 0.00804125
4 *98:13 0.0110579
5 *98:11 0.00432118
6 *98:13 *105:24 0.000650092
7 *98:13 *108:9 0.0168567
8 *98:13 *111:9 0.00257804
9 *98:13 *118:9 0.00100019
10 *98:13 *127:17 0.00895668
11 *98:13 *130:15 0.000509724
12 *98:13 *131:21 0.000132513
13 *98:13 *133:15 0.00105268
14 *98:13 *136:9 0.00167624
15 *98:21 io_out[36] 0.000117071
16 *98:21 *105:24 0.000806734
17 *98:21 *111:27 0.00822061
18 *98:21 *113:27 0.00303274
19 *98:21 *136:9 0.00792604
20 *98:21 *143:9 0.00300054
21 *98:21 *540:11 0.00215072
22 io_oeb[35] *98:13 0.000383385
23 *988:io_in[1] *98:21 8.38304e-06
24 *988:io_in[30] *98:21 2.41917e-05
25 *45:29 *98:21 0.00187204
26 *46:33 *98:21 0.00210901
27 *55:21 *98:11 0.000146384
28 *58:17 *98:11 0.000240936
29 *70:19 *98:13 0.000305586
30 *70:21 *98:13 0.00124815
31 *97:7 *98:11 9.88728e-05
*RES
1 *988:io_oeb[30] *98:11 5.5626 
2 *98:11 *98:13 227.804 
3 *98:13 *98:21 36.9429 
4 *98:21 io_oeb[37] 4.12597 
*END

*D_NET *103 0.453017
*CONN
*P io_oeb[7] O
*I *988:io_oeb[0] O *D soc_sys
*CAP
1 io_oeb[7] 0.137494
2 *988:io_oeb[0] 0.0167979
3 *103:16 0.137494
4 *103:14 0.0606163
5 *103:12 0.0774142
6 *103:12 io_out[35] 0.00018191
7 *103:12 *105:22 0.000127784
8 *103:12 *116:33 0.00291176
9 *103:14 *818:9 0.00637845
10 *103:14 *838:17 0.00134839
11 *103:14 *842:17 0.00997928
12 *48:49 *103:12 0.00227275
*RES
1 *988:io_oeb[0] *103:12 9.23805 
2 *103:12 *103:14 187.972 
3 *103:14 *103:16 3.41 
4 *103:16 io_oeb[7] 414.551 
*END

*D_NET *104 0.803044
*CONN
*P io_oeb[8] O
*I *988:io_oeb[1] O *D soc_sys
*CAP
1 io_oeb[8] 0.000334672
2 *988:io_oeb[1] 0.00194207
3 *104:33 0.0178619
4 *104:31 0.0175273
5 *104:29 0.0666035
6 *104:27 0.0666035
7 *104:25 0.0178823
8 *104:23 0.0178823
9 *104:21 0.0181537
10 *104:19 0.0181537
11 *104:17 0.00516592
12 *104:15 0.00710799
13 *104:15 io_out[35] 2.48858e-05
14 *104:15 io_out[36] 0.000111162
15 *104:15 *127:15 0
16 *104:15 *136:7 2.32773e-05
17 *104:15 *136:9 0.000151914
18 *104:17 *114:9 0.0161151
19 *104:21 *112:13 0.125307
20 *104:21 *114:13 0.125695
21 *104:25 *114:17 0.012795
22 *104:25 *904:9 0.0312522
23 *104:25 *931:21 0.027107
24 *104:25 *932:18 0.00372561
25 *104:29 *656:65 0.0128282
26 *104:29 *658:19 4.25033e-05
27 *104:29 *741:13 0.00736773
28 *104:29 *779:13 0.00827024
29 *104:29 *801:13 0.0376085
30 *104:33 io_out[7] 0.000450713
31 *104:33 *142:33 0.0669342
32 io_oeb[35] *104:15 0.000544783
33 *13:14 *104:29 0.00766398
34 *32:13 *104:29 0
35 *33:13 *104:29 0
36 *35:13 *104:29 0
37 *36:9 *104:29 0
38 *58:17 *104:15 0.000114537
39 *65:9 *104:33 0.042753
40 *67:9 *104:33 0.00271582
41 *70:19 *104:15 0.000163776
42 *70:19 *104:17 0.00159601
43 *70:21 *104:17 0.00231095
44 *70:25 *104:21 0.000166862
45 *97:9 *104:17 0.0139855
*RES
1 *988:io_oeb[1] *104:15 14.4349 
2 *104:15 *104:17 267.268 
3 *104:17 *104:19 3.41 
4 *104:19 *104:21 196.14 
5 *104:21 *104:23 3.41 
6 *104:23 *104:25 700.161 
7 *104:25 *104:27 3.41 
8 *104:27 *104:29 260.28 
9 *104:29 *104:31 3.41 
10 *104:31 *104:33 879.875 
11 *104:33 io_oeb[8] 4.11813 
*END

*D_NET *105 0.772723
*CONN
*P io_oeb[9] O
*I *988:io_oeb[2] O *D soc_sys
*CAP
1 io_oeb[9] 3.64992e-05
2 *988:io_oeb[2] 0.00235823
3 *105:56 0.0441015
4 *105:54 0.044065
5 *105:52 0.0479802
6 *105:50 0.0482216
7 *105:44 0.0547895
8 *105:42 0.0545481
9 *105:40 0.00155439
10 *105:38 0.00155439
11 *105:36 0.000964826
12 *105:24 0.00402279
13 *105:22 0.0054162
14 *105:22 io_out[35] 0.000241383
15 *105:22 *129:27 5.72e-05
16 *105:22 *131:11 0.000179746
17 *105:22 *132:11 0.000421357
18 *105:24 io_out[36] 0.000125685
19 *105:24 *107:9 0.00505038
20 *105:24 *108:9 0.00355636
21 *105:24 *111:9 0
22 *105:24 *112:9 0.000163427
23 *105:24 *124:9 2.00842e-05
24 *105:24 *125:13 0.00157992
25 *105:24 *142:23 0.0012045
26 *105:24 *143:9 0.00509259
27 *105:36 *112:9 0
28 *105:40 *111:27 0.00135984
29 *105:40 *112:9 0.00556247
30 *105:40 *115:9 0
31 *105:40 *143:9 0.000793499
32 *105:40 *540:11 0
33 *105:44 *988:wbs_adr_i[0] 0
34 *105:44 *988:wbs_adr_i[4] 0.00207541
35 *105:44 *988:wbs_adr_i[5] 0.000741729
36 *105:44 *988:wbs_adr_i[7] 0.00142806
37 *105:44 *988:wbs_cyc_i 0.000459314
38 *105:44 *988:wbs_dat_i[0] 0.000343565
39 *105:44 *988:wbs_sel_i[0] 0.00300722
40 *105:44 *988:wbs_we_i 0
41 *105:44 *143:13 0
42 *105:44 *542:15 0
43 *105:44 *544:17 0.00838933
44 *105:44 *545:17 0
45 *105:44 *559:15 0.0157308
46 *105:44 *560:15 0
47 *105:44 *589:15 0.000539741
48 *105:44 *590:15 0
49 *105:44 *603:17 0
50 *105:44 *634:15 0
51 *105:44 *918:19 0.00454951
52 *105:44 *956:19 0.00381242
53 *105:50 *143:19 1.94945e-05
54 *105:50 *949:9 0.000192301
55 *105:52 *143:21 0.154347
56 *105:52 *884:21 0
57 *105:52 *909:19 0.000259202
58 *105:52 *914:11 0.00246584
59 *105:56 *108:17 0.111766
60 *988:io_in[0] *105:36 0.000475193
61 *988:io_in[15] *105:36 6.27662e-06
62 *988:io_in[16] *105:36 0.000285638
63 *988:io_in[26] *105:22 0.000257155
64 *32:37 *105:44 0.00296946
65 *32:39 *105:40 0
66 *34:13 *105:56 0.0916136
67 *43:37 *105:40 0.00648299
68 *44:41 *105:36 0.00277252
69 *45:29 *105:24 5.79809e-05
70 *46:33 *105:24 0.000165707
71 *48:49 *105:22 0.000129529
72 *66:11 *105:56 0.000615553
73 *66:13 *105:56 0.0133409
74 *69:9 *105:36 0.0016779
75 *72:32 *105:56 0.00513881
76 *98:13 *105:24 0.000650092
77 *98:21 *105:24 0.000806734
78 *103:12 *105:22 0.000127784
*RES
1 *988:io_oeb[2] *105:22 17.573 
2 *105:22 *105:24 148.268 
3 *105:24 *105:36 48.1333 
4 *105:36 *105:38 3.41 
5 *105:38 *105:40 91.1964 
6 *105:40 *105:42 3.41 
7 *105:42 *105:44 199.239 
8 *105:44 *105:50 13.0439 
9 *105:50 *105:52 1464.73 
10 *105:52 *105:54 4.5 
11 *105:54 *105:56 1834.76 
12 *105:56 io_oeb[9] 3.46953 
*END

*D_NET *107 0.884809
*CONN
*P io_out[10] O
*I *988:io_out[3] O *D soc_sys
*CAP
1 io_out[10] 0.000926521
2 *988:io_out[3] 0.000849918
3 *107:37 0.0159797
4 *107:35 0.0150531
5 *107:33 0.0386105
6 *107:31 0.0386105
7 *107:29 0.0717896
8 *107:27 0.0820593
9 *107:9 0.0112693
10 *107:7 0.00184945
11 *107:7 *108:7 0
12 *107:7 *143:7 0
13 *107:9 *112:9 0.00148716
14 *107:9 *113:13 0
15 *107:9 *124:9 0.000306447
16 *107:9 *142:23 0.000833131
17 *107:27 *116:33 0.00496737
18 *107:27 *125:11 0.000854888
19 *107:27 *126:7 7.35965e-05
20 *107:29 *119:18 0
21 *107:29 *798:9 0.00777984
22 *107:33 *109:18 0.271541
23 *107:33 *110:22 0.273484
24 *107:37 *109:22 0.00960199
25 *107:37 *143:25 0.0193702
26 *35:9 *107:37 0.0108886
27 *45:19 *107:33 0
28 *69:9 *107:9 0
29 *73:17 *107:9 0.00157253
30 *76:25 *107:29 0
31 *105:24 *107:9 0.00505038
*RES
1 *988:io_out[3] *107:7 5.06127 
2 *107:7 *107:9 62.0536 
3 *107:9 *107:27 12.9575 
4 *107:27 *107:29 225.578 
5 *107:29 *107:31 3.41 
6 *107:31 *107:33 426.213 
7 *107:33 *107:35 3.41 
8 *107:35 *107:37 474.911 
9 *107:37 io_out[10] 5.77567 
*END

*D_NET *108 0.885327
*CONN
*P io_out[11] O
*I *988:io_out[4] O *D soc_sys
*CAP
1 io_out[11] 6.085e-05
2 *988:io_out[4] 0.000970175
3 *108:17 0.0277319
4 *108:15 0.027671
5 *108:13 0.0965318
6 *108:11 0.0965318
7 *108:9 0.0042298
8 *108:7 0.00519997
9 *108:9 io_out[36] 0.000121549
10 *108:9 *120:25 0.000387281
11 *108:9 *125:13 5.60921e-05
12 *108:9 *127:17 0.00201822
13 *108:9 *130:17 0.0141551
14 *108:9 *132:11 0.00143003
15 *108:9 *132:13 1.37164e-05
16 *108:9 *133:17 0
17 *108:13 *142:29 0.29097
18 *108:13 *646:18 0
19 *108:13 *671:15 0
20 *108:13 *671:29 0
21 *108:13 *672:15 0
22 *108:13 *676:15 0
23 *108:13 *678:15 5.00695e-06
24 *108:13 *680:15 0
25 *108:13 *693:13 0
26 *108:13 *698:15 5.00695e-06
27 *108:13 *711:27 8.14312e-05
28 *108:13 *715:43 0
29 *108:13 *716:39 0.00167526
30 *108:13 *720:29 0
31 *108:13 *723:31 0
32 *108:13 *728:25 0
33 *108:13 *756:15 1.30843e-05
34 *108:13 *757:15 5.00695e-06
35 *108:13 *766:15 0.00391446
36 *108:13 *792:29 0
37 *108:13 *794:27 0
38 *108:13 *800:19 0.000411931
39 *108:13 *805:35 0
40 *108:13 *821:15 8.28872e-05
41 *108:13 *824:13 0
42 *108:13 *828:23 6.21416e-05
43 *108:13 *829:23 0
44 *108:13 *837:15 1.30843e-05
45 *108:13 *839:15 0.00014721
46 *108:13 *843:15 0.000133568
47 *108:13 *844:15 0
48 *108:13 *848:15 0.000256899
49 *108:13 *851:15 0.000155156
50 *108:13 *856:15 0.000139324
51 *108:13 *860:15 0.000266613
52 *108:13 *863:15 0.000168828
53 *108:13 *866:23 0
54 *108:13 *872:15 1.30843e-05
55 *108:17 *142:33 0
56 io_oeb[35] *108:9 0.00133937
57 *31:9 *108:17 0
58 *33:9 *108:17 0.125425
59 *34:13 *108:17 0.0189657
60 *47:21 *108:13 0.000640963
61 *66:11 *108:17 0.000550277
62 *66:13 *108:17 0.0149252
63 *67:9 *108:17 0
64 *70:19 *108:9 0.000197443
65 *72:32 *108:17 0.0141176
66 *83:9 *108:9 0
67 *94:9 *108:9 0.00135635
68 *98:13 *108:9 0.0168567
69 *105:24 *108:9 0.00355636
70 *105:56 *108:17 0.111766
71 *107:7 *108:7 0
*RES
1 *988:io_out[4] *108:7 5.27747 
2 *108:7 *108:9 272.125 
3 *108:9 *108:11 3.41 
4 *108:11 *108:13 456.517 
5 *108:13 *108:15 3.41 
6 *108:15 *108:17 1784.52 
7 *108:17 io_out[11] 3.5416 
*END

*D_NET *109 0.830021
*CONN
*P io_out[12] O
*I *988:io_out[5] O *D soc_sys
*CAP
1 io_out[12] 0.000870826
2 *988:io_out[5] 0.0134331
3 *109:22 0.0350212
4 *109:20 0.0341503
5 *109:18 0.0779055
6 *109:16 0.0779055
7 *109:14 0.0749557
8 *109:12 0.0883889
9 *109:14 *803:9 0.00755878
10 *109:18 *985:finetune 0.00251078
11 *109:18 *985:trimTC[5] 0.00321834
12 *109:18 *985:inl_ctrl[2] 0.0172361
13 *109:18 *656:19 0
14 *109:18 *868:17 0.031536
15 *109:22 *110:26 0.0797646
16 *109:22 *143:25 0.00427683
17 *988:io_in[29] *109:12 0.000145501
18 *45:19 *109:18 0
19 *76:29 *109:18 0
20 *107:33 *109:18 0.271541
21 *107:37 *109:22 0.00960199
*RES
1 *988:io_out[5] *109:12 7.90245 
2 *109:12 *109:14 235.805 
3 *109:14 *109:16 3.41 
4 *109:16 *109:18 422.934 
5 *109:18 *109:20 3.41 
6 *109:20 *109:22 166.452 
7 *109:22 io_out[12] 5.88377 
*END

*D_NET *110 0.886877
*CONN
*P io_out[13] O
*I *988:io_out[6] O *D soc_sys
*CAP
1 io_out[13] 0.000980536
2 *988:io_out[6] 0.00835164
3 *110:26 0.0484678
4 *110:24 0.0474872
5 *110:22 0.0924585
6 *110:20 0.0924585
7 *110:18 0.0703581
8 *110:16 0.0787098
9 *110:16 *119:16 0.000676463
10 *110:18 *121:14 0
11 *110:18 *791:15 0.0110475
12 *110:22 *985:trimCurr[5] 0.011506
13 *110:22 *985:CurrAbsTrim[4] 0
14 *110:22 *116:39 0
15 *110:22 *861:15 0
16 *110:26 *111:41 0.0429896
17 *988:io_in[26] *110:16 0.000140978
18 *988:io_in[29] *110:16 0.000144183
19 *35:9 *110:26 0.0240446
20 *45:19 *110:22 0
21 *73:35 *110:16 0.00380778
22 *75:18 *110:22 0
23 *107:33 *110:22 0.273484
24 *109:22 *110:26 0.0797646
*RES
1 *988:io_out[6] *110:16 7.34947 
2 *110:16 *110:18 233.994 
3 *110:18 *110:20 3.41 
4 *110:20 *110:22 431.438 
5 *110:22 *110:24 3.41 
6 *110:24 *110:26 208.32 
7 *110:26 io_out[13] 6.0279 
*END

*D_NET *111 0.978042
*CONN
*P io_out[14] O
*I *988:io_out[7] O *D soc_sys
*CAP
1 io_out[14] 0.000879467
2 *988:io_out[7] 0.00104695
3 *111:41 0.0714184
4 *111:39 0.0705389
5 *111:37 0.0656591
6 *111:35 0.0656591
7 *111:33 0.00920737
8 *111:31 0.00920737
9 *111:29 0.0377671
10 *111:27 0.04031
11 *111:9 0.00462742
12 *111:7 0.00313139
13 *111:7 *112:7 0
14 *111:9 *118:9 0.00802585
15 *111:9 *136:9 0.00171293
16 *111:27 *112:9 0.00156928
17 *111:27 *113:27 0.0082438
18 *111:29 *113:29 0.000561429
19 *111:29 *540:25 0.0251498
20 *111:37 *112:21 0.0166099
21 *111:37 *113:37 0.00957119
22 *111:37 *766:21 0.0155446
23 *111:37 *769:13 0.0350667
24 *111:41 *143:25 0.00116674
25 *988:io_in[20] *111:27 0.000174332
26 *988:io_in[3] *111:27 0.000225755
27 *988:io_in[3] *111:29 0.00063183
28 *31:29 *111:29 0.000472656
29 *35:9 *111:41 0.178641
30 *35:17 *111:33 0.0105444
31 *37:25 *111:33 0.000362179
32 *40:25 *111:33 0.0548589
33 *40:39 *111:27 0.000908091
34 *42:47 *111:27 4.43356e-05
35 *42:49 *111:9 0.00060565
36 *44:39 *111:27 0.001392
37 *46:33 *111:9 0.000664365
38 *69:29 *111:29 0.116438
39 *70:29 *111:33 0.0542557
40 *98:13 *111:9 0.00257804
41 *98:21 *111:27 0.00822061
42 *105:24 *111:9 0
43 *105:40 *111:27 0.00135984
44 *110:26 *111:41 0.0429896
*RES
1 *988:io_out[7] *111:7 5.4216 
2 *111:7 *111:9 98.4821 
3 *111:9 *111:27 40.0036 
4 *111:27 *111:29 1125.48 
5 *111:29 *111:31 4.5 
6 *111:31 *111:33 677.089 
7 *111:33 *111:35 4.5 
8 *111:35 *111:37 1446.66 
9 *111:37 *111:39 4.5 
10 *111:39 *111:41 2274.03 
11 *111:41 io_out[14] 5.99187 
*END

*D_NET *112 0.956181
*CONN
*P io_out[15] O
*I *986:lpwr I *D CF_BUF_HIZ
*I *986:clk_chop I *D CF_BUF_HIZ
*I *986:rail I *D CF_BUF_HIZ
*I *986:rc I *D CF_BUF_HIZ
*I *988:io_out[8] O *D soc_sys
*CAP
1 io_out[15] 0.112845
2 *986:lpwr 0.000116146
3 *986:clk_chop 0.000167766
4 *986:rail 0.000112997
5 *986:rc 0.00142213
6 *988:io_out[8] 0.00080192
7 *112:50 0.112845
8 *112:48 0.0145076
9 *112:46 0.0145076
10 *112:21 0.0297121
11 *112:19 0.0283513
12 *112:17 0.0148938
13 *112:15 0.0148938
14 *112:13 0.0183785
15 *112:11 0.0183785
16 *112:9 0.00364313
17 *112:7 0.00444505
18 *986:rc *986:gain[0] 0.0016751
19 *112:7 *113:13 0
20 *112:9 *113:13 0.00108437
21 *112:9 *113:27 0.000135968
22 *112:9 *142:23 0.00019425
23 *112:9 *143:9 0.0136603
24 *112:13 *114:13 4.97144e-05
25 *112:13 *946:29 0.000490534
26 *112:17 *113:33 0.0543149
27 *112:17 *900:9 0.0285668
28 *112:21 *113:37 0.0124209
29 *112:21 *114:21 0.0641207
30 *112:21 *766:21 0.00120603
31 *112:21 *769:13 0.000138738
32 *112:21 *772:13 0.000122494
33 *112:21 *773:13 0.00799585
34 *112:21 *877:13 0.0366558
35 *988:io_in[2] *112:9 0.000483892
36 *23:36 *112:48 0.0361816
37 *24:13 *112:48 0.00222969
38 *25:13 *112:48 0.0197243
39 *43:37 *112:9 0.00137974
40 *44:41 *112:9 0.000107036
41 *58:17 *112:9 0.000116155
42 *69:9 *112:9 0
43 *70:25 *112:13 0.126786
44 *70:33 *112:48 0.00561878
45 *73:35 *112:7 0
46 *104:21 *112:13 0.125307
47 *105:24 *112:9 0.000163427
48 *105:36 *112:9 0
49 *105:40 *112:9 0.00556247
50 *107:9 *112:9 0.00148716
51 *111:7 *112:7 0
52 *111:27 *112:9 0.00156928
53 *111:37 *112:21 0.0166099
*RES
1 *988:io_out[8] *112:7 4.9892 
2 *112:7 *112:9 189.554 
3 *112:9 *112:11 3.41 
4 *112:11 *112:13 197.798 
5 *112:13 *112:15 3.41 
6 *112:15 *112:17 669.804 
7 *112:17 *112:19 3.41 
8 *112:19 *112:21 140.505 
9 *112:21 *986:rc 41.1154 
10 *986:rc *986:rail 1.02679 
11 *986:rail *986:clk_chop 0.821429 
12 *986:clk_chop *986:lpwr 1.84821 
13 *986:lpwr *112:46 3.41 
14 *112:46 *112:48 86.0225 
15 *112:48 *112:50 3.41 
16 *112:50 io_out[15] 2322.99 
*END

*D_NET *113 1.01466
*CONN
*P io_out[16] O
*I *988:io_out[9] O *D soc_sys
*CAP
1 io_out[16] 0.00130111
2 *988:io_out[9] 0.00168125
3 *113:45 0.00979271
4 *113:43 0.00849161
5 *113:41 0.0721033
6 *113:39 0.0721033
7 *113:37 0.0128057
8 *113:35 0.0128057
9 *113:33 0.00936496
10 *113:31 0.00936496
11 *113:29 0.0150918
12 *113:27 0.0193215
13 *113:13 0.005911
14 *113:13 *114:7 0
15 *113:27 *988:wbs_stb_i 0.000155129
16 *113:27 *644:11 1.65923e-05
17 *113:29 *540:25 0.000321836
18 *113:29 *541:25 2.11048e-05
19 *113:29 *541:27 0.0228138
20 *113:29 *608:27 0
21 *113:33 *900:9 0.000365161
22 *113:37 *769:13 6.8529e-05
23 *113:37 *772:13 0.0362779
24 *113:37 *773:13 0.0363638
25 *113:37 *775:13 0.000373963
26 *113:41 *114:25 0.192592
27 *113:45 io_out[17] 0.00163037
28 *988:io_in[0] *113:27 0.00820353
29 *988:io_in[1] *113:27 0.000112619
30 *988:io_in[2] *113:27 2.26355e-05
31 *988:io_in[30] *113:13 1.64148e-05
32 *988:io_in[3] *113:27 0.00490395
33 *31:29 *113:29 0.115981
34 *36:29 *113:29 0
35 *37:13 io_out[16] 0.00209658
36 *37:13 *113:45 0.0422725
37 *38:9 *113:45 0.0229222
38 *38:21 *113:33 0.0550301
39 *40:29 *113:29 0.114858
40 *40:39 *113:29 0.000160191
41 *43:35 *113:27 0.00211134
42 *43:37 *113:27 0.00169083
43 *44:39 *113:27 0.00170087
44 *44:39 *113:29 0.000299497
45 *44:41 *113:27 0.00186666
46 *57:11 *113:27 2.26355e-05
47 *58:17 *113:13 0.000309406
48 *58:17 *113:27 0.000425476
49 *66:21 *113:33 0.00777231
50 *69:9 *113:13 0.00119472
51 *73:35 *113:13 0.000187284
52 *98:21 *113:27 0.00303274
53 *107:9 *113:13 0
54 *111:27 *113:27 0.0082438
55 *111:29 *113:29 0.000561429
56 *111:37 *113:37 0.00957119
57 *112:7 *113:13 0
58 *112:9 *113:13 0.00108437
59 *112:9 *113:27 0.000135968
60 *112:17 *113:33 0.0543149
61 *112:21 *113:37 0.0124209
*RES
1 *988:io_out[9] *113:13 47.3202 
2 *113:13 *113:27 49.3224 
3 *113:27 *113:29 1106.59 
4 *113:29 *113:31 4.5 
5 *113:31 *113:33 678.911 
6 *113:33 *113:35 4.5 
7 *113:35 *113:37 572.661 
8 *113:37 *113:39 4.5 
9 *113:39 *113:41 2361 
10 *113:41 *113:43 4.5 
11 *113:43 *113:45 397.08 
12 *113:45 io_out[16] 41.0982 
*END

*D_NET *114 0.890005
*CONN
*P io_out[17] O
*I *988:io_out[10] O *D soc_sys
*CAP
1 io_out[17] 0.0084467
2 *988:io_out[10] 0.00103705
3 *114:25 0.080526
4 *114:23 0.0720792
5 *114:21 0.0155375
6 *114:19 0.0155375
7 *114:17 0.0153316
8 *114:15 0.0153316
9 *114:13 0.035485
10 *114:11 0.035485
11 *114:9 0.00247833
12 *114:7 0.00351537
13 *114:7 *115:7 0
14 *114:9 *118:9 7.52474e-05
15 *114:13 *620:17 0
16 *114:13 *622:13 0
17 *114:13 *627:23 0
18 *114:13 *946:29 0.00357674
19 *114:13 *958:25 6.07555e-05
20 *114:17 *904:9 0.0312986
21 *114:17 *932:18 0.00294622
22 *114:17 *935:13 0.0307113
23 *114:21 *669:19 0.00221715
24 *114:21 *773:13 0.000254433
25 *114:21 *774:13 0.00828391
26 *114:21 *775:13 0.0076806
27 *114:21 *783:13 0.0346451
28 *114:21 *788:13 0.00012071
29 *114:21 *877:13 0.000813716
30 *37:13 io_out[17] 0.00327635
31 *38:9 io_out[17] 0.00525384
32 *46:29 *114:13 0.0287546
33 *70:21 *114:9 0.0160189
34 *73:35 *114:7 0.000229032
35 *104:17 *114:9 0.0161151
36 *104:21 *114:13 0.125695
37 *104:25 *114:17 0.012795
38 *112:13 *114:13 4.97144e-05
39 *112:21 *114:21 0.0641207
40 *113:13 *114:7 0
41 *113:41 *114:25 0.192592
42 *113:45 io_out[17] 0.00163037
*RES
1 *988:io_out[10] *114:7 5.6378 
2 *114:7 *114:9 198.054 
3 *114:9 *114:11 3.41 
4 *114:11 *114:13 196.212 
5 *114:13 *114:15 3.41 
6 *114:15 *114:17 671.625 
7 *114:17 *114:19 3.41 
8 *114:19 *114:21 102.598 
9 *114:21 *114:23 3.41 
10 *114:23 *114:25 2360.7 
11 *114:25 io_out[17] 34.2223 
*END

*D_NET *115 0.637051
*CONN
*P io_out[18] O
*I *988:io_out[11] O *D soc_sys
*CAP
1 io_out[18] 0.152986
2 *988:io_out[11] 0.000524233
3 *115:27 0.152986
4 *115:25 0.0160585
5 *115:23 0.0163486
6 *115:17 0.0255645
7 *115:15 0.0258749
8 *115:9 0.0060623
9 *115:7 0.00598597
10 *115:7 *116:33 0
11 *115:9 *126:9 0.00253631
12 *115:15 *118:13 6.06448e-05
13 *115:15 *143:13 0.00121674
14 *115:17 *989:wbs_adr_i[11] 0.000171959
15 *115:17 *989:wbs_adr_i[3] 0.00364641
16 *115:17 *118:13 0.0026117
17 *115:17 *143:13 0.124461
18 *115:17 *581:15 0.0163383
19 *115:17 *633:15 0.0076482
20 *115:17 *882:15 0.0017221
21 *115:17 *909:19 0.000381188
22 *115:23 *893:9 0
23 *115:23 *920:13 0
24 *115:23 *944:21 0.000224375
25 *115:25 *989:wbs_adr_i[26] 0.0004052
26 *115:25 *989:wbs_adr_i[28] 0.000131211
27 *115:25 *541:35 0
28 *115:25 *893:13 0.000322912
29 *115:25 *898:13 0.0297217
30 *115:25 *923:9 0
31 *115:25 *950:13 0.00256088
32 *115:25 *958:29 0
33 *31:29 *115:25 0
34 *32:37 *115:15 0.000705421
35 *32:37 *115:17 0.000461868
36 *32:39 *115:9 9.84624e-05
37 *33:29 *115:25 0
38 *33:41 *115:9 0.00640037
39 *34:35 *115:15 0.00243178
40 *34:35 *115:17 0.00426811
41 *34:37 *115:9 6.77008e-05
42 *37:37 *115:17 0.0166845
43 *43:37 *115:9 0
44 *44:41 *115:9 0
45 *55:23 *115:9 3.38504e-05
46 *69:9 *115:9 0.00934661
47 *105:40 *115:9 0
48 *114:7 *115:7 0
*RES
1 *988:io_out[11] *115:7 4.41267 
2 *115:7 *115:9 217.482 
3 *115:9 *115:15 7.61023 
4 *115:15 *115:17 195.744 
5 *115:17 *115:23 13.9546 
6 *115:23 *115:25 411.25 
7 *115:25 *115:27 4.5 
8 *115:27 io_out[18] 3042.61 
*END

*D_NET *116 0.546296
*CONN
*P io_out[19] O
*I *988:io_out[12] O *D soc_sys
*CAP
1 io_out[19] 0.0737177
2 *988:io_out[12] 0.0138505
3 *116:41 0.0737177
4 *116:39 0.0404075
5 *116:37 0.0404075
6 *116:35 0.0696099
7 *116:33 0.0834604
8 *116:33 *118:7 5.4735e-06
9 *116:33 *123:11 1.89327e-05
10 *116:33 *124:7 4.69567e-05
11 *116:35 *806:9 0.00345086
12 *116:39 *861:15 0.018731
13 *988:io_in[26] *116:33 0.000360647
14 *988:io_in[29] *116:33 2.28437e-05
15 *48:49 *116:33 0.000350589
16 *50:19 *116:33 0.00195464
17 *75:18 *116:39 0.118304
18 *103:12 *116:33 0.00291176
19 *107:27 *116:33 0.00496737
20 *110:22 *116:39 0
21 *115:7 *116:33 0
*RES
1 *988:io_out[12] *116:33 46.6392 
2 *116:33 *116:35 219.186 
3 *116:35 *116:37 3.41 
4 *116:37 *116:39 188.465 
5 *116:39 *116:41 3.41 
6 *116:41 io_out[19] 1517.31 
*END

*D_NET *118 0.617238
*CONN
*P io_out[20] O
*I *988:io_out[13] O *D soc_sys
*CAP
1 io_out[20] 7.14384e-05
2 *988:io_out[13] 0.000789174
3 *118:21 0.0131755
4 *118:19 0.0131041
5 *118:17 0.163241
6 *118:15 0.163241
7 *118:13 0.0102769
8 *118:11 0.0102769
9 *118:9 0.00350321
10 *118:7 0.00429238
11 *118:9 *136:9 0.00297714
12 *118:9 *143:9 0
13 *118:13 *143:13 0.000112832
14 *118:13 *581:15 0.0260021
15 *118:13 *633:15 0.0135128
16 *118:17 *676:17 0.0127078
17 *118:17 *678:17 0.0165358
18 *988:io_in[29] *118:7 0.00114692
19 *988:io_in[30] *118:9 0.00134257
20 *33:37 *118:13 7.81766e-05
21 *34:35 *118:13 0.0100309
22 *37:37 *118:13 0.0554094
23 *42:13 *118:21 0.0232186
24 *42:49 *118:9 0.00436676
25 *43:11 *118:21 0.0277857
26 *66:25 *118:13 0
27 *70:21 *118:9 0.0169015
28 *81:28 *118:21 0.0113579
29 *98:13 *118:9 0.00100019
30 *111:9 *118:9 0.00802585
31 *114:9 *118:9 7.52474e-05
32 *115:15 *118:13 6.06448e-05
33 *115:17 *118:13 0.0026117
34 *116:33 *118:7 5.4735e-06
*RES
1 *988:io_out[13] *118:7 5.49367 
2 *118:7 *118:9 223.554 
3 *118:9 *118:11 3.41 
4 *118:11 *118:13 89.8781 
5 *118:13 *118:15 3.41 
6 *118:15 *118:17 534.418 
7 *118:17 *118:19 3.41 
8 *118:19 *118:21 81.4463 
9 *118:21 io_out[20] 4.68679 
*END

*D_NET *119 0.431598
*CONN
*P io_out[21] O
*I *988:io_out[14] O *D soc_sys
*CAP
1 io_out[21] 0.0730494
2 *988:io_out[14] 0.00943574
3 *119:24 0.0730494
4 *119:22 0.0209942
5 *119:20 0.0209942
6 *119:18 0.0554035
7 *119:16 0.0648393
8 *119:16 *121:12 0.000147044
9 *119:18 *129:29 0
10 *119:22 *985:mux2sel 0.000194366
11 *988:io_in[26] *119:16 6.48675e-05
12 *988:io_in[29] *119:16 0.000350157
13 *72:28 *119:22 0
14 *73:35 *119:16 0.000609183
15 *76:25 *119:18 0.0529924
16 *77:16 *119:18 0
17 *77:20 *119:22 0.0587977
18 *107:29 *119:18 0
19 *110:16 *119:16 0.000676463
*RES
1 *988:io_out[14] *119:16 9.46284 
2 *119:16 *119:18 232.716 
3 *119:18 *119:20 3.41 
4 *119:20 *119:22 93.3373 
5 *119:22 *119:24 3.41 
6 *119:24 io_out[21] 1503.96 
*END

*D_NET *120 0.432985
*CONN
*P io_out[22] O
*I *988:io_out[15] O *D soc_sys
*CAP
1 io_out[22] 0.000136788
2 *988:io_out[15] 0.0097069
3 *120:43 0.0113853
4 *120:41 0.0128123
5 *120:35 0.074107
6 *120:33 0.0736483
7 *120:27 0.0729164
8 *120:25 0.0815181
9 *120:25 *129:19 2.58546e-05
10 *120:25 *130:15 0.000540257
11 *120:25 *136:9 0.00264461
12 *120:27 *655:18 0.0149421
13 *120:27 *715:31 5.09315e-05
14 *120:27 *726:9 0.0161943
15 *120:33 *121:20 0.000333595
16 *120:41 io_out[23] 0.00260397
17 *988:io_in[26] *120:25 0.000131288
18 *45:11 *120:41 0.000511229
19 *45:11 *120:43 0.00726539
20 *47:15 *120:35 0.00808376
21 *70:21 *120:25 0.000563604
22 *81:28 *120:41 8.19541e-05
23 *81:28 *120:43 0.00296689
24 *82:30 *120:41 0.000128134
25 *82:30 *120:43 0.00926106
26 *86:26 *120:35 0.0300375
27 *108:9 *120:25 0.000387281
*RES
1 *988:io_out[15] *120:25 23.337 
2 *120:25 *120:27 225.472 
3 *120:27 *120:33 10.2181 
4 *120:33 *120:35 1493.7 
5 *120:35 *120:41 10.1326 
6 *120:41 *120:43 49.3766 
7 *120:43 io_out[22] 5.90107 
*END

*D_NET *121 0.434071
*CONN
*P io_out[23] O
*I *988:io_out[16] O *D soc_sys
*CAP
1 io_out[23] 0.000567303
2 *988:io_out[16] 0.00911532
3 *121:22 0.0449355
4 *121:20 0.0467997
5 *121:14 0.0759196
6 *121:12 0.0826035
7 *121:14 *791:15 0
8 *121:14 *793:9 0.00340196
9 *121:22 *656:15 0.000237443
10 *121:22 *670:15 0.00526711
11 *988:io_in[26] *121:12 2.62487e-05
12 *45:11 io_out[23] 0.00256055
13 *45:13 *121:22 0.122144
14 *49:15 *121:22 0.0234815
15 *51:19 *121:14 0
16 *71:27 *121:22 0.0106047
17 *72:28 *121:20 0.00267691
18 *73:35 *121:12 0
19 *75:14 *121:14 0
20 *82:24 *121:22 0.000622683
21 *82:30 io_out[23] 2.24813e-05
22 *110:18 *121:14 0
23 *119:16 *121:12 0.000147044
24 *120:33 *121:20 0.000333595
25 *120:41 io_out[23] 0.00260397
*RES
1 *988:io_out[16] *121:12 6.77007 
2 *121:12 *121:14 230.372 
3 *121:14 *121:20 15.9834 
4 *121:20 *121:22 1496.73 
5 *121:22 io_out[23] 13.3938 
*END

*D_NET *122 0.413454
*CONN
*P io_out[24] O
*I *988:io_out[17] O *D soc_sys
*CAP
1 io_out[24] 0.000133909
2 *988:io_out[17] 0.000714965
3 *122:17 0.0537089
4 *122:15 0.0540284
5 *122:9 0.0311577
6 *122:7 0.0314192
7 *122:7 *123:11 0
8 *122:9 *123:11 0.00349072
9 *122:9 *123:13 0.000333771
10 *122:9 *127:15 0.00255738
11 *122:9 *132:27 0.00014833
12 *122:9 *132:29 0.00839535
13 *122:9 *142:25 0.0144758
14 *122:15 io_out[31] 4.98004e-05
15 *122:17 *123:21 0.000188869
16 *46:9 *122:17 0.121843
17 *46:17 *122:9 0.0649935
18 *50:11 *122:9 0.00309744
19 *55:15 *122:9 0.00521992
20 *55:23 *122:9 0
21 *58:17 *122:9 0.00126208
22 *67:17 *122:9 0
23 *69:9 *122:9 0.000922561
24 *73:15 *122:9 0
25 *73:17 *122:9 0.000164963
26 *74:9 *122:9 0
27 *76:23 *122:9 0
28 *85:9 *122:9 0
29 *89:9 *122:9 0
30 *91:17 *122:17 0.0151481
*RES
1 *988:io_out[17] *122:7 4.773 
2 *122:7 *122:9 1029.23 
3 *122:9 *122:15 7.8399 
4 *122:15 *122:17 286.515 
5 *122:17 io_out[24] 3.85963 
*END

*D_NET *123 0.475512
*CONN
*P io_out[25] O
*I *988:io_out[18] O *D soc_sys
*CAP
1 io_out[25] 0.000236306
2 *988:io_out[18] 0.00140169
3 *123:21 0.0304692
4 *123:19 0.0305099
5 *123:13 0.0151073
6 *123:11 0.016232
7 *123:11 *124:7 0
8 *123:11 *124:9 0.000157585
9 *123:13 *124:9 0.0615114
10 *123:13 *130:25 0.0163284
11 *123:13 *132:27 0.000206707
12 *123:13 *132:29 0.00300235
13 *123:13 *142:25 0.0144813
14 *123:21 *124:17 0.0103026
15 *123:21 *125:21 0.0834487
16 analog_io[20] *123:21 0.000243574
17 io_oeb[35] *123:13 0.00126089
18 *46:9 io_out[25] 0.000322558
19 *46:9 *123:21 0.102188
20 *46:17 *123:13 0.0604851
21 *58:17 *123:11 0.000358471
22 *73:17 *123:11 0.00319833
23 *76:23 *123:13 0.000268517
24 *91:17 *123:21 0.0197588
25 *116:33 *123:11 1.89327e-05
26 *122:7 *123:11 0
27 *122:9 *123:11 0.00349072
28 *122:9 *123:13 0.000333771
29 *122:17 *123:21 0.000188869
*RES
1 *988:io_out[18] *123:11 48.6129 
2 *123:11 *123:13 927.232 
3 *123:13 *123:19 7.4075 
4 *123:19 *123:21 255.407 
5 *123:21 io_out[25] 4.05077 
*END

*D_NET *124 0.384649
*CONN
*P io_out[26] O
*I *988:io_out[19] O *D soc_sys
*CAP
1 io_out[26] 0.000341493
2 *988:io_out[19] 0.000802871
3 *124:17 0.0371238
4 *124:15 0.0368981
5 *124:9 0.0143834
6 *124:7 0.0150704
7 *124:7 *125:11 0
8 *124:9 *125:13 0.0457257
9 *124:9 *130:25 0.0125586
10 *124:9 *132:27 0.000110879
11 *124:9 *132:29 0.00336248
12 *124:9 *142:23 0.00033827
13 *124:17 *125:21 0.097905
14 *124:17 *130:25 0.0193394
15 io_oeb[35] *124:9 0.00112718
16 *46:9 io_out[26] 0.000322558
17 *50:11 *124:17 0.0237496
18 *73:17 *124:9 0.00290401
19 *76:23 *124:9 0.000240042
20 *105:24 *124:9 2.00842e-05
21 *107:9 *124:9 0.000306447
22 *116:33 *124:7 4.69567e-05
23 *123:11 *124:7 0
24 *123:11 *124:9 0.000157585
25 *123:13 *124:9 0.0615114
26 *123:21 *124:17 0.0103026
*RES
1 *988:io_out[19] *124:7 4.9892 
2 *124:7 *124:9 794.268 
3 *124:9 *124:15 7.04717 
4 *124:15 *124:17 244.754 
5 *124:17 io_out[26] 4.33903 
*END

*D_NET *125 0.384188
*CONN
*P io_out[27] O
*I *988:io_out[20] O *D soc_sys
*CAP
1 io_out[27] 0.000201033
2 *988:io_out[20] 0.000716067
3 *125:21 0.0253693
4 *125:19 0.0252877
5 *125:13 0.00866621
6 *125:11 0.00926284
7 *125:11 *126:7 1.36838e-06
8 *125:13 *130:17 0.0013716
9 *125:13 *130:25 0.00212801
10 *125:13 *132:11 0.000591414
11 *125:13 *132:13 0.00440112
12 *125:13 *142:23 0.000693123
13 *125:19 io_out[33] 0
14 *125:21 *130:25 0.0104042
15 *125:21 *131:21 0.0192631
16 io_oeb[35] *125:13 0.00100563
17 *76:23 *125:13 0.000248006
18 *91:9 *125:13 0.0302489
19 *91:17 *125:21 0.00774852
20 *94:9 *125:13 0.0070093
21 *105:24 *125:13 0.00157992
22 *107:27 *125:11 0.000854888
23 *108:9 *125:13 5.60921e-05
24 *123:21 *125:21 0.0834487
25 *124:7 *125:11 0
26 *124:9 *125:13 0.0457257
27 *124:17 *125:21 0.097905
*RES
1 *988:io_out[20] *125:11 5.24927 
2 *125:11 *125:13 561.732 
3 *125:13 *125:19 7.11923 
4 *125:19 *125:21 244.541 
5 *125:21 io_out[27] 3.8753 
*END

*D_NET *126 0.238402
*CONN
*P io_out[28] O
*I *988:io_out[21] O *D soc_sys
*CAP
1 io_out[28] 0.00340934
2 *988:io_out[21] 0.000411858
3 *126:27 0.105297
4 *126:25 0.105839
5 *126:9 0.00639756
6 *126:7 0.00285832
7 *126:7 *127:15 0
8 *126:27 *822:11 0.000817769
9 *988:io_in[25] *126:25 0.000144979
10 *988:io_in[26] *126:25 4.2486e-05
11 *988:io_in[27] *126:25 0
12 *17:11 *126:27 0.0028705
13 *55:23 *126:9 0.0077016
14 *69:9 *126:9 0
15 *81:22 *126:27 0
16 *93:14 *126:27 0
17 *107:27 *126:7 7.35965e-05
18 *115:9 *126:9 0.00253631
19 *125:11 *126:7 1.36838e-06
*RES
1 *988:io_out[21] *126:7 4.26853 
2 *126:7 *126:9 96.6607 
3 *126:9 *126:25 10.0581 
4 *126:25 *126:27 317.836 
5 *126:27 io_out[28] 12.9557 
*END

*D_NET *127 0.285369
*CONN
*P io_out[29] O
*I *988:io_out[22] O *D soc_sys
*CAP
1 io_out[29] 0.00103783
2 *988:io_out[22] 0.001567
3 *127:25 0.0327384
4 *127:23 0.0327341
5 *127:17 0.00329189
6 *127:15 0.0038254
7 *127:15 *129:19 0
8 *127:15 *136:7 3.70749e-05
9 *127:17 *130:15 9.21001e-05
10 *127:17 *131:11 0.000776189
11 *127:17 *131:13 0.0065433
12 *127:17 *131:21 0.000884078
13 io_oeb[35] *127:15 7.43923e-05
14 io_oeb[35] *127:17 0.000437045
15 *46:9 io_out[29] 0.000322558
16 *54:11 *127:25 0.0579809
17 *56:35 *127:25 0.0164254
18 *58:17 *127:15 0.000110498
19 *69:9 *127:15 0.00139904
20 *70:19 *127:15 7.13706e-06
21 *70:19 *127:17 0.000265217
22 *83:9 *127:17 0.00254597
23 *83:15 *127:23 0
24 *87:31 *127:25 0.108741
25 *98:13 *127:17 0.00895668
26 *104:15 *127:15 0
27 *108:9 *127:17 0.00201822
28 *122:9 *127:15 0.00255738
29 *126:7 *127:15 0
*RES
1 *988:io_out[22] *127:15 43.985 
2 *127:15 *127:17 154.339 
3 *127:17 *127:23 8.7047 
4 *127:23 *127:25 227.07 
5 *127:25 io_out[29] 5.9245 
*END

*D_NET *129 0.191381
*CONN
*P io_out[30] O
*I *988:io_out[23] O *D soc_sys
*CAP
1 io_out[30] 0.00941214
2 *988:io_out[23] 0.00127911
3 *129:29 0.0609328
4 *129:27 0.0613797
5 *129:19 0.0111381
6 *129:19 io_out[35] 0.000612609
7 *129:19 *130:15 3.88625e-06
8 *129:27 io_out[35] 0
9 *129:29 *795:9 0.00690189
10 *988:io_in[26] *129:19 0.000121549
11 *50:19 *129:19 0.00294153
12 *51:19 *129:29 0
13 *69:7 *129:19 1.12406e-05
14 *75:14 *129:29 0
15 *77:16 *129:29 0.0365638
16 *105:22 *129:27 5.72e-05
17 *119:18 *129:29 0
18 *120:25 *129:19 2.58546e-05
19 *127:15 *129:19 0
*RES
1 *988:io_out[23] *129:19 49.9563 
2 *129:19 *129:27 3.92267 
3 *129:27 *129:29 211.835 
4 *129:29 io_out[30] 29.5874 
*END

*D_NET *130 0.208554
*CONN
*P io_out[31] O
*I *988:io_out[24] O *D soc_sys
*CAP
1 io_out[31] 0.000417497
2 *988:io_out[24] 0.00143732
3 *130:25 0.0154331
4 *130:23 0.0151549
5 *130:17 0.00576897
6 *130:15 0.00706702
7 *130:15 *131:11 0.00177126
8 *130:15 *133:15 0.00106167
9 *130:15 *136:9 0.000139264
10 *130:17 *132:13 0.00436691
11 *130:17 *132:27 0.000225474
12 *130:17 *133:17 0
13 *130:25 *131:21 0.00196209
14 *130:25 *132:29 0.0196199
15 io_oeb[35] *130:17 0.000855699
16 *50:11 *130:25 0.00786036
17 *55:13 *130:25 0.000158487
18 *55:15 *130:25 0.0130578
19 *70:19 *130:15 0.000169234
20 *70:19 *130:17 0.000182471
21 *91:9 *130:17 0.0161955
22 *91:17 io_out[31] 0.000322558
23 *94:9 *130:17 0.00316858
24 *94:9 *130:25 0.0146768
25 *98:13 *130:15 0.000509724
26 *108:9 *130:17 0.0141551
27 *120:25 *130:15 0.000540257
28 *122:15 io_out[31] 4.98004e-05
29 *123:13 *130:25 0.0163284
30 *124:9 *130:25 0.0125586
31 *124:17 *130:25 0.0193394
32 *125:13 *130:17 0.0013716
33 *125:13 *130:25 0.00212801
34 *125:21 *130:25 0.0104042
35 *127:17 *130:15 9.21001e-05
36 *129:19 *130:15 3.88625e-06
*RES
1 *988:io_out[24] *130:15 41.7347 
2 *130:15 *130:17 282.598 
3 *130:17 *130:23 7.04717 
4 *130:23 *130:25 122.667 
5 *130:25 io_out[31] 4.48317 
*END

*D_NET *131 0.131798
*CONN
*P io_out[32] O
*I *988:io_out[25] O *D soc_sys
*CAP
1 io_out[32] 0.000129308
2 *988:io_out[25] 0.00167268
3 *131:21 0.0145736
4 *131:19 0.0144952
5 *131:13 0.00122452
6 *131:11 0.00284629
7 *131:11 *132:11 0
8 *131:11 *133:17 0.000801949
9 *131:11 *136:9 0.000296678
10 *131:13 *133:17 0.00130315
11 *70:19 *131:11 0.00174101
12 *83:9 *131:13 0.00318675
13 *83:9 *131:21 0.00100133
14 *91:17 *131:21 0.0248762
15 *92:25 *131:21 0.0158638
16 *94:9 *131:21 0.0162729
17 *98:13 *131:21 0.000132513
18 *105:22 *131:11 0.000179746
19 *125:21 *131:21 0.0192631
20 *127:17 *131:11 0.000776189
21 *127:17 *131:13 0.0065433
22 *127:17 *131:21 0.000884078
23 *130:15 *131:11 0.00177126
24 *130:25 *131:21 0.00196209
*RES
1 *988:io_out[25] *131:11 45.1193 
2 *131:11 *131:13 80.2321 
3 *131:13 *131:19 6.90303 
4 *131:19 *131:21 114.677 
5 *131:21 io_out[32] 3.73117 
*END

*D_NET *132 0.130205
*CONN
*P io_out[33] O
*I *988:io_out[26] O *D soc_sys
*CAP
1 io_out[33] 0.000465147
2 *988:io_out[26] 0.00113313
3 *132:29 0.0091471
4 *132:27 0.00971134
5 *132:13 0.00173102
6 *132:11 0.00183476
7 *132:11 *133:15 0
8 *132:11 *136:9 0.000109803
9 *132:11 *142:23 0.000338294
10 *132:27 io_out[35] 0
11 *132:27 *142:25 0.000455688
12 *132:29 *142:25 0.00135925
13 io_oeb[35] *132:13 0.000914777
14 io_oeb[35] *132:27 0.000792124
15 io_oeb[35] *132:29 0.00181323
16 *46:17 *132:29 0.00604504
17 *55:15 *132:29 0.0340932
18 *57:11 *132:29 1.30275e-05
19 *58:17 *132:27 0.00210531
20 *58:17 *132:29 0.002455
21 *76:23 *132:27 0.00101579
22 *83:7 *132:27 0
23 *91:17 io_out[33] 0.000246133
24 *94:9 *132:29 0.00813019
25 *105:22 *132:11 0.000421357
26 *108:9 *132:11 0.00143003
27 *108:9 *132:13 1.37164e-05
28 *122:9 *132:27 0.00014833
29 *122:9 *132:29 0.00839535
30 *123:13 *132:27 0.000206707
31 *123:13 *132:29 0.00300235
32 *124:9 *132:27 0.000110879
33 *124:9 *132:29 0.00336248
34 *125:13 *132:11 0.000591414
35 *125:13 *132:13 0.00440112
36 *125:19 io_out[33] 0
37 *130:17 *132:13 0.00436691
38 *130:17 *132:27 0.000225474
39 *130:25 *132:29 0.0196199
40 *131:11 *132:11 0
*RES
1 *988:io_out[26] *132:11 23.4733 
2 *132:11 *132:13 54.1607 
3 *132:13 *132:27 18.8272 
4 *132:27 *132:29 76.4314 
5 *132:29 io_out[33] 4.52077 
*END

*D_NET *133 0.0398189
*CONN
*P io_out[34] O
*I *988:io_out[27] O *D soc_sys
*CAP
1 io_out[34] 0.000181471
2 *988:io_out[27] 0.00136966
3 *133:17 0.00963387
4 *133:15 0.0108221
5 *133:15 *136:9 0.0001326
6 *48:49 *133:15 1.98951e-05
7 *70:19 *133:17 9.51977e-05
8 *83:9 *133:17 0.00457586
9 *91:9 *133:17 0
10 *97:9 *133:17 0.0087689
11 *98:13 *133:15 0.00105268
12 *108:9 *133:17 0
13 *130:15 *133:15 0.00106167
14 *130:17 *133:17 0
15 *131:11 *133:17 0.000801949
16 *131:13 *133:17 0.00130315
17 *132:11 *133:15 0
*RES
1 *988:io_out[27] *133:15 29.2162 
2 *133:15 *133:17 284.723 
3 *133:17 io_out[34] 3.94267 
*END

*D_NET *134 0.013219
*CONN
*P io_out[35] O
*I *988:io_out[28] O *D soc_sys
*CAP
1 io_out[35] 0.00475831
2 *988:io_out[28] 0.00475831
3 io_out[35] io_out[36] 5.49032e-05
4 io_out[35] *136:7 5.0027e-06
5 *988:io_in[26] io_out[35] 0.000959446
6 *48:49 io_out[35] 5.17998e-06
7 *50:19 io_out[35] 2.00751e-05
8 *56:35 io_out[35] 0.000824266
9 *69:7 io_out[35] 4.73891e-05
10 *71:25 io_out[35] 0.000129529
11 *72:22 io_out[35] 0.000142048
12 *75:12 io_out[35] 9.90112e-05
13 *80:7 io_out[35] 4.50903e-05
14 *81:22 io_out[35] 0.00030963
15 *103:12 io_out[35] 0.00018191
16 *104:15 io_out[35] 2.48858e-05
17 *105:22 io_out[35] 0.000241383
18 *129:19 io_out[35] 0.000612609
19 *129:27 io_out[35] 0
20 *132:27 io_out[35] 0
*RES
1 *988:io_out[28] io_out[35] 49.9597 
*END

*D_NET *135 0.0266579
*CONN
*P io_out[36] O
*I *988:io_out[29] O *D soc_sys
*CAP
1 io_out[36] 0.00360088
2 *988:io_out[29] 0.00360088
3 io_out[36] *136:7 0
4 io_out[36] *136:9 0.00945938
5 io_out[36] *142:23 0.00860237
6 io_out[36] *143:9 0.000116155
7 io_out[35] io_out[36] 5.49032e-05
8 *988:io_in[30] io_out[36] 0.000336187
9 *48:49 io_out[36] 0
10 *58:17 io_out[36] 9.16577e-05
11 *73:15 io_out[36] 0.000320026
12 *98:21 io_out[36] 0.000117071
13 *104:15 io_out[36] 0.000111162
14 *105:24 io_out[36] 0.000125685
15 *108:9 io_out[36] 0.000121549
*RES
1 *988:io_out[29] io_out[36] 29.2641 
*END

*D_NET *136 0.0609198
*CONN
*P io_out[37] O
*I *988:io_out[30] O *D soc_sys
*CAP
1 io_out[37] 0.000233473
2 *988:io_out[30] 0.00100062
3 *136:9 0.00847696
4 *136:7 0.00924411
5 io_oeb[35] *136:7 0.000278817
6 io_out[35] *136:7 5.0027e-06
7 io_out[36] *136:7 0
8 io_out[36] *136:9 0.00945938
9 *988:io_in[29] *136:9 0.000228481
10 *988:io_in[30] *136:9 0.0102952
11 *42:49 *136:9 0.00199521
12 *58:17 *136:9 0
13 *70:21 *136:9 0.00187502
14 *98:13 *136:9 0.00167624
15 *98:21 *136:9 0.00792604
16 *104:15 *136:7 2.32773e-05
17 *104:15 *136:9 0.000151914
18 *111:9 *136:9 0.00171293
19 *118:9 *136:9 0.00297714
20 *120:25 *136:9 0.00264461
21 *127:15 *136:7 3.70749e-05
22 *130:15 *136:9 0.000139264
23 *131:11 *136:9 0.000296678
24 *132:11 *136:9 0.000109803
25 *133:15 *136:9 0.0001326
*RES
1 *988:io_out[30] *136:7 5.45763 
2 *136:7 *136:9 51.0765 
3 *136:9 io_out[37] 4.05077 
*END

*D_NET *141 0.604009
*CONN
*P io_out[7] O
*I *988:io_out[0] O *D soc_sys
*CAP
1 io_out[7] 0.00124161
2 *988:io_out[0] 0.0153176
3 *141:18 0.123765
4 *141:16 0.122523
5 *141:14 0.0640441
6 *141:12 0.0793618
7 io_out[7] *142:33 0.000208268
8 *141:14 *815:9 0.00645368
9 *141:18 *824:21 0
10 *141:18 *825:13 0.0206418
11 *141:18 *827:13 0.0541637
12 *141:18 *829:29 3.90458e-05
13 *141:18 *866:29 0.09628
14 *988:io_in[29] *141:12 0.000145501
15 *19:27 *141:18 0.0190745
16 *31:9 io_out[7] 0.000149758
17 *45:21 *141:14 0
18 *66:13 io_out[7] 0
19 *67:9 io_out[7] 0.000149758
20 *78:13 *141:18 0
21 *104:33 io_out[7] 0.000450713
*RES
1 *988:io_out[0] *141:12 8.8857 
2 *141:12 *141:14 199.477 
3 *141:14 *141:16 3.41 
4 *141:16 *141:18 415.872 
5 *141:18 io_out[7] 9.88597 
*END

*D_NET *142 0.909984
*CONN
*P io_out[8] O
*I *988:io_out[1] O *D soc_sys
*CAP
1 io_out[8] 0.000286276
2 *988:io_out[1] 0.00448888
3 *142:33 0.0144417
4 *142:31 0.0141554
5 *142:29 0.0503103
6 *142:27 0.0503103
7 *142:25 0.00235159
8 *142:23 0.00684047
9 *142:23 *143:7 0
10 io_out[36] *142:23 0.00860237
11 io_out[7] *142:33 0.000208268
12 *58:17 *142:23 0.00317943
13 *58:17 *142:25 0.000914777
14 *65:9 *142:33 0.0112306
15 *67:9 *142:33 0.0869964
16 *67:13 *142:29 0
17 *73:17 *142:23 0.000711713
18 *74:13 *142:29 0.262677
19 *104:33 *142:33 0.0669342
20 *105:24 *142:23 0.0012045
21 *107:9 *142:23 0.000833131
22 *108:13 *142:29 0.29097
23 *108:17 *142:33 0
24 *112:9 *142:23 0.00019425
25 *122:9 *142:25 0.0144758
26 *123:13 *142:25 0.0144813
27 *124:9 *142:23 0.00033827
28 *125:13 *142:23 0.000693123
29 *132:11 *142:23 0.000338294
30 *132:27 *142:25 0.000455688
31 *132:29 *142:25 0.00135925
*RES
1 *988:io_out[1] *142:23 44.9015 
2 *142:23 *142:25 178.17 
3 *142:25 *142:27 3.41 
4 *142:27 *142:29 455.58 
5 *142:29 *142:31 3.41 
6 *142:31 *142:33 1072.34 
7 *142:33 io_out[8] 4.04607 
*END

*D_NET *143 0.790885
*CONN
*P io_out[9] O
*I *988:io_out[2] O *D soc_sys
*CAP
1 io_out[9] 0.000945701
2 *988:io_out[2] 0.000854382
3 *143:25 0.0633547
4 *143:23 0.062409
5 *143:21 0.0419216
6 *143:19 0.0419379
7 *143:13 0.0321718
8 *143:11 0.0321555
9 *143:9 0.00301946
10 *143:7 0.00387384
11 *143:9 *540:11 0
12 *143:13 *988:wbs_adr_i[5] 0.000356971
13 *143:13 *988:wbs_adr_i[7] 0.00176673
14 *143:13 *988:wbs_cyc_i 0.000373087
15 *143:13 *988:wbs_dat_i[0] 0.00114821
16 *143:13 *988:wbs_sel_i[0] 0.000409932
17 *143:13 *540:17 0.00152664
18 *143:13 *542:15 0.00277039
19 *143:13 *544:17 0.00130881
20 *143:13 *559:15 0.0016628
21 *143:13 *589:15 0.0105424
22 *143:13 *634:15 0.00874379
23 *143:13 *908:19 0.000539928
24 *143:13 *909:19 0.000463879
25 *143:13 *911:19 0
26 *143:13 *942:48 0.00020854
27 *143:13 *956:19 0
28 *143:21 *909:19 0.00340426
29 *143:21 *924:9 0.0276028
30 *143:21 *926:9 0.000360443
31 io_out[36] *143:9 0.000116155
32 *32:37 *143:13 0.0258269
33 *35:9 *143:25 0.0866924
34 *42:49 *143:9 0
35 *45:29 *143:9 0.00489724
36 *98:21 *143:9 0.00300054
37 *105:24 *143:9 0.00509259
38 *105:40 *143:9 0.000793499
39 *105:44 *143:13 0
40 *105:50 *143:19 1.94945e-05
41 *105:52 *143:21 0.154347
42 *107:7 *143:7 0
43 *107:37 *143:25 0.0193702
44 *109:22 *143:25 0.00427683
45 *111:41 *143:25 0.00116674
46 *112:9 *143:9 0.0136603
47 *115:15 *143:13 0.00121674
48 *115:17 *143:13 0.124461
49 *118:9 *143:9 0
50 *118:13 *143:13 0.000112832
51 *142:23 *143:7 0
*RES
1 *988:io_out[2] *143:7 5.06127 
2 *143:7 *143:9 185.911 
3 *143:9 *143:11 3.41 
4 *143:11 *143:13 199.311 
5 *143:13 *143:19 8.18679 
6 *143:19 *143:21 1451.59 
7 *143:21 *143:23 4.5 
8 *143:23 *143:25 1775.56 
9 *143:25 io_out[9] 5.84773 
*END

*D_NET *529 0.299088
*CONN
*P user_irq[0] O
*I *988:user_irq[0] O *D soc_sys
*CAP
1 user_irq[0] 8.88893e-05
2 *988:user_irq[0] 8.34263e-05
3 *529:13 0.0573483
4 *529:11 0.0572595
5 *529:9 0.00520053
6 *529:7 0.00528396
7 *529:13 *530:13 0.173823
*RES
1 *988:user_irq[0] *529:7 1.40179 
2 *529:7 *529:9 101.518 
3 *529:9 *529:11 3.41 
4 *529:11 *529:13 272.459 
5 *529:13 user_irq[0] 5.02607 
*END

*D_NET *530 0.40712
*CONN
*P user_irq[1] O
*I *988:user_irq[1] O *D soc_sys
*CAP
1 user_irq[1] 8.5297e-05
2 *988:user_irq[1] 8.20618e-05
3 *530:13 0.0249238
4 *530:11 0.0248385
5 *530:9 0.00500281
6 *530:7 0.00508487
7 *530:13 *531:13 0.173279
8 *529:13 *530:13 0.173823
*RES
1 *988:user_irq[1] *530:7 1.40179 
2 *530:7 *530:9 100.911 
3 *530:9 *530:11 3.41 
4 *530:11 *530:13 271.594 
5 *530:13 user_irq[1] 5.11536 
*END

*D_NET *531 0.297321
*CONN
*P user_irq[2] O
*I *988:user_irq[2] O *D soc_sys
*CAP
1 user_irq[2] 6.33454e-05
2 *988:user_irq[2] 8.20618e-05
3 *531:13 0.0569661
4 *531:11 0.0569028
5 *531:9 0.0049731
6 *531:7 0.00505517
7 *530:13 *531:13 0.173279
*RES
1 *988:user_irq[2] *531:7 1.40179 
2 *531:7 *531:9 100.304 
3 *531:9 *531:11 3.41 
4 *531:11 *531:13 270.946 
5 *531:13 user_irq[2] 4.70464 
*END

*D_NET *540 0.465632
*CONN
*P wb_clk_i I
*I *988:wb_clk_i I *D soc_sys
*I *984:clk I *D CF_ADC_DSM20
*I *989:wb_clk_i I *D CF_SRAM_1024x32_wb_wrapper
*CAP
1 wb_clk_i 0.00152019
2 *988:wb_clk_i 7.09419e-05
3 *984:clk 6.35253e-05
4 *989:wb_clk_i 0.000104578
5 *540:55 0.00302951
6 *540:53 0.00296598
7 *540:51 0.0527439
8 *540:49 0.0527439
9 *540:47 0.00865795
10 *540:33 0.013047
11 *540:31 0.004338
12 *540:25 0.0350853
13 *540:23 0.0350319
14 *540:21 0.00068114
15 *540:17 0.0025658
16 *540:11 0.00493507
17 *540:9 0.00449965
18 *989:wb_clk_i *989:wb_rst_i 0
19 *540:11 *541:7 0
20 *540:25 *988:wbs_adr_i[22] 3.85572e-05
21 *540:25 *988:wbs_dat_i[1] 0.000244062
22 *540:25 *989:wbs_dat_i[3] 0.00223737
23 *540:25 *989:wbs_dat_i[5] 0.000325955
24 *540:25 *541:27 0.120991
25 *540:25 *619:23 0.00615401
26 *540:25 *620:15 0.000302942
27 *540:25 *620:17 0.000979325
28 *540:25 *622:11 0.00136257
29 *540:25 *622:13 0.0142633
30 *540:25 *627:23 0.00413759
31 *540:25 *921:19 0
32 *540:25 *958:25 0
33 *540:25 *982:19 0.000755862
34 *540:31 *944:21 2.92236e-05
35 *540:33 *989:wbs_dat_i[3] 0.0021487
36 *540:33 *541:35 0
37 *540:33 *960:29 9.94194e-05
38 *540:33 *961:25 0.0105488
39 *540:47 *989:wbs_dat_i[19] 6.42778e-05
40 *540:47 *989:wbs_dat_i[26] 0.000310958
41 *540:47 *989:wbs_dat_i[3] 0.000131918
42 *540:47 *961:25 0.0141379
43 *540:47 *972:21 0.0069881
44 *988:io_in[20] *540:25 0.000891765
45 *988:io_in[3] *988:wb_clk_i 4.71193e-06
46 *988:io_in[3] *540:21 4.22135e-06
47 *15:35 *984:clk 3.13523e-05
48 *31:29 *540:25 0.00046195
49 *40:39 *540:25 0.00111188
50 *42:47 *540:25 0.000909633
51 *44:39 *540:25 0.00100651
52 *45:27 *540:25 0
53 *69:29 *540:25 0.0232285
54 *69:29 *540:33 0.000495803
55 *98:21 *540:11 0.00215072
56 *105:40 *540:11 0
57 *111:29 *540:25 0.0251498
58 *113:29 *540:25 0.000321836
59 *143:9 *540:11 0
60 *143:13 *540:17 0.00152664
*RES
1 wb_clk_i *540:9 31.2411 
2 *540:9 *540:11 61.4554 
3 *540:11 *540:17 45.6786 
4 *540:17 *540:21 9.91964 
5 *540:21 *540:23 3.41 
6 *540:23 *540:25 194.285 
7 *540:25 *540:31 8.79393 
8 *540:31 *540:33 117.179 
9 *540:33 *989:wb_clk_i 5.98214 
10 *540:33 *540:47 228.071 
11 *540:47 *540:49 4.5 
12 *540:49 *540:51 1081.45 
13 *540:51 *540:53 4.5 
14 *540:53 *540:55 46.125 
15 *540:55 *984:clk 6.28571 
16 *540:21 *988:wb_clk_i 1.16964 
*END

*D_NET *541 0.367175
*CONN
*P wb_rst_i I
*I *988:wb_rst_i I *D soc_sys
*I *989:wb_rst_i I *D CF_SRAM_1024x32_wb_wrapper
*CAP
1 wb_rst_i 4.35039e-05
2 *988:wb_rst_i 0.000216672
3 *989:wb_rst_i 0.000181973
4 *541:35 0.00394278
5 *541:33 0.00378104
6 *541:27 0.0244086
7 *541:25 0.0250452
8 *541:15 0.00336198
9 *541:13 0.00248842
10 *541:11 0.0022514
11 *541:7 0.00472186
12 *541:5 0.00251397
13 *541:15 *608:29 0
14 *541:15 *640:7 0
15 *541:25 *988:wbs_cyc_i 3.30259e-05
16 *541:25 *988:wbs_stb_i 0.000122494
17 *541:25 *608:27 0.000194058
18 *541:25 *619:25 3.30259e-05
19 *541:27 *988:wbs_adr_i[3] 0.00547112
20 *541:27 *988:wbs_dat_i[10] 7.76075e-06
21 *541:27 *988:wbs_dat_i[1] 9.61175e-05
22 *541:27 *988:wbs_stb_i 0.000515915
23 *541:27 *989:wbs_dat_i[2] 0.00232255
24 *541:27 *989:wbs_dat_i[3] 0.000551221
25 *541:27 *989:wbs_dat_i[4] 0.000220152
26 *541:27 *989:wbs_dat_i[6] 0.000375535
27 *541:27 *989:wbs_dat_i[7] 0.000236752
28 *541:27 *608:27 0.000493896
29 *541:27 *620:31 9.06546e-05
30 *541:27 *622:23 4.73953e-05
31 *541:27 *624:13 0.000763365
32 *541:27 *626:13 0.000711993
33 *541:27 *628:13 0.00182053
34 *541:27 *631:13 0.0519068
35 *541:27 *632:15 0.00100762
36 *541:27 *638:15 0.0210126
37 *541:27 *639:15 0.00157702
38 *541:27 *982:19 0.000797188
39 *541:33 *914:15 4.43299e-05
40 *541:33 *926:19 1.94135e-05
41 *541:35 *989:wbs_sel_i[0] 0.00209049
42 *541:35 *921:9 0.00337552
43 *541:35 *923:9 0.0002126
44 *541:35 *958:29 0.00421553
45 *541:35 *960:29 3.5079e-05
46 *988:io_in[20] *541:27 0.00334669
47 *989:wb_clk_i *989:wb_rst_i 0
48 *31:29 *541:27 0.0247023
49 *36:29 *541:25 0
50 *40:29 *541:25 0.000128204
51 *40:29 *541:27 0.00806702
52 *40:39 *988:wb_rst_i 9.59532e-06
53 *42:27 *541:27 0.000605663
54 *42:29 *541:25 0.00152036
55 *42:29 *541:27 0.00180526
56 *43:23 *541:27 0.000655437
57 *43:25 *541:27 0.00544337
58 *44:23 *541:27 9.32361e-05
59 *44:25 *541:27 0.0015693
60 *44:39 *541:27 0.000162047
61 *66:25 *541:27 0.00188113
62 *113:29 *541:25 2.11048e-05
63 *113:29 *541:27 0.0228138
64 *115:25 *541:35 0
65 *540:11 *541:7 0
66 *540:25 *541:27 0.120991
67 *540:33 *541:35 0
*RES
1 wb_rst_i *541:5 0.883929 
2 *541:5 *541:7 50.9732 
3 *541:7 *541:11 46.1071 
4 *541:11 *541:13 4.5 
5 *541:13 *541:15 47.7857 
6 *541:15 *541:25 32.2046 
7 *541:25 *541:27 191.528 
8 *541:27 *541:33 8.49036 
9 *541:33 *541:35 107.732 
10 *541:35 *989:wb_rst_i 6.83929 
11 *541:15 *988:wb_rst_i 3.39286 
*END

*D_NET *542 0.020627
*CONN
*P wbs_ack_o O
*I *988:wbs_ack_o O *D soc_sys
*CAP
1 wbs_ack_o 8.34412e-05
2 *988:wbs_ack_o 0.00175797
3 *542:17 0.0044328
4 *542:15 0.00610733
5 *542:15 *988:wbs_cyc_i 0.00449446
6 *542:15 *587:11 0
7 *542:17 *575:9 0
8 *542:17 *575:11 0
9 *32:37 *542:15 0.000980645
10 *105:44 *542:15 0
11 *143:13 *542:15 0.00277039
*RES
1 *988:wbs_ack_o *542:15 26.9614 
2 *542:15 *542:17 89.375 
3 *542:17 wbs_ack_o 1.70536 
*END

*D_NET *543 0.0218795
*CONN
*P wbs_adr_i[0] I
*I *988:wbs_adr_i[0] I *D soc_sys
*CAP
1 wbs_adr_i[0] 0.0015112
2 *988:wbs_adr_i[0] 0.00401223
3 *543:11 0.0065489
4 *543:9 0.00404786
5 *988:wbs_adr_i[0] *988:wbs_sel_i[2] 0
6 *988:wbs_adr_i[0] *988:wbs_we_i 0.00575927
7 *988:wbs_adr_i[0] *568:11 0
8 *105:44 *988:wbs_adr_i[0] 0
*RES
1 wbs_adr_i[0] *543:9 31.2411 
2 *543:9 *543:11 52.1964 
3 *543:11 *988:wbs_adr_i[0] 38.0252 
*END

*D_NET *544 0.049446
*CONN
*P wbs_adr_i[10] I
*I *988:wbs_adr_i[10] I *D soc_sys
*CAP
1 wbs_adr_i[10] 0.00161348
2 *988:wbs_adr_i[10] 0.000732179
3 *544:17 0.00610926
4 *544:11 0.00826774
5 *544:9 0.00450413
6 *988:wbs_adr_i[10] *622:25 0.000289027
7 *544:9 wbs_dat_o[9] 0
8 *544:17 *988:wbs_adr_i[7] 0.0133103
9 *544:17 *589:15 0.00272281
10 *32:37 *544:17 0.002199
11 *105:44 *544:17 0.00838933
12 *143:13 *544:17 0.00130881
*RES
1 wbs_adr_i[10] *544:9 31.8482 
2 *544:9 *544:11 58.2679 
3 *544:11 *544:17 42.54 
4 *544:17 *988:wbs_adr_i[10] 14.2768 
*END

*D_NET *545 0.044025
*CONN
*P wbs_adr_i[11] I
*I *988:wbs_adr_i[11] I *D soc_sys
*CAP
1 wbs_adr_i[11] 0.00160361
2 *988:wbs_adr_i[11] 0.000911362
3 *545:17 0.0121282
4 *545:11 0.0137959
5 *545:9 0.00418265
6 *988:wbs_adr_i[11] *624:17 0.0012382
7 *545:17 *546:17 0
8 *545:17 *590:15 0.00404289
9 *545:17 *592:15 0
10 *545:17 *603:17 0.0061222
11 *545:17 *609:15 0
12 *105:44 *545:17 0
*RES
1 wbs_adr_i[11] *545:9 31.8482 
2 *545:9 *545:11 52.1964 
3 *545:11 *545:17 44.7741 
4 *545:17 *988:wbs_adr_i[11] 20.3482 
*END

*D_NET *546 0.053405
*CONN
*P wbs_adr_i[12] I
*I *988:wbs_adr_i[12] I *D soc_sys
*CAP
1 wbs_adr_i[12] 0.00162076
2 *988:wbs_adr_i[12] 0.00148721
3 *546:17 0.0102097
4 *546:13 0.0109933
5 *546:9 0.00389163
6 *988:wbs_adr_i[12] *626:17 0
7 *546:17 *592:15 0.00378118
8 *546:17 *594:11 0
9 *546:17 *602:17 0
10 *546:17 *607:13 0
11 *546:17 *609:15 0.0214009
12 *44:23 *988:wbs_adr_i[12] 2.04122e-05
13 *545:17 *546:17 0
*RES
1 wbs_adr_i[12] *546:9 31.8482 
2 *546:9 *546:13 49.535 
3 *546:13 *546:17 43.5261 
4 *546:17 *988:wbs_adr_i[12] 26.4196 
*END

*D_NET *547 0.0472646
*CONN
*P wbs_adr_i[13] I
*I *988:wbs_adr_i[13] I *D soc_sys
*CAP
1 wbs_adr_i[13] 4.32496e-05
2 *988:wbs_adr_i[13] 0.00243857
3 *547:13 0.014255
4 *547:7 0.0146983
5 *547:5 0.0029251
6 *988:wbs_adr_i[13] *596:7 4.6025e-06
7 *547:13 *563:11 0.000543621
8 *547:13 *606:13 0.0123562
9 *547:13 *611:15 0
10 *547:13 *618:13 0
*RES
1 wbs_adr_i[13] *547:5 0.883929 
2 *547:5 *547:7 57.1964 
3 *547:7 *547:13 49.3143 
4 *547:13 *988:wbs_adr_i[13] 45.2411 
*END

*D_NET *548 0.051599
*CONN
*P wbs_adr_i[14] I
*I *988:wbs_adr_i[14] I *D soc_sys
*CAP
1 wbs_adr_i[14] 0.000785096
2 *988:wbs_adr_i[14] 8.20618e-05
3 *548:15 0.00462946
4 *548:13 0.0138521
5 *548:9 0.0100898
6 *548:9 wbs_dat_o[13] 0
7 *548:13 *552:11 0.00404035
8 *548:13 *605:11 0.00722536
9 *548:13 *615:13 0.0108948
10 *548:15 *566:9 0
*RES
1 wbs_adr_i[14] *548:9 18.3832 
2 *548:9 *548:13 48.0663 
3 *548:13 *548:15 86.9464 
4 *548:15 *988:wbs_adr_i[14] 1.40179 
*END

*D_NET *549 0.059869
*CONN
*P wbs_adr_i[15] I
*I *988:wbs_adr_i[15] I *D soc_sys
*CAP
1 wbs_adr_i[15] 0.00243597
2 *988:wbs_adr_i[15] 8.34263e-05
3 *549:15 0.00301147
4 *549:13 0.00292804
5 *549:11 0.0118427
6 *549:9 0.0118427
7 *549:7 0.00243597
8 *549:7 *636:17 0
9 *549:11 *584:11 0.0252887
10 *549:11 *611:15 0
11 *549:11 *618:13 0
*RES
1 wbs_adr_i[15] *549:7 47.7589 
2 *549:7 *549:9 3.41 
3 *549:9 *549:11 46.8903 
4 *549:11 *549:13 3.41 
5 *549:13 *549:15 54.1607 
6 *549:15 *988:wbs_adr_i[15] 1.40179 
*END

*D_NET *550 0.0592814
*CONN
*P wbs_adr_i[16] I
*I *988:wbs_adr_i[16] I *D soc_sys
*CAP
1 wbs_adr_i[16] 0.00210512
2 *988:wbs_adr_i[16] 8.20618e-05
3 *550:15 0.00328658
4 *550:13 0.00320452
5 *550:11 0.0116718
6 *550:9 0.0137769
7 *550:9 *583:9 0
8 *550:9 *604:15 0
9 *550:11 *584:11 0
10 *550:11 *586:11 0.0251544
11 *550:11 *593:15 0
12 *550:11 *600:11 0
*RES
1 wbs_adr_i[16] *550:9 44.7046 
2 *550:9 *550:11 48.6199 
3 *550:11 *550:13 3.41 
4 *550:13 *550:15 60.8393 
5 *550:15 *988:wbs_adr_i[16] 1.40179 
*END

*D_NET *551 0.0631157
*CONN
*P wbs_adr_i[17] I
*I *988:wbs_adr_i[17] I *D soc_sys
*CAP
1 wbs_adr_i[17] 0.0015095
2 *988:wbs_adr_i[17] 8.20618e-05
3 *551:15 0.00389095
4 *551:13 0.00380889
5 *551:11 0.0128024
6 *551:9 0.0143119
7 *551:9 *584:7 0
8 *551:9 *639:17 0
9 *551:11 *580:13 0.00565379
10 *551:11 *591:11 0.0210563
11 *551:11 *612:13 0
*RES
1 wbs_adr_i[17] *551:9 32.5618 
2 *551:9 *551:11 50.854 
3 *551:11 *551:13 3.41 
4 *551:13 *551:15 72.9821 
5 *551:15 *988:wbs_adr_i[17] 1.40179 
*END

*D_NET *552 0.0677675
*CONN
*P wbs_adr_i[18] I
*I *988:wbs_adr_i[18] I *D soc_sys
*CAP
1 wbs_adr_i[18] 0.000632241
2 *988:wbs_adr_i[18] 8.20618e-05
3 *552:15 0.00474664
4 *552:13 0.00466458
5 *552:11 0.00862875
6 *552:9 0.00926099
7 *552:11 *566:11 0
8 *552:11 *583:11 0
9 *552:11 *585:11 0.033308
10 *552:11 *599:11 0.00240389
11 *552:11 *615:13 0
12 *548:13 *552:11 0.00404035
*RES
1 wbs_adr_i[18] *552:9 15.1511 
2 *552:9 *552:11 53.0881 
3 *552:11 *552:13 3.41 
4 *552:13 *552:15 89.9821 
5 *552:15 *988:wbs_adr_i[18] 1.40179 
*END

*D_NET *553 0.089771
*CONN
*P wbs_adr_i[19] I
*I *988:wbs_adr_i[19] I *D soc_sys
*CAP
1 wbs_adr_i[19] 0.000572828
2 *988:wbs_adr_i[19] 8.20618e-05
3 *553:15 0.00479793
4 *553:13 0.00471587
5 *553:11 0.00587249
6 *553:9 0.00644532
7 *553:9 *573:15 0
8 *553:11 *555:11 0.033537
9 *553:11 *583:11 0.00049055
10 *553:11 *585:11 0.0332569
11 *553:11 *599:11 0
*RES
1 wbs_adr_i[19] *553:9 13.9368 
2 *553:9 *553:11 55.3221 
3 *553:11 *553:13 3.41 
4 *553:13 *553:15 91.1964 
5 *553:15 *988:wbs_adr_i[19] 1.40179 
*END

*D_NET *554 0.0204887
*CONN
*P wbs_adr_i[1] I
*I *988:wbs_adr_i[1] I *D soc_sys
*CAP
1 wbs_adr_i[1] 4.32496e-05
2 *988:wbs_adr_i[1] 0.0019275
3 *554:13 0.00673654
4 *554:7 0.00755448
5 *554:5 0.00278868
6 *988:wbs_adr_i[1] *570:11 0.00143824
7 *554:7 *640:7 0
8 *554:13 *630:15 0
*RES
1 wbs_adr_i[1] *554:5 0.883929 
2 *554:5 *554:7 56.5893 
3 *554:7 *554:13 20.7759 
4 *554:13 *988:wbs_adr_i[1] 45.2411 
*END

*D_NET *555 0.10445
*CONN
*P wbs_adr_i[20] I
*I *988:wbs_adr_i[20] I *D soc_sys
*CAP
1 wbs_adr_i[20] 0.000554213
2 *988:wbs_adr_i[20] 8.20618e-05
3 *555:15 0.00481866
4 *555:13 0.0047366
5 *555:11 0.00632864
6 *555:9 0.00688285
7 *555:11 *988:wbs_adr_i[22] 0.00439799
8 *555:11 *558:11 0.00673167
9 *555:11 *583:11 0.000213244
10 *555:11 *588:11 0.036167
11 *555:11 *599:11 0
12 *553:11 *555:11 0.033537
*RES
1 wbs_adr_i[20] *555:9 13.7404 
2 *555:9 *555:11 57.4121 
3 *555:11 *555:13 3.41 
4 *555:13 *555:15 91.8036 
5 *555:15 *988:wbs_adr_i[20] 1.40179 
*END

*D_NET *556 0.104876
*CONN
*P wbs_adr_i[21] I
*I *988:wbs_adr_i[21] I *D soc_sys
*CAP
1 wbs_adr_i[21] 0.000490007
2 *988:wbs_adr_i[21] 8.20618e-05
3 *556:15 0.00489654
4 *556:13 0.00481448
5 *556:11 0.00893779
6 *556:9 0.00942779
7 *556:9 wbs_dat_o[20] 0
8 *556:9 *574:15 0
9 *556:11 *988:wbs_adr_i[22] 0.00775031
10 *556:11 *567:11 0.00871903
11 *556:11 *583:11 0.0234869
12 *556:11 *588:11 0.0362716
13 *556:11 *599:11 0
14 *556:11 *616:13 0
15 *556:11 *632:21 0
*RES
1 wbs_adr_i[21] *556:9 12.3118 
2 *556:9 *556:11 60.0065 
3 *556:11 *556:13 3.41 
4 *556:13 *556:15 93.0179 
5 *556:15 *988:wbs_adr_i[21] 1.40179 
*END

*D_NET *557 0.0879616
*CONN
*P wbs_adr_i[22] I
*I *988:wbs_adr_i[22] I *D soc_sys
*CAP
1 wbs_adr_i[22] 0.028342
2 *988:wbs_adr_i[22] 0.028342
3 *988:wbs_adr_i[22] *988:wbs_dat_i[10] 0.000612077
4 *988:wbs_adr_i[22] *579:11 0.00116209
5 *988:wbs_adr_i[22] *582:11 0.00373246
6 *988:wbs_adr_i[22] *583:11 0.0043557
7 *988:wbs_adr_i[22] *588:11 0.00688286
8 *988:wbs_adr_i[22] *590:9 0
9 *988:wbs_adr_i[22] *614:13 0.00213728
10 *988:wbs_adr_i[22] *616:13 9.32361e-05
11 *988:wbs_adr_i[22] *621:13 9.80649e-05
12 *988:wbs_adr_i[22] *622:13 1.69055e-05
13 *540:25 *988:wbs_adr_i[22] 3.85572e-05
14 *555:11 *988:wbs_adr_i[22] 0.00439799
15 *556:11 *988:wbs_adr_i[22] 0.00775031
*RES
1 wbs_adr_i[22] *988:wbs_adr_i[22] 42.9242 
*END

*D_NET *558 0.0770919
*CONN
*P wbs_adr_i[23] I
*I *988:wbs_adr_i[23] I *D soc_sys
*CAP
1 wbs_adr_i[23] 0.000591462
2 *988:wbs_adr_i[23] 8.20618e-05
3 *558:15 0.00478643
4 *558:13 0.00470437
5 *558:11 0.0129219
6 *558:9 0.0135133
7 *558:9 *591:9 0
8 *558:11 *561:11 0.0337607
9 *555:11 *558:11 0.00673167
*RES
1 wbs_adr_i[23] *558:9 14.9821 
2 *558:9 *558:11 364.429 
3 *558:11 *558:13 4.5 
4 *558:13 *558:15 91.6518 
5 *558:15 *988:wbs_adr_i[23] 1.40179 
*END

*D_NET *559 0.0856481
*CONN
*P wbs_adr_i[24] I
*I *988:wbs_adr_i[24] I *D soc_sys
*CAP
1 wbs_adr_i[24] 0.00171706
2 *988:wbs_adr_i[24] 0.000859108
3 *559:15 0.0101578
4 *559:13 0.00929866
5 *559:11 0.00276821
6 *559:9 0.00448527
7 *559:11 *609:11 0.000507078
8 *559:15 *589:15 0.0340595
9 *32:37 *559:15 0.0044018
10 *105:44 *559:15 0.0157308
11 *143:13 *559:15 0.0016628
*RES
1 wbs_adr_i[24] *559:9 31.8482 
2 *559:9 *559:11 58.2679 
3 *559:11 *559:13 3.41 
4 *559:13 *559:15 66.4925 
5 *559:15 *988:wbs_adr_i[24] 17.6868 
*END

*D_NET *560 0.0794097
*CONN
*P wbs_adr_i[25] I
*I *988:wbs_adr_i[25] I *D soc_sys
*CAP
1 wbs_adr_i[25] 0.00167921
2 *988:wbs_adr_i[25] 0.00114108
3 *560:15 0.0180367
4 *560:13 0.0168956
5 *560:11 0.0026223
6 *560:9 0.00430151
7 *560:11 *578:13 0
8 *560:15 *562:19 0
9 *560:15 *590:15 0.0347333
10 *560:15 *592:15 0
11 *105:44 *560:15 0
*RES
1 wbs_adr_i[25] *560:9 31.2411 
2 *560:9 *560:11 52.1964 
3 *560:11 *560:13 3.41 
4 *560:13 *560:15 68.6545 
5 *560:15 *988:wbs_adr_i[25] 23.7582 
*END

*D_NET *561 0.104307
*CONN
*P wbs_adr_i[26] I
*I *988:wbs_adr_i[26] I *D soc_sys
*CAP
1 wbs_adr_i[26] 0.000548408
2 *988:wbs_adr_i[26] 8.20618e-05
3 *561:15 0.00474906
4 *561:13 0.00466699
5 *561:11 0.00774781
6 *561:9 0.00829622
7 *561:9 *594:7 0
8 *561:11 *564:11 0.037756
9 *561:11 *588:11 0.00670003
10 *558:11 *561:11 0.0337607
*RES
1 wbs_adr_i[26] *561:9 14.2679 
2 *561:9 *561:11 402.625 
3 *561:11 *561:13 4.5 
4 *561:13 *561:15 91.9554 
5 *561:15 *988:wbs_adr_i[26] 1.40179 
*END

*D_NET *562 0.0858702
*CONN
*P wbs_adr_i[27] I
*I *988:wbs_adr_i[27] I *D soc_sys
*CAP
1 wbs_adr_i[27] 0.00122922
2 *988:wbs_adr_i[27] 0.00144879
3 *562:19 0.0189062
4 *562:17 0.0190791
5 *562:13 0.00285087
6 *562:13 *579:15 0.00204855
7 *562:17 *579:15 0.00204736
8 *562:19 *592:15 0.0382601
9 *562:19 *594:11 0
10 *560:15 *562:19 0
*RES
1 wbs_adr_i[27] *562:13 32.0982 
2 *562:13 *562:17 49.535 
3 *562:17 *562:19 73.0505 
4 *562:19 *988:wbs_adr_i[27] 29.8296 
*END

*D_NET *563 0.0915377
*CONN
*P wbs_adr_i[28] I
*I *988:wbs_adr_i[28] I *D soc_sys
*CAP
1 wbs_adr_i[28] 4.32496e-05
2 *988:wbs_adr_i[28] 0.00232365
3 *563:11 0.0185742
4 *563:9 0.0162506
5 *563:7 0.00304905
6 *563:5 0.0030923
7 *563:11 *596:11 0.047661
8 *563:11 *613:15 0
9 *547:13 *563:11 0.000543621
*RES
1 wbs_adr_i[28] *563:5 0.883929 
2 *563:5 *563:7 57.8036 
3 *563:7 *563:9 3.41 
4 *563:9 *563:11 75.4287 
5 *563:11 *988:wbs_adr_i[28] 48.0439 
*END

*D_NET *564 0.112299
*CONN
*P wbs_adr_i[29] I
*I *988:wbs_adr_i[29] I *D soc_sys
*CAP
1 wbs_adr_i[29] 0.00052624
2 *988:wbs_adr_i[29] 8.20618e-05
3 *564:15 0.0047232
4 *564:13 0.00464114
5 *564:11 0.00782016
6 *564:9 0.0083464
7 *564:11 *567:11 0.0434529
8 *564:11 *588:11 0.00495074
9 *561:11 *564:11 0.037756
*RES
1 wbs_adr_i[29] *564:9 13.9643 
2 *564:9 *564:11 440 
3 *564:11 *564:13 4.5 
4 *564:13 *564:15 92.2589 
5 *564:15 *988:wbs_adr_i[29] 1.40179 
*END

*D_NET *565 0.022025
*CONN
*P wbs_adr_i[2] I
*I *988:wbs_adr_i[2] I *D soc_sys
*CAP
1 wbs_adr_i[2] 0.00165295
2 *988:wbs_adr_i[2] 8.34263e-05
3 *565:15 0.00373121
4 *565:13 0.00927611
5 *565:9 0.00728127
6 *565:9 *598:7 0
7 *565:13 *571:13 0
8 *565:13 *601:13 0
9 *565:13 *604:13 0
*RES
1 wbs_adr_i[2] *565:9 37.4189 
2 *565:9 *565:13 19.8882 
3 *565:13 *565:15 68.125 
4 *565:15 *988:wbs_adr_i[2] 1.40179 
*END

*D_NET *566 0.102114
*CONN
*P wbs_adr_i[30] I
*I *988:wbs_adr_i[30] I *D soc_sys
*CAP
1 wbs_adr_i[30] 0.000892311
2 *988:wbs_adr_i[30] 8.20618e-05
3 *566:15 0.00440315
4 *566:13 0.00432109
5 *566:11 0.0169123
6 *566:9 0.0178046
7 *566:9 *599:9 0
8 *566:11 *599:11 0.0495361
9 *566:11 *615:13 0.00816234
10 *566:11 *617:13 0
11 *548:15 *566:9 0
12 *552:11 *566:11 0
*RES
1 wbs_adr_i[30] *566:9 19.2046 
2 *566:9 *566:11 79.3203 
3 *566:11 *566:13 3.41 
4 *566:13 *566:15 86.3393 
5 *566:15 *988:wbs_adr_i[30] 1.40179 
*END

*D_NET *567 0.095006
*CONN
*P wbs_adr_i[31] I
*I *988:wbs_adr_i[31] I *D soc_sys
*CAP
1 wbs_adr_i[31] 0.000515469
2 *988:wbs_adr_i[31] 8.20618e-05
3 *567:15 0.00469402
4 *567:13 0.00461196
5 *567:11 0.0162075
6 *567:9 0.016723
7 *567:9 *600:9 0
8 *556:11 *567:11 0.00871903
9 *564:11 *567:11 0.0434529
*RES
1 wbs_adr_i[31] *567:9 13.6607 
2 *567:9 *567:11 465.054 
3 *567:11 *567:13 4.5 
4 *567:13 *567:15 92.5625 
5 *567:15 *988:wbs_adr_i[31] 1.40179 
*END

*D_NET *568 0.0345066
*CONN
*P wbs_adr_i[3] I
*I *988:wbs_adr_i[3] I *D soc_sys
*CAP
1 wbs_adr_i[3] 0.0015112
2 *988:wbs_adr_i[3] 0.00375971
3 *568:11 0.00723875
4 *568:9 0.00499023
5 *988:wbs_adr_i[3] *988:wbs_dat_i[1] 9.84683e-05
6 *988:wbs_adr_i[3] *608:27 0.0010098
7 *988:wbs_adr_i[3] *638:15 0.00187502
8 *988:wbs_adr_i[0] *568:11 0
9 *34:35 *568:11 9.75109e-05
10 *42:29 *988:wbs_adr_i[3] 0.00261989
11 *44:25 *988:wbs_adr_i[3] 0.00242182
12 *66:25 *988:wbs_adr_i[3] 0.00341308
13 *541:27 *988:wbs_adr_i[3] 0.00547112
*RES
1 wbs_adr_i[3] *568:9 31.2411 
2 *568:9 *568:11 69.1964 
3 *568:11 *988:wbs_adr_i[3] 29.8173 
*END

*D_NET *569 0.0340212
*CONN
*P wbs_adr_i[4] I
*I *988:wbs_adr_i[4] I *D soc_sys
*CAP
1 wbs_adr_i[4] 0.00152019
2 *988:wbs_adr_i[4] 0.00589145
3 *569:11 0.00853628
4 *569:9 0.00416502
5 *988:wbs_adr_i[4] *603:17 0.0118328
6 *105:44 *988:wbs_adr_i[4] 0.00207541
*RES
1 wbs_adr_i[4] *569:9 31.2411 
2 *569:9 *569:11 53.4107 
3 *569:11 *988:wbs_adr_i[4] 48.5578 
*END

*D_NET *570 0.0466187
*CONN
*P wbs_adr_i[5] I
*I *988:wbs_adr_i[5] I *D soc_sys
*CAP
1 wbs_adr_i[5] 0.00152019
2 *988:wbs_adr_i[5] 0.00351116
3 *570:11 0.00597515
4 *570:9 0.00398418
5 *988:wbs_adr_i[5] *988:wbs_adr_i[7] 0.0122521
6 *988:wbs_adr_i[5] *634:15 0.0148206
7 *988:wbs_adr_i[1] *570:11 0.00143824
8 *32:37 *988:wbs_adr_i[5] 0.0020184
9 *105:44 *988:wbs_adr_i[5] 0.000741729
10 *143:13 *988:wbs_adr_i[5] 0.000356971
*RES
1 wbs_adr_i[5] *570:9 31.2411 
2 *570:9 *570:11 59.4821 
3 *570:11 *988:wbs_adr_i[5] 44.6484 
*END

*D_NET *571 0.0297029
*CONN
*P wbs_adr_i[6] I
*I *988:wbs_adr_i[6] I *D soc_sys
*CAP
1 wbs_adr_i[6] 0.001974
2 *988:wbs_adr_i[6] 8.20618e-05
3 *571:15 0.00257941
4 *571:13 0.0113185
5 *571:9 0.0107951
6 *571:13 *612:13 0
7 *571:13 *641:13 0.00120023
8 *571:15 *637:17 0.00175359
9 *565:13 *571:13 0
*RES
1 wbs_adr_i[6] *571:9 43.4904 
2 *571:9 *571:13 30.1217 
3 *571:13 *571:15 62.0536 
4 *571:15 *988:wbs_adr_i[6] 1.40179 
*END

*D_NET *572 0.0488905
*CONN
*P wbs_adr_i[7] I
*I *988:wbs_adr_i[7] I *D soc_sys
*CAP
1 wbs_adr_i[7] 0.00157515
2 *988:wbs_adr_i[7] 0.00451499
3 *572:11 0.0074516
4 *572:9 0.00451176
5 *572:9 wbs_dat_o[6] 0
6 *572:11 *641:15 0
7 *988:wbs_adr_i[5] *988:wbs_adr_i[7] 0.0122521
8 *32:37 *988:wbs_adr_i[7] 0.00207982
9 *105:44 *988:wbs_adr_i[7] 0.00142806
10 *143:13 *988:wbs_adr_i[7] 0.00176673
11 *544:17 *988:wbs_adr_i[7] 0.0133103
*RES
1 wbs_adr_i[7] *572:9 31.8482 
2 *572:9 *572:11 58.875 
3 *572:11 *988:wbs_adr_i[7] 49.6516 
*END

*D_NET *573 0.0511189
*CONN
*P wbs_adr_i[8] I
*I *988:wbs_adr_i[8] I *D soc_sys
*CAP
1 wbs_adr_i[8] 0.00418732
2 *988:wbs_adr_i[8] 8.20618e-05
3 *573:15 0.00530438
4 *573:13 0.00940964
5 *573:13 wbs_dat_o[7] 0.0136637
6 *573:13 wbs_dat_o[9] 0.000802767
7 *573:13 *988:wbs_dat_i[10] 9.80573e-05
8 *573:13 *574:13 0.00225325
9 *573:13 *578:11 0.0139381
10 *573:13 *606:7 0
11 *573:13 *614:13 0.000378675
12 *573:13 *616:13 0.00100097
13 *573:15 *586:9 0
14 *553:9 *573:15 0
*RES
1 wbs_adr_i[8] *573:13 40.0266 
2 *573:13 *573:15 99.6964 
3 *573:15 *988:wbs_adr_i[8] 1.40179 
*END

*D_NET *574 0.0466174
*CONN
*P wbs_adr_i[9] I
*I *988:wbs_adr_i[9] I *D soc_sys
*CAP
1 wbs_adr_i[9] 0.00814381
2 *988:wbs_adr_i[9] 8.20618e-05
3 *574:15 0.00539622
4 *574:13 0.013458
5 *574:13 *988:wbs_dat_i[10] 9.80573e-05
6 *574:13 *578:11 0.0171861
7 *574:15 *589:9 0
8 *574:15 *589:11 0
9 *556:9 *574:15 0
10 *573:13 *574:13 0.00225325
*RES
1 wbs_adr_i[9] *574:13 42.4029 
2 *574:13 *574:15 100.911 
3 *574:15 *988:wbs_adr_i[9] 1.40179 
*END

*D_NET *575 0.0220139
*CONN
*P wbs_cyc_i I
*I *988:wbs_cyc_i I *D soc_sys
*CAP
1 wbs_cyc_i 0.0015112
2 *988:wbs_cyc_i 0.00197406
3 *575:11 0.00486943
4 *575:9 0.00440657
5 *988:wbs_cyc_i *988:wbs_dat_i[0] 0.00314533
6 *988:wbs_cyc_i *619:25 0
7 *32:37 *988:wbs_cyc_i 0.000705857
8 *44:39 *988:wbs_cyc_i 4.15526e-05
9 *105:44 *988:wbs_cyc_i 0.000459314
10 *143:13 *988:wbs_cyc_i 0.000373087
11 *541:25 *988:wbs_cyc_i 3.30259e-05
12 *542:15 *988:wbs_cyc_i 0.00449446
13 *542:17 *575:9 0
14 *542:17 *575:11 0
*RES
1 wbs_cyc_i *575:9 31.2411 
2 *575:9 *575:11 59.4821 
3 *575:11 *988:wbs_cyc_i 28.5775 
*END

*D_NET *576 0.0250941
*CONN
*P wbs_dat_i[0] I
*I *988:wbs_dat_i[0] I *D soc_sys
*CAP
1 wbs_dat_i[0] 4.32496e-05
2 *988:wbs_dat_i[0] 0.00322932
3 *576:7 0.00674728
4 *576:5 0.00356121
5 *988:wbs_dat_i[0] *988:wbs_sel_i[0] 0.00606018
6 *988:wbs_dat_i[0] *633:17 0
7 *576:7 wbs_dat_o[0] 0
8 *988:wbs_cyc_i *988:wbs_dat_i[0] 0.00314533
9 *32:37 *988:wbs_dat_i[0] 0.000815701
10 *105:44 *988:wbs_dat_i[0] 0.000343565
11 *143:13 *988:wbs_dat_i[0] 0.00114821
*RES
1 wbs_dat_i[0] *576:5 0.883929 
2 *576:5 *576:7 72.5357 
3 *576:7 *988:wbs_dat_i[0] 48.353 
*END

*D_NET *577 0.0456734
*CONN
*P wbs_dat_i[10] I
*I *988:wbs_dat_i[10] I *D soc_sys
*CAP
1 wbs_dat_i[10] 0.0224038
2 *988:wbs_dat_i[10] 0.0224038
3 *988:wbs_adr_i[22] *988:wbs_dat_i[10] 0.000612077
4 *66:25 *988:wbs_dat_i[10] 4.98422e-05
5 *541:27 *988:wbs_dat_i[10] 7.76075e-06
6 *573:13 *988:wbs_dat_i[10] 9.80573e-05
7 *574:13 *988:wbs_dat_i[10] 9.80573e-05
*RES
1 wbs_dat_i[10] *988:wbs_dat_i[10] 42.1164 
*END

*D_NET *578 0.0626746
*CONN
*P wbs_dat_i[11] I
*I *988:wbs_dat_i[11] I *D soc_sys
*CAP
1 wbs_dat_i[11] 0.00672621
2 *988:wbs_dat_i[11] 8.20618e-05
3 *578:13 0.00539101
4 *578:11 0.0120352
5 *578:11 *616:13 0.00111518
6 *578:11 *621:13 0.00349626
7 *578:11 *623:13 0.00270446
8 *578:13 *593:11 0
9 *560:11 *578:13 0
10 *573:13 *578:11 0.0139381
11 *574:13 *578:11 0.0171861
*RES
1 wbs_dat_i[11] *578:11 46.9118 
2 *578:11 *578:13 100.304 
3 *578:13 *988:wbs_dat_i[11] 1.40179 
*END

*D_NET *579 0.0580633
*CONN
*P wbs_dat_i[12] I
*I *988:wbs_dat_i[12] I *D soc_sys
*CAP
1 wbs_dat_i[12] 0.00685121
2 *988:wbs_dat_i[12] 0.000155995
3 *579:15 0.00413796
4 *579:13 0.00398197
5 *579:11 0.00685121
6 *579:11 wbs_dat_o[6] 0.00463422
7 *579:11 wbs_dat_o[9] 0.000711706
8 *579:11 *582:11 0.00556413
9 *579:11 *614:13 0.0199127
10 *988:wbs_adr_i[22] *579:11 0.00116209
11 *42:27 *579:15 4.19624e-06
12 *562:13 *579:15 0.00204855
13 *562:17 *579:15 0.00204736
*RES
1 wbs_dat_i[12] *579:11 49.2875 
2 *579:11 *579:13 3.41 
3 *579:13 *579:15 97.2679 
4 *579:15 *988:wbs_dat_i[12] 1.8125 
*END

*D_NET *580 0.0534349
*CONN
*P wbs_dat_i[13] I
*I *988:wbs_dat_i[13] I *D soc_sys
*CAP
1 wbs_dat_i[13] 0.000969921
2 *988:wbs_dat_i[13] 8.20618e-05
3 *580:15 0.00404878
4 *580:13 0.014521
5 *580:9 0.0115242
6 *580:9 *635:21 0.00197353
7 *580:13 *591:11 0.00963061
8 *580:13 *604:13 0.00503096
9 *580:13 *610:15 0
10 *580:13 *617:13 0
11 *580:15 wbs_dat_o[28] 0
12 *580:15 *628:17 0
13 *551:11 *580:13 0.00565379
*RES
1 wbs_dat_i[13] *580:9 30.9368 
2 *580:9 *580:13 46.2646 
3 *580:13 *580:15 74.1964 
4 *580:15 *988:wbs_dat_i[13] 1.40179 
*END

*D_NET *581 0.0716236
*CONN
*P wbs_dat_i[14] I
*I *988:wbs_dat_i[14] I *D soc_sys
*CAP
1 wbs_dat_i[14] 0.00163875
2 *988:wbs_dat_i[14] 0.00050273
3 *581:15 0.00580826
4 *581:11 0.00848904
5 *581:9 0.00482226
6 *988:wbs_dat_i[14] *631:17 0.000252049
7 *581:11 *988:wbs_dat_i[5] 0
8 *581:11 *613:17 0
9 *32:37 *581:15 0.00610389
10 *37:37 *581:15 0.0016662
11 *115:17 *581:15 0.0163383
12 *118:13 *581:15 0.0260021
*RES
1 wbs_dat_i[14] *581:9 31.8482 
2 *581:9 *581:11 63.125 
3 *581:11 *581:15 48.6428 
4 *581:15 *988:wbs_dat_i[14] 12.8296 
*END

*D_NET *582 0.0654362
*CONN
*P wbs_dat_i[15] I
*I *988:wbs_dat_i[15] I *D soc_sys
*CAP
1 wbs_dat_i[15] 0.000428969
2 *988:wbs_dat_i[15] 8.20618e-05
3 *582:15 0.00507086
4 *582:13 0.0049888
5 *582:11 0.00736314
6 *582:9 0.00779211
7 *582:11 *583:11 0.028583
8 *582:11 *614:13 0.00183068
9 *988:wbs_adr_i[22] *582:11 0.00373246
10 *579:11 *582:11 0.00556413
*RES
1 wbs_dat_i[15] *582:9 11.3118 
2 *582:9 *582:11 47.1786 
3 *582:11 *582:13 3.41 
4 *582:13 *582:15 94.2321 
5 *582:15 *988:wbs_dat_i[15] 1.40179 
*END

*D_NET *583 0.0820912
*CONN
*P wbs_dat_i[16] I
*I *988:wbs_dat_i[16] I *D soc_sys
*CAP
1 wbs_dat_i[16] 0.000461163
2 *988:wbs_dat_i[16] 8.20618e-05
3 *583:15 0.00502487
4 *583:13 0.00494281
5 *583:11 0.00663756
6 *583:9 0.00709872
7 *583:11 *585:11 0.000208754
8 *583:11 *588:11 0.000505991
9 *583:11 *614:13 0
10 *583:11 *616:13 0
11 *988:wbs_adr_i[22] *583:11 0.0043557
12 *550:9 *583:9 0
13 *552:11 *583:11 0
14 *553:11 *583:11 0.00049055
15 *555:11 *583:11 0.000213244
16 *556:11 *583:11 0.0234869
17 *582:11 *583:11 0.028583
*RES
1 wbs_dat_i[16] *583:9 11.7046 
2 *583:9 *583:11 49.773 
3 *583:11 *583:13 3.41 
4 *583:13 *583:15 93.625 
5 *583:15 *988:wbs_dat_i[16] 1.40179 
*END

*D_NET *584 0.0745729
*CONN
*P wbs_dat_i[17] I
*I *988:wbs_dat_i[17] I *D soc_sys
*CAP
1 wbs_dat_i[17] 0.0024155
2 *988:wbs_dat_i[17] 8.20618e-05
3 *584:15 0.0029651
4 *584:13 0.00288304
5 *584:11 0.0100072
6 *584:9 0.0100072
7 *584:7 0.0024155
8 *584:11 *593:15 0.0185087
9 *584:11 *618:13 0
10 *549:11 *584:11 0.0252887
11 *550:11 *584:11 0
12 *551:9 *584:7 0
*RES
1 wbs_dat_i[17] *584:7 47.1518 
2 *584:7 *584:9 3.41 
3 *584:9 *584:11 52.0071 
4 *584:11 *584:13 3.41 
5 *584:13 *584:15 54.7679 
6 *584:15 *988:wbs_dat_i[17] 1.40179 
*END

*D_NET *585 0.0888568
*CONN
*P wbs_dat_i[18] I
*I *988:wbs_dat_i[18] I *D soc_sys
*CAP
1 wbs_dat_i[18] 0.000632109
2 *988:wbs_dat_i[18] 8.34263e-05
3 *585:15 0.00490541
4 *585:13 0.00482198
5 *585:11 0.00550408
6 *585:9 0.00613619
7 *585:9 wbs_dat_o[18] 0
8 *585:11 *599:11 0
9 *552:11 *585:11 0.033308
10 *553:11 *585:11 0.0332569
11 *583:11 *585:11 0.000208754
*RES
1 wbs_dat_i[18] *585:9 14.9546 
2 *585:9 *585:11 53.7367 
3 *585:11 *585:13 3.41 
4 *585:13 *585:15 90.5893 
5 *585:15 *988:wbs_dat_i[18] 1.40179 
*END

*D_NET *586 0.0776939
*CONN
*P wbs_dat_i[19] I
*I *988:wbs_dat_i[19] I *D soc_sys
*CAP
1 wbs_dat_i[19] 0.00213429
2 *988:wbs_dat_i[19] 8.20618e-05
3 *586:15 0.00330728
4 *586:13 0.00322522
5 *586:11 0.0100268
6 *586:9 0.0121611
7 *586:9 *618:17 0
8 *586:11 *595:11 0.0216028
9 *586:11 *600:11 0
10 *550:11 *586:11 0.0251544
11 *573:15 *586:9 0
*RES
1 wbs_dat_i[19] *586:9 44.0975 
2 *586:9 *586:11 55.9707 
3 *586:11 *586:13 3.41 
4 *586:13 *586:15 61.4464 
5 *586:15 *988:wbs_dat_i[19] 1.40179 
*END

*D_NET *587 0.0273849
*CONN
*P wbs_dat_i[1] I
*I *988:wbs_dat_i[1] I *D soc_sys
*CAP
1 wbs_dat_i[1] 0.0015648
2 *988:wbs_dat_i[1] 0.00413469
3 *587:11 0.00782847
4 *587:9 0.00525858
5 *988:wbs_dat_i[1] *619:23 0.00681311
6 *988:io_in[20] *988:wbs_dat_i[1] 0.0012081
7 *988:wbs_adr_i[3] *988:wbs_dat_i[1] 9.84683e-05
8 *43:35 *587:11 4.29626e-05
9 *44:39 *988:wbs_dat_i[1] 9.55853e-05
10 *45:27 *988:wbs_dat_i[1] 0
11 *540:25 *988:wbs_dat_i[1] 0.000244062
12 *541:27 *988:wbs_dat_i[1] 9.61175e-05
13 *542:15 *587:11 0
*RES
1 wbs_dat_i[1] *587:9 31.2411 
2 *587:9 *587:11 70.4107 
3 *587:11 *988:wbs_dat_i[1] 39.0933 
*END

*D_NET *588 0.114257
*CONN
*P wbs_dat_i[20] I
*I *988:wbs_dat_i[20] I *D soc_sys
*CAP
1 wbs_dat_i[20] 0.000504411
2 *988:wbs_dat_i[20] 8.20618e-05
3 *588:15 0.00486124
4 *588:13 0.00477918
5 *588:11 0.00602389
6 *588:9 0.0065283
7 *588:11 *599:11 0
8 *988:wbs_adr_i[22] *588:11 0.00688286
9 *555:11 *588:11 0.036167
10 *556:11 *588:11 0.0362716
11 *561:11 *588:11 0.00670003
12 *564:11 *588:11 0.00495074
13 *583:11 *588:11 0.000505991
*RES
1 wbs_dat_i[20] *588:9 12.7225 
2 *588:9 *588:11 58.2048 
3 *588:11 *588:13 3.41 
4 *588:13 *588:15 92.4107 
5 *588:15 *988:wbs_dat_i[20] 1.40179 
*END

*D_NET *589 0.0807104
*CONN
*P wbs_dat_i[21] I
*I *988:wbs_dat_i[21] I *D soc_sys
*CAP
1 wbs_dat_i[21] 0.00165613
2 *988:wbs_dat_i[21] 0.000817718
3 *589:15 0.00955893
4 *589:13 0.00874121
5 *589:11 0.00297655
6 *589:9 0.00463268
7 *32:37 *589:15 0.00446281
8 *105:44 *589:15 0.000539741
9 *143:13 *589:15 0.0105424
10 *544:17 *589:15 0.00272281
11 *559:15 *589:15 0.0340595
12 *574:15 *589:9 0
13 *574:15 *589:11 0
*RES
1 wbs_dat_i[21] *589:9 31.2411 
2 *589:9 *589:11 58.875 
3 *589:11 *589:13 3.41 
4 *589:13 *589:15 60.6551 
5 *589:15 *988:wbs_dat_i[21] 17.0796 
*END

*D_NET *590 0.0797627
*CONN
*P wbs_dat_i[22] I
*I *988:wbs_dat_i[22] I *D soc_sys
*CAP
1 wbs_dat_i[22] 0.00169828
2 *988:wbs_dat_i[22] 0.00115488
3 *590:15 0.0161348
4 *590:13 0.0149799
5 *590:11 0.00266014
6 *590:9 0.00435842
7 *590:15 *592:15 0
8 *988:wbs_adr_i[22] *590:9 0
9 *105:44 *590:15 0
10 *545:17 *590:15 0.00404289
11 *560:15 *590:15 0.0347333
*RES
1 wbs_dat_i[22] *590:9 31.8482 
2 *590:9 *590:11 52.8036 
3 *590:11 *590:13 3.41 
4 *590:13 *590:15 62.8171 
5 *590:15 *988:wbs_dat_i[22] 23.1511 
*END

*D_NET *591 0.0945134
*CONN
*P wbs_dat_i[23] I
*I *988:wbs_dat_i[23] I *D soc_sys
*CAP
1 wbs_dat_i[23] 0.00153347
2 *988:wbs_dat_i[23] 8.20618e-05
3 *591:15 0.00387738
4 *591:13 0.00379532
5 *591:11 0.0114319
6 *591:9 0.0129654
7 *591:11 *597:11 0.030141
8 *551:11 *591:11 0.0210563
9 *558:9 *591:9 0
10 *580:13 *591:11 0.00963061
*RES
1 wbs_dat_i[23] *591:9 31.7404 
2 *591:9 *591:11 65.1232 
3 *591:11 *591:13 3.41 
4 *591:13 *591:15 73.5893 
5 *591:15 *988:wbs_dat_i[23] 1.40179 
*END

*D_NET *592 0.082155
*CONN
*P wbs_dat_i[24] I
*I *988:wbs_dat_i[24] I *D soc_sys
*CAP
1 wbs_dat_i[24] 0.00171706
2 *988:wbs_dat_i[24] 0.00142035
3 *592:15 0.0159878
4 *592:13 0.0145675
5 *592:11 0.00235198
6 *592:9 0.00406904
7 *545:17 *592:15 0
8 *546:17 *592:15 0.00378118
9 *560:15 *592:15 0
10 *562:19 *592:15 0.0382601
11 *590:15 *592:15 0
*RES
1 wbs_dat_i[24] *592:9 31.8482 
2 *592:9 *592:11 46.7321 
3 *592:11 *592:13 3.41 
4 *592:13 *592:15 67.2131 
5 *592:15 *988:wbs_dat_i[24] 29.2225 
*END

*D_NET *593 0.0914317
*CONN
*P wbs_dat_i[25] I
*I *988:wbs_dat_i[25] I *D soc_sys
*CAP
1 wbs_dat_i[25] 0.00248259
2 *988:wbs_dat_i[25] 8.20618e-05
3 *593:19 0.00293445
4 *593:17 0.00285239
5 *593:15 0.0144545
6 *593:13 0.0144545
7 *593:11 0.00248259
8 *593:15 *600:11 0.0331799
9 *593:15 *618:13 0
10 *593:19 *625:17 0
11 *550:11 *593:15 0
12 *578:13 *593:11 0
13 *584:11 *593:15 0.0185087
*RES
1 wbs_dat_i[25] *593:11 47.2054 
2 *593:11 *593:13 3.41 
3 *593:13 *593:15 69.3031 
4 *593:15 *593:17 3.41 
5 *593:17 *593:19 55.375 
6 *593:19 *988:wbs_dat_i[25] 1.40179 
*END

*D_NET *594 0.0593854
*CONN
*P wbs_dat_i[26] I
*I *988:wbs_dat_i[26] I *D soc_sys
*CAP
1 wbs_dat_i[26] 4.32496e-05
2 *988:wbs_dat_i[26] 0.00178761
3 *594:11 0.0260405
4 *594:9 0.0242529
5 *594:7 0.00360894
6 *594:5 0.00365219
7 *988:wbs_dat_i[26] *629:17 0
8 *594:11 *613:15 0
9 *546:17 *594:11 0
10 *561:9 *594:7 0
11 *562:19 *594:11 0
*RES
1 wbs_dat_i[26] *594:5 0.883929 
2 *594:5 *594:7 69.3393 
3 *594:7 *594:9 3.41 
4 *594:9 *594:11 71.7533 
5 *594:11 *988:wbs_dat_i[26] 35.9011 
*END

*D_NET *595 0.0736229
*CONN
*P wbs_dat_i[27] I
*I *988:wbs_dat_i[27] I *D soc_sys
*CAP
1 wbs_dat_i[27] 0.00208968
2 *988:wbs_dat_i[27] 8.97879e-05
3 *595:15 0.00326892
4 *595:13 0.00317913
5 *595:11 0.0206514
6 *595:9 0.0227411
7 *595:11 *600:11 0
8 *595:11 *612:13 0
9 *586:11 *595:11 0.0216028
*RES
1 wbs_dat_i[27] *595:9 43.0796 
2 *595:9 *595:11 73.555 
3 *595:11 *595:13 3.41 
4 *595:13 *595:15 62.0536 
5 *595:15 *988:wbs_dat_i[27] 1.40179 
*END

*D_NET *596 0.0917865
*CONN
*P wbs_dat_i[28] I
*I *988:wbs_dat_i[28] I *D soc_sys
*CAP
1 wbs_dat_i[28] 4.32496e-05
2 *988:wbs_dat_i[28] 0.00235335
3 *596:11 0.0190077
4 *596:9 0.0166543
5 *596:7 0.00300952
6 *596:5 0.00305277
7 *596:11 *618:13 0
8 *988:wbs_adr_i[13] *596:7 4.6025e-06
9 *563:11 *596:11 0.047661
*RES
1 wbs_dat_i[28] *596:5 0.883929 
2 *596:5 *596:7 57.1964 
3 *596:7 *596:9 3.41 
4 *596:9 *596:11 76.1494 
5 *596:11 *988:wbs_dat_i[28] 48.6511 
*END

*D_NET *597 0.0837348
*CONN
*P wbs_dat_i[29] I
*I *988:wbs_dat_i[29] I *D soc_sys
*CAP
1 wbs_dat_i[29] 0.0015001
2 *988:wbs_dat_i[29] 8.20618e-05
3 *597:15 0.00382229
4 *597:13 0.00374023
5 *597:11 0.0214745
6 *597:9 0.0229746
7 *597:11 *617:13 0
8 *591:11 *597:11 0.030141
*RES
1 wbs_dat_i[29] *597:9 31.3475 
2 *597:9 *597:11 77.879 
3 *597:11 *597:13 3.41 
4 *597:13 *597:15 74.1964 
5 *597:15 *988:wbs_dat_i[29] 1.40179 
*END

*D_NET *598 0.0265794
*CONN
*P wbs_dat_i[2] I
*I *988:wbs_dat_i[2] I *D soc_sys
*CAP
1 wbs_dat_i[2] 4.32496e-05
2 *988:wbs_dat_i[2] 0.00181433
3 *598:13 0.00624033
4 *598:7 0.0078135
5 *598:5 0.00343074
6 *598:13 *988:wbs_sel_i[2] 0
7 *598:13 *602:17 0.00651174
8 *598:13 *643:13 0.000725553
9 *565:9 *598:7 0
*RES
1 wbs_dat_i[2] *598:5 0.883929 
2 *598:5 *598:7 69.3393 
3 *598:7 *598:13 24.4513 
4 *598:13 *988:wbs_dat_i[2] 32.4911 
*END

*D_NET *599 0.0975656
*CONN
*P wbs_dat_i[30] I
*I *988:wbs_dat_i[30] I *D soc_sys
*CAP
1 wbs_dat_i[30] 0.000896262
2 *988:wbs_dat_i[30] 8.20618e-05
3 *599:15 0.004432
4 *599:13 0.00434994
5 *599:11 0.0174846
6 *599:9 0.0183808
7 *552:11 *599:11 0.00240389
8 *553:11 *599:11 0
9 *555:11 *599:11 0
10 *556:11 *599:11 0
11 *566:9 *599:9 0
12 *566:11 *599:11 0.0495361
13 *585:11 *599:11 0
14 *588:11 *599:11 0
*RES
1 wbs_dat_i[30] *599:9 18.9904 
2 *599:9 *599:11 80.5455 
3 *599:11 *599:13 3.41 
4 *599:13 *599:15 86.9464 
5 *599:15 *988:wbs_dat_i[30] 1.40179 
*END

*D_NET *600 0.0883986
*CONN
*P wbs_dat_i[31] I
*I *988:wbs_dat_i[31] I *D soc_sys
*CAP
1 wbs_dat_i[31] 0.00245498
2 *988:wbs_dat_i[31] 8.20618e-05
3 *600:15 0.00291367
4 *600:13 0.00283161
5 *600:11 0.0222407
6 *600:9 0.0246957
7 *550:11 *600:11 0
8 *567:9 *600:9 0
9 *586:11 *600:11 0
10 *593:15 *600:11 0.0331799
11 *595:11 *600:11 0
*RES
1 wbs_dat_i[31] *600:9 49.3475 
2 *600:9 *600:11 82.7075 
3 *600:11 *600:13 3.41 
4 *600:13 *600:15 55.9821 
5 *600:15 *988:wbs_dat_i[31] 1.40179 
*END

*D_NET *601 0.0292831
*CONN
*P wbs_dat_i[3] I
*I *988:wbs_dat_i[3] I *D soc_sys
*CAP
1 wbs_dat_i[3] 0.00134314
2 *988:wbs_dat_i[3] 8.34263e-05
3 *601:15 0.00404274
4 *601:13 0.00978825
5 *601:9 0.00717208
6 *601:9 wbs_dat_o[3] 0
7 *601:13 *604:13 0.00685345
8 *565:13 *601:13 0
*RES
1 wbs_dat_i[3] *601:9 30.9368 
2 *601:9 *601:13 23.5636 
3 *601:13 *601:15 74.1964 
4 *601:15 *988:wbs_dat_i[3] 1.40179 
*END

*D_NET *602 0.0422502
*CONN
*P wbs_dat_i[4] I
*I *988:wbs_dat_i[4] I *D soc_sys
*CAP
1 wbs_dat_i[4] 0.000149285
2 *988:wbs_dat_i[4] 0.00177606
3 *602:17 0.00487647
4 *602:11 0.0064804
5 *602:9 0.00352927
6 *602:17 *607:13 0.0060863
7 *602:17 *609:15 0
8 *602:17 *643:13 0.0128407
9 *546:17 *602:17 0
10 *598:13 *602:17 0.00651174
*RES
1 wbs_dat_i[4] *602:9 3.36607 
2 *602:9 *602:11 68.7321 
3 *602:11 *602:17 30.2166 
4 *602:17 *988:wbs_dat_i[4] 31.8839 
*END

*D_NET *603 0.0397777
*CONN
*P wbs_dat_i[5] I
*I *988:wbs_dat_i[5] I *D soc_sys
*CAP
1 wbs_dat_i[5] 0.00152019
2 *988:wbs_dat_i[5] 0.0011682
3 *603:17 0.00677516
4 *603:11 0.00822297
5 *603:9 0.0041362
6 *603:17 *609:15 0
7 *988:wbs_adr_i[4] *603:17 0.0118328
8 *105:44 *603:17 0
9 *545:17 *603:17 0.0061222
10 *581:11 *988:wbs_dat_i[5] 0
*RES
1 wbs_dat_i[5] *603:9 31.2411 
2 *603:9 *603:11 52.8036 
3 *603:11 *603:17 32.3065 
4 *603:17 *988:wbs_dat_i[5] 19.7411 
*END

*D_NET *604 0.0375744
*CONN
*P wbs_dat_i[6] I
*I *988:wbs_dat_i[6] I *D soc_sys
*CAP
1 wbs_dat_i[6] 0.00138912
2 *988:wbs_dat_i[6] 8.20618e-05
3 *604:15 0.00392953
4 *604:13 0.0113738
5 *604:9 0.00891545
6 *604:13 *610:15 0
7 *604:13 *612:13 0
8 *550:9 *604:15 0
9 *565:13 *604:13 0
10 *580:13 *604:13 0.00503096
11 *601:13 *604:13 0.00685345
*RES
1 wbs_dat_i[6] *604:9 31.5439 
2 *604:9 *604:13 30.9144 
3 *604:13 *604:15 73.5893 
4 *604:15 *988:wbs_dat_i[6] 1.40179 
*END

*D_NET *605 0.0378787
*CONN
*P wbs_dat_i[7] I
*I *988:wbs_dat_i[7] I *D soc_sys
*CAP
1 wbs_dat_i[7] 0.00955455
2 *988:wbs_dat_i[7] 8.20618e-05
3 *605:15 0.00458366
4 *605:13 0.0045016
5 *605:11 0.00955455
6 *605:11 *615:13 0.00237691
7 *548:13 *605:11 0.00722536
*RES
1 wbs_dat_i[7] *605:11 48.1217 
2 *605:11 *605:13 3.41 
3 *605:13 *605:15 86.3393 
4 *605:15 *988:wbs_dat_i[7] 1.40179 
*END

*D_NET *606 0.0402923
*CONN
*P wbs_dat_i[8] I
*I *988:wbs_dat_i[8] I *D soc_sys
*CAP
1 wbs_dat_i[8] 4.43439e-05
2 *988:wbs_dat_i[8] 0.0023924
3 *606:13 0.0109533
4 *606:7 0.0115313
5 *606:5 0.00301482
6 *606:7 *630:9 0
7 *606:13 *611:15 0
8 *606:13 *613:15 0
9 *547:13 *606:13 0.0123562
10 *573:13 *606:7 0
*RES
1 wbs_dat_i[8] *606:5 0.883929 
2 *606:5 *606:7 57.8036 
3 *606:7 *606:13 39.0808 
4 *606:13 *988:wbs_dat_i[8] 44.6339 
*END

*D_NET *607 0.0384078
*CONN
*P wbs_dat_i[9] I
*I *988:wbs_dat_i[9] I *D soc_sys
*CAP
1 wbs_dat_i[9] 4.43439e-05
2 *988:wbs_dat_i[9] 0.00182896
3 *607:13 0.0125321
4 *607:7 0.0142874
5 *607:5 0.00362865
6 *607:13 *613:15 0
7 *546:17 *607:13 0
8 *602:17 *607:13 0.0060863
*RES
1 wbs_dat_i[9] *607:5 0.883929 
2 *607:5 *607:7 69.9464 
3 *607:7 *607:13 41.2428 
4 *607:13 *988:wbs_dat_i[9] 32.4911 
*END

*D_NET *608 0.0255058
*CONN
*P wbs_dat_o[0] O
*I *988:wbs_dat_o[0] O *D soc_sys
*CAP
1 wbs_dat_o[0] 0.0015388
2 *988:wbs_dat_o[0] 0.00235702
3 *608:29 0.00500751
4 *608:27 0.00582573
5 *608:27 *988:wbs_stb_i 0.00246348
6 *988:wbs_adr_i[3] *608:27 0.0010098
7 *36:29 *608:27 0.000338473
8 *42:47 *608:27 4.01462e-06
9 *43:35 *608:27 0.00107392
10 *66:25 *608:27 0.00519911
11 *113:29 *608:27 0
12 *541:15 *608:29 0
13 *541:25 *608:27 0.000194058
14 *541:27 *608:27 0.000493896
15 *576:7 wbs_dat_o[0] 0
*RES
1 *988:wbs_dat_o[0] *608:27 40.4668 
2 *608:27 *608:29 68.4375 
3 *608:29 wbs_dat_o[0] 31.2411 
*END

*D_NET *609 0.0493532
*CONN
*P wbs_dat_o[10] O
*I *988:wbs_dat_o[10] O *D soc_sys
*CAP
1 wbs_dat_o[10] 0.00155865
2 *988:wbs_dat_o[10] 0.00127421
3 *609:19 0.00391234
4 *609:15 0.0108898
5 *609:11 0.00981028
6 *609:15 *643:13 0
7 *545:17 *609:15 0
8 *546:17 *609:15 0.0214009
9 *559:11 *609:11 0.000507078
10 *602:17 *609:15 0
11 *603:17 *609:15 0
*RES
1 *988:wbs_dat_o[10] *609:11 29.2225 
2 *609:11 *609:15 40.6434 
3 *609:15 *609:19 47.6786 
4 *609:19 wbs_dat_o[10] 30.9018 
*END

*D_NET *610 0.0456666
*CONN
*P wbs_dat_o[11] O
*I *988:wbs_dat_o[11] O *D soc_sys
*CAP
1 wbs_dat_o[11] 0.00114812
2 *988:wbs_dat_o[11] 8.20618e-05
3 *610:15 0.0121619
4 *610:9 0.0151942
5 *610:7 0.00426249
6 *610:15 *615:13 0
7 *610:15 *617:13 0.0128178
8 *580:13 *610:15 0
9 *604:13 *610:15 0
*RES
1 *988:wbs_dat_o[11] *610:7 1.40179 
2 *610:7 *610:9 79.6607 
3 *610:9 *610:15 46.3595 
4 *610:15 wbs_dat_o[11] 22.2589 
*END

*D_NET *611 0.0480159
*CONN
*P wbs_dat_o[12] O
*I *988:wbs_dat_o[12] O *D soc_sys
*CAP
1 wbs_dat_o[12] 4.32496e-05
2 *988:wbs_dat_o[12] 8.34263e-05
3 *611:17 0.00264961
4 *611:15 0.0140616
5 *611:9 0.0141388
6 *611:7 0.00276696
7 *611:15 *618:13 0.0142723
8 *547:13 *611:15 0
9 *549:11 *611:15 0
10 *606:13 *611:15 0
*RES
1 *988:wbs_dat_o[12] *611:7 1.40179 
2 *611:7 *611:9 49.3036 
3 *611:9 *611:15 48.5936 
4 *611:15 *611:17 51.7321 
5 *611:17 wbs_dat_o[12] 0.883929 
*END

*D_NET *612 0.0409699
*CONN
*P wbs_dat_o[13] O
*I *988:wbs_dat_o[13] O *D soc_sys
*CAP
1 wbs_dat_o[13] 0.00173264
2 *988:wbs_dat_o[13] 8.20618e-05
3 *612:13 0.0168076
4 *612:9 0.0186702
5 *612:7 0.00367736
6 *548:9 wbs_dat_o[13] 0
7 *551:11 *612:13 0
8 *571:13 *612:13 0
9 *595:11 *612:13 0
10 *604:13 *612:13 0
*RES
1 *988:wbs_dat_o[13] *612:7 1.40179 
2 *612:7 *612:9 68.125 
3 *612:9 *612:13 46.9132 
4 *612:13 wbs_dat_o[13] 37.4189 
*END

*D_NET *613 0.0433332
*CONN
*P wbs_dat_o[14] O
*I *988:wbs_dat_o[14] O *D soc_sys
*CAP
1 wbs_dat_o[14] 4.43439e-05
2 *988:wbs_dat_o[14] 0.00209128
3 *613:17 0.00334535
4 *613:15 0.019531
5 *613:11 0.0183212
6 *563:11 *613:15 0
7 *581:11 *613:17 0
8 *594:11 *613:15 0
9 *606:13 *613:15 0
10 *607:13 *613:15 0
*RES
1 *988:wbs_dat_o[14] *613:11 41.9725 
2 *613:11 *613:15 49.5797 
3 *613:15 *613:17 63.875 
4 *613:17 wbs_dat_o[14] 0.883929 
*END

*D_NET *614 0.0766704
*CONN
*P wbs_dat_o[15] O
*I *988:wbs_dat_o[15] O *D soc_sys
*CAP
1 wbs_dat_o[15] 0.000216126
2 *988:wbs_dat_o[15] 8.20618e-05
3 *614:13 0.00632781
4 *614:11 0.00611169
5 *614:9 0.00513474
6 *614:7 0.0052168
7 wbs_dat_o[15] *637:17 0.000152092
8 *614:13 wbs_dat_o[9] 0.00217122
9 *614:13 *616:13 0.0269985
10 *988:wbs_adr_i[22] *614:13 0.00213728
11 *573:13 *614:13 0.000378675
12 *579:11 *614:13 0.0199127
13 *582:11 *614:13 0.00183068
14 *583:11 *614:13 0
*RES
1 *988:wbs_dat_o[15] *614:7 1.40179 
2 *614:7 *614:9 97.2679 
3 *614:9 *614:11 3.41 
4 *614:11 *614:13 47.9713 
5 *614:13 wbs_dat_o[15] 7.86536 
*END

*D_NET *615 0.0580644
*CONN
*P wbs_dat_o[16] O
*I *988:wbs_dat_o[16] O *D soc_sys
*CAP
1 wbs_dat_o[16] 0.000832926
2 *988:wbs_dat_o[16] 8.20618e-05
3 *615:13 0.0137705
4 *615:11 0.0129375
5 *615:9 0.00446268
6 *615:7 0.00454474
7 wbs_dat_o[16] *639:17 0
8 *615:13 *617:13 0
9 *548:13 *615:13 0.0108948
10 *552:11 *615:13 0
11 *566:11 *615:13 0.00816234
12 *605:11 *615:13 0.00237691
13 *610:15 *615:13 0
*RES
1 *988:wbs_dat_o[16] *615:7 1.40179 
2 *615:7 *615:9 85.7321 
3 *615:9 *615:11 3.41 
4 *615:11 *615:13 50.2054 
5 *615:13 wbs_dat_o[16] 18.9904 
*END

*D_NET *616 0.0733428
*CONN
*P wbs_dat_o[17] O
*I *988:wbs_dat_o[17] O *D soc_sys
*CAP
1 wbs_dat_o[17] 0.000225469
2 *988:wbs_dat_o[17] 8.20618e-05
3 *616:13 0.00757702
4 *616:11 0.00735155
5 *616:9 0.00512029
6 *616:7 0.00520235
7 *616:13 *621:13 0.0099764
8 *616:13 *632:21 0.00859983
9 *988:wbs_adr_i[22] *616:13 9.32361e-05
10 *556:11 *616:13 0
11 *573:13 *616:13 0.00100097
12 *578:11 *616:13 0.00111518
13 *583:11 *616:13 0
14 *614:13 *616:13 0.0269985
*RES
1 *988:wbs_dat_o[17] *616:7 1.40179 
2 *616:7 *616:9 97.875 
3 *616:9 *616:11 3.41 
4 *616:11 *616:13 52.2953 
5 *616:13 wbs_dat_o[17] 7.66893 
*END

*D_NET *617 0.056779
*CONN
*P wbs_dat_o[18] O
*I *988:wbs_dat_o[18] O *D soc_sys
*CAP
1 wbs_dat_o[18] 0.00115474
2 *988:wbs_dat_o[18] 8.20618e-05
3 *617:13 0.0177268
4 *617:11 0.016572
5 *617:9 0.00417177
6 *617:7 0.00425383
7 *566:11 *617:13 0
8 *580:13 *617:13 0
9 *585:9 wbs_dat_o[18] 0
10 *597:11 *617:13 0
11 *610:15 *617:13 0.0128178
12 *615:13 *617:13 0
*RES
1 *988:wbs_dat_o[18] *617:7 1.40179 
2 *617:7 *617:9 80.2679 
3 *617:9 *617:11 3.41 
4 *617:11 *617:13 54.8897 
5 *617:13 wbs_dat_o[18] 25.0618 
*END

*D_NET *618 0.0593851
*CONN
*P wbs_dat_o[19] O
*I *988:wbs_dat_o[19] O *D soc_sys
*CAP
1 wbs_dat_o[19] 4.32496e-05
2 *988:wbs_dat_o[19] 8.20618e-05
3 *618:17 0.00268275
4 *618:15 0.0026395
5 *618:13 0.0171483
6 *618:11 0.0171483
7 *618:9 0.00264329
8 *618:7 0.00272535
9 *547:13 *618:13 0
10 *549:11 *618:13 0
11 *584:11 *618:13 0
12 *586:9 *618:17 0
13 *593:15 *618:13 0
14 *596:11 *618:13 0
15 *611:15 *618:13 0.0142723
*RES
1 *988:wbs_dat_o[19] *618:7 1.40179 
2 *618:7 *618:9 49.9107 
3 *618:9 *618:11 3.41 
4 *618:11 *618:13 57.1238 
5 *618:13 *618:15 3.41 
6 *618:15 *618:17 50.5179 
7 *618:17 wbs_dat_o[19] 0.883929 
*END

*D_NET *619 0.0302012
*CONN
*P wbs_dat_o[1] O
*I *988:wbs_dat_o[1] O *D soc_sys
*CAP
1 wbs_dat_o[1] 0.0015112
2 *988:wbs_dat_o[1] 0.00247404
3 *619:25 0.00510918
4 *619:23 0.00607203
5 *988:io_in[20] *619:23 0.00198345
6 *988:wbs_cyc_i *619:25 0
7 *988:wbs_dat_i[1] *619:23 0.00681311
8 *44:39 *619:23 5.11642e-05
9 *45:27 *619:23 0
10 *540:25 *619:23 0.00615401
11 *541:25 *619:25 3.30259e-05
*RES
1 *988:wbs_dat_o[1] *619:23 30.264 
2 *619:23 *619:25 70.4107 
3 *619:25 wbs_dat_o[1] 31.2411 
*END

*D_NET *620 0.0725855
*CONN
*P wbs_dat_o[20] O
*I *988:wbs_dat_o[20] O *D soc_sys
*CAP
1 wbs_dat_o[20] 0.000723166
2 *988:wbs_dat_o[20] 0.000306754
3 *620:33 0.00384034
4 *620:31 0.00496566
5 *620:17 0.0143812
6 *620:15 0.0128395
7 *620:15 *622:13 0.0001465
8 *620:17 *622:13 0.0339154
9 *620:31 *639:15 9.40633e-05
10 *114:13 *620:17 0
11 *540:25 *620:15 0.000302942
12 *540:25 *620:17 0.000979325
13 *541:27 *620:31 9.06546e-05
14 *556:9 wbs_dat_o[20] 0
*RES
1 *988:wbs_dat_o[20] *620:15 11.6557 
2 *620:15 *620:17 58.5651 
3 *620:17 *620:31 38.2856 
4 *620:31 *620:33 61.7321 
5 *620:33 wbs_dat_o[20] 12.9554 
*END

*D_NET *621 0.0878189
*CONN
*P wbs_dat_o[21] O
*I *988:wbs_dat_o[21] O *D soc_sys
*CAP
1 wbs_dat_o[21] 0.000139089
2 *988:wbs_dat_o[21] 8.20618e-05
3 *621:13 0.00695536
4 *621:11 0.00681627
5 *621:9 0.00510723
6 *621:7 0.00518929
7 *621:13 *623:13 0.00169813
8 *621:13 *627:29 0.00194853
9 *621:13 *629:21 0.0249499
10 *621:13 *632:21 0.0213624
11 *988:wbs_adr_i[22] *621:13 9.80649e-05
12 *578:11 *621:13 0.00349626
13 *616:13 *621:13 0.0099764
*RES
1 *988:wbs_dat_o[21] *621:7 1.40179 
2 *621:7 *621:9 99.0893 
3 *621:9 *621:11 3.41 
4 *621:11 *621:13 61.1595 
5 *621:13 wbs_dat_o[21] 6.04393 
*END

*D_NET *622 0.0797109
*CONN
*P wbs_dat_o[22] O
*I *988:wbs_dat_o[22] O *D soc_sys
*CAP
1 wbs_dat_o[22] 8.52196e-05
2 *988:wbs_dat_o[22] 0.000625288
3 *622:25 0.00515397
4 *622:23 0.0053991
5 *622:13 0.00905089
6 *622:11 0.00934583
7 *988:wbs_adr_i[10] *622:25 0.000289027
8 *988:wbs_adr_i[22] *622:13 1.69055e-05
9 *66:25 *622:23 9.56793e-06
10 *114:13 *622:13 0
11 *540:25 *622:11 0.00136257
12 *540:25 *622:13 0.0142633
13 *541:27 *622:23 4.73953e-05
14 *620:15 *622:13 0.0001465
15 *620:17 *622:13 0.0339154
*RES
1 *988:wbs_dat_o[22] *622:11 6.38673 
2 *622:11 *622:13 61.0875 
3 *622:13 *622:23 10.8927 
4 *622:23 *622:25 99.0893 
5 *622:25 wbs_dat_o[22] 1.70536 
*END

*D_NET *623 0.10304
*CONN
*P wbs_dat_o[23] O
*I *988:wbs_dat_o[23] O *D soc_sys
*CAP
1 wbs_dat_o[23] 6.49481e-05
2 *988:wbs_dat_o[23] 0.000105688
3 *623:13 0.00734942
4 *623:11 0.00728447
5 *623:9 0.00519367
6 *623:7 0.00529935
7 *623:13 *625:21 0.0385359
8 *623:13 *627:29 0.0348038
9 *578:11 *623:13 0.00270446
10 *621:13 *623:13 0.00169813
*RES
1 *988:wbs_dat_o[23] *623:7 1.59821 
2 *623:7 *623:9 100.911 
3 *623:9 *623:11 3.41 
4 *623:11 *623:13 65.4835 
5 *623:13 wbs_dat_o[23] 4.70464 
*END

*D_NET *624 0.110565
*CONN
*P wbs_dat_o[24] O
*I *988:wbs_dat_o[24] O *D soc_sys
*CAP
1 wbs_dat_o[24] 0.00168178
2 *988:wbs_dat_o[24] 0.000293339
3 *624:17 0.00500249
4 *624:15 0.00332071
5 *624:13 0.00813254
6 *624:11 0.00842588
7 *624:13 *626:13 0.0390889
8 *988:wbs_adr_i[11] *624:17 0.0012382
9 *44:23 *624:13 3.30056e-05
10 *66:25 *624:13 0.0425848
11 *541:27 *624:13 0.000763365
*RES
1 *988:wbs_dat_o[24] *624:11 7.9725 
2 *624:11 *624:13 67.9338 
3 *624:13 *624:15 3.41 
4 *624:15 *624:17 67.9821 
5 *624:17 wbs_dat_o[24] 31.2411 
*END

*D_NET *625 0.0836296
*CONN
*P wbs_dat_o[25] O
*I *988:wbs_dat_o[25] O *D soc_sys
*CAP
1 wbs_dat_o[25] 8.88893e-05
2 *988:wbs_dat_o[25] 0.000455169
3 *625:21 0.0146549
4 *625:19 0.014566
5 *625:17 0.00498444
6 *625:15 0.00543961
7 *625:15 *626:13 0.000887181
8 *625:21 *627:29 0.00312789
9 *66:25 *625:15 0.00088954
10 *593:19 *625:17 0
11 *623:13 *625:21 0.0385359
*RES
1 *988:wbs_dat_o[25] *625:15 12.7988 
2 *625:15 *625:17 98.4821 
3 *625:17 *625:19 3.41 
4 *625:19 *625:21 68.6545 
5 *625:21 wbs_dat_o[25] 5.02607 
*END

*D_NET *626 0.11532
*CONN
*P wbs_dat_o[26] O
*I *988:wbs_dat_o[26] O *D soc_sys
*CAP
1 wbs_dat_o[26] 0.00167224
2 *988:wbs_dat_o[26] 0.000253809
3 *626:17 0.00524108
4 *626:15 0.00356884
5 *626:13 0.00886233
6 *626:11 0.00911614
7 *626:11 *632:17 4.6025e-06
8 *626:13 *628:13 0.0418417
9 *626:13 *629:15 0.00128343
10 *988:wbs_adr_i[12] *626:17 0
11 *42:27 *626:13 0.000317683
12 *43:23 *626:13 0.000342155
13 *66:25 *626:13 0.00212833
14 *541:27 *626:13 0.000711993
15 *624:13 *626:13 0.0390889
16 *625:15 *626:13 0.000887181
*RES
1 *988:wbs_dat_o[26] *626:11 7.36536 
2 *626:11 *626:13 72.3299 
3 *626:13 *626:15 3.41 
4 *626:15 *626:17 68.5893 
5 *626:17 wbs_dat_o[26] 31.2411 
*END

*D_NET *627 0.111053
*CONN
*P wbs_dat_o[27] O
*I *988:wbs_dat_o[27] O *D soc_sys
*CAP
1 wbs_dat_o[27] 8.36943e-05
2 *988:wbs_dat_o[27] 0.00328027
3 *627:29 0.00667244
4 *627:27 0.00658875
5 *627:25 0.00479436
6 *627:23 0.00807463
7 *627:29 *629:21 0.037443
8 *38:33 *627:23 5.0145e-05
9 *39:17 *627:23 4.73953e-05
10 *114:13 *627:23 0
11 *540:25 *627:23 0.00413759
12 *621:13 *627:29 0.00194853
13 *623:13 *627:29 0.0348038
14 *625:21 *627:29 0.00312789
*RES
1 *988:wbs_dat_o[27] *627:23 26.1812 
2 *627:23 *627:25 95.4464 
3 *627:25 *627:27 3.41 
4 *627:27 *627:29 63.826 
5 *627:29 wbs_dat_o[27] 5.11536 
*END

*D_NET *628 0.123893
*CONN
*P wbs_dat_o[28] O
*I *988:wbs_dat_o[28] O *D soc_sys
*CAP
1 wbs_dat_o[28] 0.00174462
2 *988:wbs_dat_o[28] 0.000217644
3 *628:17 0.00545748
4 *628:15 0.00371286
5 *628:13 0.00902937
6 *628:11 0.00924702
7 *628:13 *629:15 3.22206e-05
8 *628:13 *631:13 0.0446125
9 *628:13 *632:15 0.00617718
10 *541:27 *628:13 0.00182053
11 *580:15 wbs_dat_o[28] 0
12 *580:15 *628:17 0
13 *626:13 *628:13 0.0418417
*RES
1 *988:wbs_dat_o[28] *628:11 6.75821 
2 *628:11 *628:13 76.7259 
3 *628:13 *628:15 3.41 
4 *628:15 *628:17 69.1964 
5 *628:17 wbs_dat_o[28] 31.8482 
*END

*D_NET *629 0.119606
*CONN
*P wbs_dat_o[29] O
*I *988:wbs_dat_o[29] O *D soc_sys
*CAP
1 wbs_dat_o[29] 0.000110588
2 *988:wbs_dat_o[29] 0.00221484
3 *629:21 0.00657937
4 *629:19 0.00646879
5 *629:17 0.00502195
6 *629:15 0.00723678
7 *629:15 *632:15 0.00930828
8 *629:21 *632:21 0.00830155
9 *988:wbs_dat_i[26] *629:17 0
10 *66:25 *629:15 0.0106552
11 *621:13 *629:21 0.0249499
12 *626:13 *629:15 0.00128343
13 *627:29 *629:21 0.037443
14 *628:13 *629:15 3.22206e-05
*RES
1 *988:wbs_dat_o[29] *629:15 28.3652 
2 *629:15 *629:17 96.6607 
3 *629:17 *629:19 3.41 
4 *629:19 *629:21 61.7361 
5 *629:21 wbs_dat_o[29] 5.43679 
*END

*D_NET *630 0.022851
*CONN
*P wbs_dat_o[2] O
*I *988:wbs_dat_o[2] O *D soc_sys
*CAP
1 wbs_dat_o[2] 0.000136179
2 *988:wbs_dat_o[2] 8.10812e-05
3 *630:19 0.00255389
4 *630:15 0.00855082
5 *630:9 0.00879052
6 *630:7 0.00273849
7 *630:9 *638:17 0
8 *554:13 *630:15 0
9 *606:7 *630:9 0
*RES
1 *988:wbs_dat_o[2] *630:7 1.40179 
2 *630:7 *630:9 49.9107 
3 *630:9 *630:15 25.0999 
4 *630:15 *630:19 49.8393 
5 *630:19 wbs_dat_o[2] 2.83036 
*END

*D_NET *631 0.139797
*CONN
*P wbs_dat_o[30] O
*I *988:wbs_dat_o[30] O *D soc_sys
*CAP
1 wbs_dat_o[30] 0.00176549
2 *988:wbs_dat_o[30] 0.000179796
3 *631:17 0.00540343
4 *631:15 0.00363794
5 *631:13 0.00878866
6 *631:11 0.00896846
7 *631:13 *632:15 0.00329889
8 *988:wbs_dat_i[14] *631:17 0.000252049
9 *40:29 *631:13 0.0109827
10 *541:27 *631:13 0.0519068
11 *628:13 *631:13 0.0446125
*RES
1 *988:wbs_dat_o[30] *631:11 6.15107 
2 *631:11 *631:13 81.122 
3 *631:13 *631:15 3.41 
4 *631:15 *631:17 69.8036 
5 *631:17 wbs_dat_o[30] 31.8482 
*END

*D_NET *632 0.101819
*CONN
*P wbs_dat_o[31] O
*I *988:wbs_dat_o[31] O *D soc_sys
*CAP
1 wbs_dat_o[31] 0.000206887
2 *988:wbs_dat_o[31] 0.00383722
3 *632:21 0.0115707
4 *632:19 0.0113638
5 *632:17 0.00483309
6 *632:15 0.00867031
7 *66:25 *632:15 0.00327677
8 *541:27 *632:15 0.00100762
9 *556:11 *632:21 0
10 *616:13 *632:21 0.00859983
11 *621:13 *632:21 0.0213624
12 *626:11 *632:17 4.6025e-06
13 *628:13 *632:15 0.00617718
14 *629:15 *632:15 0.00930828
15 *629:21 *632:21 0.00830155
16 *631:13 *632:15 0.00329889
*RES
1 *988:wbs_dat_o[31] *632:15 35.5412 
2 *632:15 *632:17 96.0536 
3 *632:17 *632:19 3.41 
4 *632:19 *632:21 58.2769 
5 *632:21 wbs_dat_o[31] 7.06179 
*END

*D_NET *633 0.0395379
*CONN
*P wbs_dat_o[3] O
*I *988:wbs_dat_o[3] O *D soc_sys
*CAP
1 wbs_dat_o[3] 0.00152275
2 *988:wbs_dat_o[3] 0.00296697
3 *633:17 0.00476235
4 *633:15 0.00620656
5 *633:17 *643:7 0
6 *988:wbs_dat_i[0] *633:17 0
7 *32:37 *633:15 0.00291823
8 *115:17 *633:15 0.0076482
9 *118:13 *633:15 0.0135128
10 *601:9 wbs_dat_o[3] 0
*RES
1 *988:wbs_dat_o[3] *633:15 37.3301 
2 *633:15 *633:17 63.125 
3 *633:17 wbs_dat_o[3] 31.2411 
*END

*D_NET *634 0.0428301
*CONN
*P wbs_dat_o[4] O
*I *988:wbs_dat_o[4] O *D soc_sys
*CAP
1 wbs_dat_o[4] 0.00152019
2 *988:wbs_dat_o[4] 0.00351563
3 *634:17 0.00451534
4 *634:15 0.00651078
5 *634:15 *635:21 0
6 *988:wbs_adr_i[5] *634:15 0.0148206
7 *32:37 *634:15 0.00320376
8 *105:44 *634:15 0
9 *143:13 *634:15 0.00874379
*RES
1 *988:wbs_dat_o[4] *634:15 43.3206 
2 *634:15 *634:17 60.0893 
3 *634:17 wbs_dat_o[4] 31.2411 
*END

*D_NET *635 0.0438799
*CONN
*P wbs_dat_o[5] O
*I *988:wbs_dat_o[5] O *D soc_sys
*CAP
1 wbs_dat_o[5] 0.00353633
2 *988:wbs_dat_o[5] 0.00116434
3 *635:21 0.00809376
4 *635:19 0.00572177
5 wbs_dat_o[5] wbs_dat_o[6] 0.00292999
6 wbs_dat_o[5] wbs_dat_o[7] 0.0100991
7 wbs_dat_o[5] wbs_dat_o[9] 0.00661325
8 *635:19 *636:15 0.000118774
9 *635:19 *638:15 0.00103949
10 *66:25 *635:19 0.00258954
11 *580:9 *635:21 0.00197353
12 *634:15 *635:21 0
*RES
1 *988:wbs_dat_o[5] *635:19 15.6352 
2 *635:19 *635:21 95.4464 
3 *635:21 wbs_dat_o[5] 31.5119 
*END

*D_NET *636 0.0436434
*CONN
*P wbs_dat_o[6] O
*I *988:wbs_dat_o[6] O *D soc_sys
*CAP
1 wbs_dat_o[6] 0.00472658
2 *988:wbs_dat_o[6] 0.000857812
3 *636:17 0.00956129
4 *636:15 0.00569251
5 wbs_dat_o[6] wbs_dat_o[9] 0.00943139
6 *636:15 *637:15 0.00198888
7 *636:15 *638:15 0.000384384
8 *636:15 *639:17 5.1416e-05
9 wbs_dat_o[5] wbs_dat_o[6] 0.00292999
10 *66:25 *636:15 0.00326615
11 *549:7 *636:17 0
12 *572:9 wbs_dat_o[6] 0
13 *579:11 wbs_dat_o[6] 0.00463422
14 *635:19 *636:15 0.000118774
*RES
1 *988:wbs_dat_o[6] *636:15 16.5462 
2 *636:15 *636:17 94.2321 
3 *636:17 wbs_dat_o[6] 34.7223 
*END

*D_NET *637 0.0522514
*CONN
*P wbs_dat_o[7] O
*I *988:wbs_dat_o[7] O *D soc_sys
*CAP
1 wbs_dat_o[7] 0.00267939
2 *988:wbs_dat_o[7] 0.00140708
3 *637:17 0.00685363
4 *637:15 0.00558132
5 wbs_dat_o[7] wbs_dat_o[9] 0.00230971
6 *637:15 *638:15 0.00108871
7 *637:15 *639:15 0.00304403
8 wbs_dat_o[15] *637:17 0.000152092
9 wbs_dat_o[5] wbs_dat_o[7] 0.0100991
10 *66:25 *637:15 0.00163015
11 *571:15 *637:17 0.00175359
12 *573:13 wbs_dat_o[7] 0.0136637
13 *636:15 *637:15 0.00198888
*RES
1 *988:wbs_dat_o[7] *637:15 18.8938 
2 *637:15 *637:17 96.6607 
3 *637:17 wbs_dat_o[7] 31.7695 
*END

*D_NET *638 0.0668011
*CONN
*P wbs_dat_o[8] O
*I *988:wbs_dat_o[8] O *D soc_sys
*CAP
1 wbs_dat_o[8] 0.00160043
2 *988:wbs_dat_o[8] 0.0046536
3 *638:17 0.00518842
4 *638:15 0.00824159
5 *638:15 *639:15 0.0061695
6 *988:io_in[20] *638:15 0.000413686
7 *988:wbs_adr_i[3] *638:15 0.00187502
8 *40:29 *638:15 0.00442856
9 *42:29 *638:15 0.00248774
10 *43:25 *638:15 0.00409912
11 *44:25 *638:15 0.00268258
12 *66:25 *638:15 0.00143565
13 *541:27 *638:15 0.0210126
14 *630:9 *638:17 0
15 *635:19 *638:15 0.00103949
16 *636:15 *638:15 0.000384384
17 *637:15 *638:15 0.00108871
*RES
1 *988:wbs_dat_o[8] *638:15 42.3984 
2 *638:15 *638:17 69.8036 
3 *638:17 wbs_dat_o[8] 31.8482 
*END

*D_NET *639 0.0587277
*CONN
*P wbs_dat_o[9] O
*I *988:wbs_dat_o[9] O *D soc_sys
*CAP
1 wbs_dat_o[9] 0.00239792
2 *988:wbs_dat_o[9] 0.00260173
3 *639:17 0.00733646
4 *639:15 0.00754026
5 wbs_dat_o[16] *639:17 0
6 wbs_dat_o[5] wbs_dat_o[9] 0.00661325
7 wbs_dat_o[6] wbs_dat_o[9] 0.00943139
8 wbs_dat_o[7] wbs_dat_o[9] 0.00230971
9 *42:29 *639:15 0.00200001
10 *44:25 *639:15 0.00184696
11 *66:25 *639:15 0.00202827
12 *541:27 *639:15 0.00157702
13 *544:9 wbs_dat_o[9] 0
14 *551:9 *639:17 0
15 *573:13 wbs_dat_o[9] 0.000802767
16 *579:11 wbs_dat_o[9] 0.000711706
17 *614:13 wbs_dat_o[9] 0.00217122
18 *620:31 *639:15 9.40633e-05
19 *636:15 *639:17 5.1416e-05
20 *637:15 *639:15 0.00304403
21 *638:15 *639:15 0.0061695
*RES
1 *988:wbs_dat_o[9] *639:15 24.9889 
2 *639:15 *639:17 96.0536 
3 *639:17 wbs_dat_o[9] 30.339 
*END

*D_NET *640 0.0244457
*CONN
*P wbs_sel_i[0] I
*I *988:wbs_sel_i[0] I *D soc_sys
*CAP
1 wbs_sel_i[0] 8.34412e-05
2 *988:wbs_sel_i[0] 0.00277204
3 *640:7 0.00704366
4 *640:5 0.00435506
5 *988:wbs_dat_i[0] *988:wbs_sel_i[0] 0.00606018
6 *32:37 *988:wbs_sel_i[0] 0.000714207
7 *105:44 *988:wbs_sel_i[0] 0.00300722
8 *143:13 *988:wbs_sel_i[0] 0.000409932
9 *541:15 *640:7 0
10 *554:7 *640:7 0
*RES
1 wbs_sel_i[0] *640:5 1.70536 
2 *640:5 *640:7 87.5536 
3 *640:7 *988:wbs_sel_i[0] 33.8996 
*END

*D_NET *641 0.0217754
*CONN
*P wbs_sel_i[1] I
*I *988:wbs_sel_i[1] I *D soc_sys
*CAP
1 wbs_sel_i[1] 0.00197845
2 *988:wbs_sel_i[1] 8.10812e-05
3 *641:15 0.00329054
4 *641:13 0.00822803
5 *641:9 0.00699703
6 *571:13 *641:13 0.00120023
7 *572:11 *641:15 0
*RES
1 wbs_sel_i[1] *641:9 44.0975 
2 *641:9 *641:13 19.0955 
3 *641:13 *641:15 61.4464 
4 *641:15 *988:wbs_sel_i[1] 1.40179 
*END

*D_NET *642 0.0233879
*CONN
*P wbs_sel_i[2] I
*I *988:wbs_sel_i[2] I *D soc_sys
*CAP
1 wbs_sel_i[2] 0.0015648
2 *988:wbs_sel_i[2] 0.00777631
3 *642:13 0.0101291
4 *642:9 0.00391762
5 *988:wbs_sel_i[2] *643:13 0
6 *988:wbs_adr_i[0] *988:wbs_sel_i[2] 0
7 *598:13 *988:wbs_sel_i[2] 0
*RES
1 wbs_sel_i[2] *642:9 31.2411 
2 *642:9 *642:13 49.535 
3 *642:13 *988:wbs_sel_i[2] 48.7581 
*END

*D_NET *643 0.0337208
*CONN
*P wbs_sel_i[3] I
*I *988:wbs_sel_i[3] I *D soc_sys
*CAP
1 wbs_sel_i[3] 4.32496e-05
2 *988:wbs_sel_i[3] 0.00178235
3 *643:13 0.00653018
4 *643:7 0.0082517
5 *643:5 0.00354712
6 *988:wbs_sel_i[2] *643:13 0
7 *598:13 *643:13 0.000725553
8 *602:17 *643:13 0.0128407
9 *609:15 *643:13 0
10 *633:17 *643:7 0
*RES
1 wbs_sel_i[3] *643:5 0.883929 
2 *643:5 *643:7 70.5536 
3 *643:7 *643:13 28.8473 
4 *643:13 *988:wbs_sel_i[3] 31.2768 
*END

*D_NET *644 0.0241398
*CONN
*P wbs_stb_i I
*I *988:wbs_stb_i I *D soc_sys
*CAP
1 wbs_stb_i 0.0015112
2 *988:wbs_stb_i 0.0018428
3 *644:11 0.00532954
4 *644:9 0.00499793
5 *42:29 *988:wbs_stb_i 0.000213386
6 *42:47 *988:wbs_stb_i 0.000592683
7 *43:35 *988:wbs_stb_i 0.00127069
8 *44:25 *988:wbs_stb_i 0.000197888
9 *44:39 *988:wbs_stb_i 0.00486271
10 *69:27 *988:wbs_stb_i 4.73891e-05
11 *113:27 *988:wbs_stb_i 0.000155129
12 *113:27 *644:11 1.65923e-05
13 *541:25 *988:wbs_stb_i 0.000122494
14 *541:27 *988:wbs_stb_i 0.000515915
15 *608:27 *988:wbs_stb_i 0.00246348
*RES
1 wbs_stb_i *644:9 31.2411 
2 *644:9 *644:11 69.1964 
3 *644:11 *988:wbs_stb_i 19.5839 
*END

*D_NET *645 0.0212043
*CONN
*P wbs_we_i I
*I *988:wbs_we_i I *D soc_sys
*CAP
1 wbs_we_i 0.0015112
2 *988:wbs_we_i 0.00364583
3 *645:11 0.00621134
4 *645:9 0.00407671
5 *988:wbs_adr_i[0] *988:wbs_we_i 0.00575927
6 *105:44 *988:wbs_we_i 0
*RES
1 wbs_we_i *645:9 31.2411 
2 *645:9 *645:11 52.8036 
3 *645:11 *988:wbs_we_i 36.6974 
*END

*D_NET *646 0.221692
*CONN
*I *988:adc_chopclk I *D soc_sys
*I *984:buf_chopclk O *D CF_ADC_DSM20
*CAP
1 *988:adc_chopclk 0.000332627
2 *984:buf_chopclk 0.00108137
3 *646:18 0.0161339
4 *646:16 0.0158013
5 *646:14 0.0122706
6 *646:12 0.013352
7 *646:12 *659:16 4.76542e-05
8 *646:12 *660:12 0.0014917
9 *646:12 *669:13 0.0018179
10 *646:14 *659:18 0.045396
11 *646:14 *661:19 0.0241718
12 *646:14 *663:27 1.03904e-05
13 *646:14 *715:45 0.0042525
14 *646:14 *741:17 0.00513886
15 *646:14 *754:17 0
16 *646:18 *653:27 0.0476695
17 *646:18 *659:22 0.000633599
18 *646:18 *671:37 0.00749015
19 *646:18 *693:39 0.00963567
20 *646:18 *715:43 0.000292703
21 *646:18 *766:15 0.00413588
22 *646:18 *808:25 0.0105362
23 *108:13 *646:18 0
*RES
1 *984:buf_chopclk *646:12 10.3575 
2 *646:12 *646:14 559.304 
3 *646:14 *646:16 3.41 
4 *646:16 *646:18 76.7259 
5 *646:18 *988:adc_chopclk 8.25821 
*END

*D_NET *647 0.302842
*CONN
*I *988:adc_dout[0] I *D soc_sys
*I *984:dout[0] I *D CF_ADC_DSM20
*CAP
1 *988:adc_dout[0] 0.000164361
2 *984:dout[0] 0.00150817
3 *647:17 0.00964583
4 *647:15 0.00948147
5 *647:13 0.010645
6 *647:11 0.0121532
7 *647:13 *648:13 0.0597838
8 *647:13 *659:18 0.0113719
9 *647:13 *665:27 0.0391688
10 *647:13 *715:43 2.30116e-06
11 *647:13 *740:13 0.0035378
12 *647:13 *753:17 0.00897495
13 *647:13 *754:17 0
14 *647:17 *648:17 0.0544788
15 *647:17 *659:22 2.72228e-05
16 *647:17 *693:39 0.00586955
17 *647:17 *715:33 0.0117453
18 *647:17 *740:9 0.0026545
19 *647:17 *755:13 0.0501966
20 *647:17 *760:13 0.00104161
21 *647:17 *762:13 0.00096596
22 *647:17 *771:19 0.000238494
23 *647:17 *790:29 0.00900616
24 *19:53 *647:11 0.000180648
*RES
1 *984:dout[0] *647:11 13.8581 
2 *647:11 *647:13 737.196 
3 *647:13 *647:15 3.41 
4 *647:15 *647:17 86.0225 
5 *647:17 *988:adc_dout[0] 5.82964 
*END

*D_NET *648 0.308615
*CONN
*I *988:adc_dout[1] I *D soc_sys
*I *984:dout[1] I *D CF_ADC_DSM20
*CAP
1 *988:adc_dout[1] 0.000214341
2 *984:dout[1] 0.0013621
3 *648:17 0.00944486
4 *648:15 0.00923052
5 *648:13 0.0100183
6 *648:11 0.0113804
7 *648:11 *649:8 0
8 *648:11 *653:13 0
9 *648:13 *665:27 0.000304421
10 *648:13 *667:19 0.060294
11 *648:13 *715:43 1.26641e-05
12 *648:13 *740:13 0.00393091
13 *648:13 *753:17 0.0081337
14 *648:17 *988:adc_dout[6] 0.000362989
15 *648:17 *659:22 0.050951
16 *648:17 *667:23 0.00980647
17 *648:17 *693:39 0.00679113
18 *648:17 *766:15 2.11537e-05
19 *648:17 *770:27 0.000609606
20 *648:17 *771:19 0.00243529
21 *648:17 *805:25 0.00899999
22 *19:53 *648:11 4.87445e-05
23 *647:13 *648:13 0.0597838
24 *647:17 *648:17 0.0544788
*RES
1 *984:dout[1] *648:11 10.9467 
2 *648:11 *648:13 743.268 
3 *648:13 *648:15 3.41 
4 *648:15 *648:17 85.1577 
5 *648:17 *988:adc_dout[1] 6.43679 
*END

*D_NET *649 0.248378
*CONN
*I *988:adc_dout[2] I *D soc_sys
*I *984:dout[2] I *D CF_ADC_DSM20
*CAP
1 *988:adc_dout[2] 5.92556e-05
2 *984:dout[2] 0.00135346
3 *649:26 0.013665
4 *649:24 0.0138998
5 *649:14 0.00993233
6 *649:12 0.00963829
7 *649:10 0.00668231
8 *649:8 0.00803577
9 *649:8 *650:11 0.000606755
10 *649:8 *653:13 0.000137721
11 *649:10 *650:13 0.0391115
12 *649:10 *663:27 2.2355e-05
13 *649:10 *715:45 0.00513917
14 *649:10 *741:17 0.00225647
15 *649:10 *754:17 0.00910194
16 *649:10 *756:25 0.0228314
17 *649:14 *650:17 0.0527691
18 *649:14 *752:21 0.052995
19 *649:14 *756:21 0
20 *649:24 *656:65 0
21 *649:24 *817:13 9.26931e-05
22 *649:26 *792:35 0
23 *70:33 *649:14 4.8247e-05
24 *648:11 *649:8 0
*RES
1 *984:dout[2] *649:8 10.3983 
2 *649:8 *649:10 480.982 
3 *649:10 *649:12 3.41 
4 *649:12 *649:14 84.8334 
5 *649:14 *649:24 10.8582 
6 *649:24 *649:26 266.661 
7 *649:26 *988:adc_dout[2] 1.08036 
*END

*D_NET *650 0.22362
*CONN
*I *988:adc_dout[3] I *D soc_sys
*I *984:dout[3] I *D CF_ADC_DSM20
*CAP
1 *988:adc_dout[3] 5.92556e-05
2 *984:dout[3] 0.00145346
3 *650:29 0.0136627
4 *650:27 0.0139417
5 *650:17 0.0162605
6 *650:15 0.0159222
7 *650:13 0.00620327
8 *650:11 0.00765674
9 *650:11 *651:8 0
10 *650:11 *653:13 0.000172885
11 *650:13 *663:27 0.0392528
12 *650:13 *715:45 0.0055596
13 *650:13 *741:17 0.00313947
14 *650:13 *754:17 4.94506e-05
15 *650:17 *756:21 0.00775084
16 *650:27 *656:65 0
17 *650:27 *817:13 4.73953e-05
18 *649:8 *650:11 0.000606755
19 *649:10 *650:13 0.0391115
20 *649:14 *650:17 0.0527691
*RES
1 *984:dout[3] *650:11 12.4691 
2 *650:11 *650:13 482.196 
3 *650:13 *650:15 3.41 
4 *650:15 *650:17 84.0407 
5 *650:17 *650:27 10.8927 
6 *650:27 *650:29 266.661 
7 *650:29 *988:adc_dout[3] 1.08036 
*END

*D_NET *651 0.203659
*CONN
*I *988:adc_dout[4] I *D soc_sys
*I *984:dout[4] I *D CF_ADC_DSM20
*CAP
1 *988:adc_dout[4] 0.00216325
2 *984:dout[4] 0.000252845
3 *651:14 0.0194939
4 *651:12 0.0173307
5 *651:10 0.0181194
6 *651:8 0.0183723
7 *651:8 *652:11 0.00014096
8 *651:10 *984:FCHOP[1] 0.000364385
9 *651:10 *984:ODET_TH[2] 0.00114232
10 *651:10 *984:ODET_TH[1] 1.94945e-05
11 *651:10 *653:15 0.00799033
12 *651:10 *653:23 0
13 *651:10 *654:13 0.000612065
14 *651:10 *704:17 0.00766291
15 *651:10 *755:33 0.000217088
16 *651:10 *757:41 0.000273274
17 *651:10 *780:17 0.0426079
18 *651:10 *785:47 0.000432012
19 *651:10 *799:17 0.000222486
20 *651:10 *803:17 0.0122244
21 *651:10 *803:23 0.00202319
22 *651:10 *804:17 0.000496332
23 *651:10 *806:17 0
24 *651:10 *815:17 0
25 *651:10 *819:17 0
26 *651:14 *822:13 0.0514974
27 *650:11 *651:8 0
*RES
1 *984:dout[4] *651:8 7.5156 
2 *651:8 *651:10 718.982 
3 *651:10 *651:12 3.41 
4 *651:12 *651:14 80.4734 
5 *651:14 *988:adc_dout[4] 43.4725 
*END

*D_NET *652 0.214655
*CONN
*I *988:adc_dout[5] I *D soc_sys
*I *984:dout[5] I *D CF_ADC_DSM20
*CAP
1 *988:adc_dout[5] 5.92556e-05
2 *984:dout[5] 0.000468247
3 *652:21 0.0121165
4 *652:19 0.0120573
5 *652:17 0.0173459
6 *652:15 0.0173459
7 *652:13 0.00774022
8 *652:11 0.00820846
9 *652:11 *653:13 0.000163419
10 *652:13 *984:dig_test_sel[2] 4.26759e-05
11 *652:13 *653:23 0.0252646
12 *652:13 *654:13 0.000551345
13 *652:13 *704:17 0.000582614
14 *652:13 *755:33 0.000448033
15 *652:13 *757:39 0.00141901
16 *652:13 *771:33 0.00847687
17 *652:13 *804:17 0.00573609
18 *652:13 *812:17 0.000430987
19 *652:13 *813:17 0.0268466
20 *652:17 *791:21 0.00373751
21 *652:17 *794:45 0.0511873
22 *652:17 *873:13 0
23 *20:47 *652:13 0.0142847
24 *651:8 *652:11 0.00014096
*RES
1 *984:dout[5] *652:11 9.89379 
2 *652:11 *652:13 519.232 
3 *652:13 *652:15 3.41 
4 *652:15 *652:17 80.041 
5 *652:17 *652:19 3.41 
6 *652:19 *652:21 240.554 
7 *652:21 *988:adc_dout[5] 1.08036 
*END

*D_NET *653 0.260013
*CONN
*I *988:adc_dout[6] I *D soc_sys
*I *984:dout[6] I *D CF_ADC_DSM20
*CAP
1 *988:adc_dout[6] 0.000966194
2 *984:dout[6] 0.000666665
3 *653:27 0.0080529
4 *653:25 0.00708671
5 *653:23 0.0129547
6 *653:21 0.0131671
7 *653:15 0.00338306
8 *653:13 0.00383736
9 *988:adc_dout[6] *659:22 0.000596613
10 *988:adc_dout[6] *693:39 0.000543032
11 *988:adc_dout[6] *766:15 0.00271261
12 *988:adc_dout[6] *770:37 0.000605663
13 *988:adc_dout[6] *808:25 0.000526584
14 *653:15 *984:FCHOP[1] 0.0014224
15 *653:15 *984:ODET_TH[2] 0.00113883
16 *653:15 *984:ODET_TH[1] 2.09897e-05
17 *653:15 *755:33 0.00284726
18 *653:15 *757:41 0.0144488
19 *653:15 *785:47 0.000430987
20 *653:21 *755:31 0.000273892
21 *653:23 *654:13 0.0276472
22 *653:23 *799:17 0.00237683
23 *653:23 *804:17 0.00548145
24 *653:23 *813:17 0.00775117
25 *653:27 *659:22 0.0479974
26 *653:27 *693:39 0.00982184
27 *653:27 *766:15 0.000153696
28 *19:53 *653:13 0.00133955
29 *646:18 *653:27 0.0476695
30 *648:11 *653:13 0
31 *648:17 *988:adc_dout[6] 0.000362989
32 *649:8 *653:13 0.000137721
33 *650:11 *653:13 0.000172885
34 *651:10 *653:15 0.00799033
35 *651:10 *653:23 0
36 *652:11 *653:13 0.000163419
37 *652:13 *653:23 0.0252646
*RES
1 *984:dout[6] *653:13 24.344 
2 *653:13 *653:15 196.232 
3 *653:15 *653:21 7.2994 
4 *653:21 *653:23 549.589 
5 *653:23 *653:25 3.41 
6 *653:25 *653:27 74.9603 
7 *653:27 *988:adc_dout[6] 12.6746 
*END

*D_NET *654 0.189512
*CONN
*I *988:adc_dout[7] I *D soc_sys
*I *984:dout[7] I *D CF_ADC_DSM20
*CAP
1 *988:adc_dout[7] 5.92556e-05
2 *984:dout[7] 0.000468236
3 *654:21 0.0105695
4 *654:19 0.0105103
5 *654:17 0.0272225
6 *654:15 0.0272225
7 *654:13 0.00802455
8 *654:11 0.00849279
9 *654:13 *984:dig_test_sel[2] 4.43288e-05
10 *654:13 *704:17 0.00180666
11 *654:13 *755:33 0.000554337
12 *654:13 *757:39 0.00142072
13 *654:13 *780:17 0.000428897
14 *654:13 *786:17 0.0427003
15 *654:13 *799:17 0.00606804
16 *654:17 *795:13 0
17 *654:17 *819:13 0
18 *654:17 *874:13 0
19 *19:53 *654:11 8.32358e-05
20 *20:47 *654:13 0.0150251
21 *651:10 *654:13 0.000612065
22 *652:13 *654:13 0.000551345
23 *653:23 *654:13 0.0276472
*RES
1 *984:dout[7] *654:11 9.6693 
2 *654:11 *654:13 558.089 
3 *654:13 *654:15 3.41 
4 *654:15 *654:17 78.3114 
5 *654:17 *654:19 3.41 
6 *654:19 *654:21 210.804 
7 *654:21 *988:adc_dout[7] 1.08036 
*END

*D_NET *655 0.415235
*CONN
*I *986:iref I *D CF_BUF_HIZ
*I *984:iin I *D CF_ADC_DSM20
*I *985:ibg_2p375uA O *D CF_BGR
*CAP
1 *986:iref 6.87707e-05
2 *984:iin 0.000563318
3 *985:ibg_2p375uA 0.00475279
4 *655:65 0.00268956
5 *655:63 0.00266575
6 *655:61 0.00753606
7 *655:59 0.0074911
8 *655:57 0.081946
9 *655:55 0.081946
10 *655:53 0.00441253
11 *655:51 0.00596279
12 *655:30 0.00379537
13 *655:22 0.0331316
14 *655:20 0.0314498
15 *655:18 0.0291879
16 *655:16 0.0339407
17 *984:iin *984:iinc 1.49443e-05
18 *984:iin *984:itrim_sum[1] 6.53906e-06
19 *984:iin *984:itrim_2_3[0] 0
20 *984:iin *984:itrim_2_3[2] 0.000286592
21 *984:iin *984:itrim_2_3[3] 2.48858e-05
22 *984:iin *984:itrim_sum[5] 0.000174461
23 *984:iin *732:29 7.20393e-05
24 *984:iin *733:17 0.000130561
25 *984:iin *749:23 3.58143e-06
26 *984:iin *749:25 0.000417935
27 *986:iref *986:iref_casc 4.39814e-05
28 *655:18 *737:9 0
29 *655:30 *732:29 0.00212815
30 *655:30 *749:25 0.00512438
31 *655:51 *984:itrim_sum[0] 2.24813e-05
32 *655:51 *984:itrim_sum[1] 5.56713e-05
33 *655:51 *984:itrim_sum[3] 0.0026813
34 *655:51 *726:13 0
35 *655:53 *742:17 0.0114573
36 *655:57 *684:15 7.76548e-05
37 *655:57 *701:19 0.00398548
38 *655:57 *702:21 0.000260993
39 *655:57 *705:23 0.000387955
40 *655:57 *706:19 8.92305e-05
41 *655:57 *755:23 0.0043358
42 *655:57 *756:21 8.92305e-05
43 *655:57 *757:21 0.00246672
44 *655:57 *764:21 0.00443387
45 *655:57 *770:43 0.0277866
46 *655:57 *771:31 2.30233e-05
47 *655:57 *783:27 0.00100387
48 *655:65 *986:iref_casc 1.0562e-05
49 *986:vpwrb *655:57 0
50 *986:vcm *655:65 1.00689e-05
51 *24:13 *655:57 0
52 *26:9 *655:61 0
53 *26:9 *655:65 0
54 *45:19 *655:16 0.000377089
55 *71:27 *655:16 0.000770249
56 *120:27 *655:18 0.0149421
*RES
1 *985:ibg_2p375uA *655:16 29.8801 
2 *655:16 *655:18 600.589 
3 *655:18 *655:20 3.41 
4 *655:20 *655:22 85.0496 
5 *655:22 *655:30 15.2007 
6 *655:30 *984:iin 8.91463 
7 *655:30 *655:51 11.5874 
8 *655:51 *655:53 140.982 
9 *655:53 *655:55 3.41 
10 *655:55 *655:57 299.628 
11 *655:57 *655:59 3.41 
12 *655:59 *655:61 154.268 
13 *655:61 *655:63 0.946429 
14 *655:63 *655:65 54.058 
15 *655:65 *986:iref 1.70536 
*END

*D_NET *656 0.586491
*CONN
*I *986:iref_casc I *D CF_BUF_HIZ
*I *987:nbias I *D CF_REFBUF
*I *984:iinc I *D CF_ADC_DSM20
*I *985:ibg_3uA O *D CF_BGR
*CAP
1 *986:iref_casc 0.000336139
2 *987:nbias 0.00132718
3 *984:iinc 0.00478994
4 *985:ibg_3uA 0.00026434
5 *656:69 0.0110483
6 *656:67 0.0107122
7 *656:65 0.0508787
8 *656:63 0.0554376
9 *656:44 0.0034555
10 *656:40 0.0068386
11 *656:23 0.0258173
12 *656:21 0.0255862
13 *656:19 0.0213461
14 *656:17 0.0166358
15 *656:15 0.00235578
16 *656:13 0.00262012
17 *984:iinc *749:23 0
18 *656:13 *670:13 9.72997e-05
19 *656:15 *670:15 0.00580706
20 *656:19 *985:finetune 0
21 *656:19 *985:CurrAbsTrim[0] 0.00254161
22 *656:19 *985:trimTC[5] 0
23 *656:19 *985:inl_ctrl[2] 0
24 *656:19 *670:19 0.014865
25 *656:19 *670:29 7.75495e-06
26 *656:19 *868:17 0
27 *656:23 *697:13 0.0351844
28 *656:23 *698:17 0.0129132
29 *656:23 *733:17 0
30 *656:40 *868:17 0
31 *656:63 *984:itrim_2_3[2] 1.11244e-05
32 *656:63 *984:itrim_2_3[4] 2.77414e-05
33 *656:63 *732:29 0.00641908
34 *656:63 *733:17 0.00429999
35 *656:63 *749:25 0.000177599
36 *656:65 *660:18 0.00307647
37 *656:65 *714:13 0.00193413
38 *656:65 *717:13 0.00199154
39 *656:65 *749:15 0
40 *656:65 *752:19 0
41 *656:65 *817:13 0
42 *984:iin *984:iinc 1.49443e-05
43 *986:iref *986:iref_casc 4.39814e-05
44 *986:vcm *986:iref_casc 0.000379685
45 *13:14 *656:65 0.126394
46 *14:39 *656:69 5.64591e-05
47 *25:9 *656:69 0
48 *32:13 *656:65 0.0349487
49 *45:19 *656:19 0.0154277
50 *49:15 *656:15 0.00307455
51 *72:28 *656:19 0
52 *76:29 *656:19 0.0491619
53 *76:29 *656:40 0.0146409
54 *77:20 *656:19 0.00046754
55 *104:29 *656:65 0.0128282
56 *109:18 *656:19 0
57 *121:22 *656:15 0.000237443
58 *649:24 *656:65 0
59 *650:27 *656:65 0
60 *655:65 *986:iref_casc 1.0562e-05
*RES
1 *985:ibg_3uA *656:13 13.9107 
2 *656:13 *656:15 76.4732 
3 *656:15 *656:17 3.41 
4 *656:17 *656:19 89.4457 
5 *656:19 *656:21 3.41 
6 *656:21 *656:23 118.832 
7 *656:23 *984:iinc 7.5203 
8 *656:19 *656:40 26.194 
9 *656:40 *656:44 47.5804 
10 *656:44 *987:nbias 25.1161 
11 *984:iinc *656:63 35.9468 
12 *656:63 *656:65 296.205 
13 *656:65 *656:67 3.41 
14 *656:67 *656:69 220.062 
15 *656:69 *986:iref_casc 16.8571 
*END

*D_NET *657 0.416815
*CONN
*I *984:PBUF_INP I *D CF_ADC_DSM20
*I *984:INP I *D CF_ADC_DSM20
*I *986:out1 O *D CF_BUF_HIZ
*CAP
1 *984:PBUF_INP 0.000243567
2 *984:INP 0.000246218
3 *986:out1 3.11504e-05
4 *657:28 0.00624746
5 *657:26 0.00661724
6 *657:18 0.00107975
7 *657:16 0.000707315
8 *657:14 0.0680099
9 *657:12 0.0680099
10 *657:10 0.0216576
11 *657:8 0.0216888
12 *657:8 *986:bypass_p 2.77414e-05
13 *657:14 *714:21 0.028838
14 *657:14 *720:37 0
15 *657:14 *722:21 1.39702e-05
16 *657:14 *723:37 0.0753543
17 *657:14 *752:31 0.0243558
18 *657:14 *753:23 2.24813e-05
19 *657:14 *755:39 3.20942e-05
20 *657:14 *756:75 0
21 *657:14 *761:27 0
22 *657:14 *765:21 0.00458
23 *657:14 *774:21 0.000101825
24 *657:14 *776:21 0.0049387
25 *657:18 *712:17 0.00402369
26 *657:18 *736:13 0.00402009
27 *657:26 *700:17 0.000126169
28 *657:26 *736:13 0
29 *657:26 *823:17 0.000500875
30 *657:28 *984:VREFQ 1.94945e-05
31 *657:28 *700:17 0.00397082
32 *657:28 *736:13 0
33 *657:28 *823:17 0.0159965
34 *984:INN *984:INP 0.000134542
35 *984:PBUF_INN *984:PBUF_INP 0.000200677
36 *14:35 *657:14 0.0549205
37 *23:34 *657:10 9.79308e-05
*RES
1 *986:out1 *657:8 6.90303 
2 *657:8 *657:10 60.4514 
3 *657:10 *657:12 3.41 
4 *657:12 *657:14 295.412 
5 *657:14 *657:16 3.41 
6 *657:16 *657:18 49.7589 
7 *657:18 *657:26 18.1964 
8 *657:26 *657:28 196.232 
9 *657:28 *984:INP 8.66964 
10 *657:26 *984:PBUF_INP 8.92857 
*END

*D_NET *658 0.203403
*CONN
*I *988:adc_ov_one I *D soc_sys
*I *984:overload_det_one O *D CF_ADC_DSM20
*CAP
1 *988:adc_ov_one 5.92556e-05
2 *984:overload_det_one 0.000456476
3 *658:23 0.0134494
4 *658:21 0.0133902
5 *658:19 0.00680535
6 *658:17 0.00680535
7 *658:15 0.00436965
8 *658:13 0.00482613
9 *658:13 *984:MODINPUT 0.000101105
10 *658:13 *984:BUF_FCHOP[1] 8.18398e-05
11 *658:13 *659:16 0.00068081
12 *658:13 *669:13 0.000683683
13 *658:15 *750:13 0
14 *658:15 *756:35 0.000926632
15 *658:15 *784:17 0.0219426
16 *658:15 *785:33 1.00375e-05
17 *658:15 *801:17 0.00529492
18 *658:15 *816:17 0.000199809
19 *658:15 *817:17 0.0241777
20 *658:19 *801:13 4.24297e-05
21 *658:19 *812:13 0.0494301
22 *13:14 *658:19 0.0496265
23 *104:29 *658:19 4.25033e-05
*RES
1 *984:overload_det_one *658:13 10.3861 
2 *658:13 *658:15 302.482 
3 *658:15 *658:17 3.41 
4 *658:17 *658:19 77.2304 
5 *658:19 *658:21 3.41 
6 *658:21 *658:23 261.804 
7 *658:23 *988:adc_ov_one 1.08036 
*END

*D_NET *659 0.240148
*CONN
*I *988:adc_ov_zero I *D soc_sys
*I *984:overload_det_zero O *D CF_ADC_DSM20
*CAP
1 *988:adc_ov_zero 0.000264565
2 *984:overload_det_zero 0.00110065
3 *659:22 0.00798036
4 *659:20 0.00771579
5 *659:18 0.00830016
6 *659:16 0.00940081
7 *659:16 *984:MODBIT 0.00181598
8 *659:16 *669:13 0.000567102
9 *659:18 *661:19 4.471e-05
10 *659:18 *665:27 0.0250056
11 *659:18 *715:45 0.00393091
12 *659:18 *752:25 0.00574845
13 *659:22 *693:39 0.00971133
14 *659:22 *715:43 0.000249282
15 *659:22 *770:37 0.000610492
16 *988:adc_dout[6] *659:22 0.000596613
17 *646:12 *659:16 4.76542e-05
18 *646:14 *659:18 0.045396
19 *646:18 *659:22 0.000633599
20 *647:13 *659:18 0.0113719
21 *647:17 *659:22 2.72228e-05
22 *648:17 *659:22 0.050951
23 *653:27 *659:22 0.0479974
24 *658:13 *659:16 0.00068081
*RES
1 *984:overload_det_zero *659:16 10.3505 
2 *659:16 *659:18 561.732 
3 *659:18 *659:20 3.41 
4 *659:20 *659:22 79.8248 
5 *659:22 *988:adc_ov_zero 7.04393 
*END

*D_NET *660 0.223615
*CONN
*I *988:adc_scanout I *D soc_sys
*I *984:SCANOUTPUT O *D CF_ADC_DSM20
*CAP
1 *988:adc_scanout 5.92556e-05
2 *984:SCANOUTPUT 0.0011668
3 *660:22 0.0136681
4 *660:20 0.0136088
5 *660:18 0.0106051
6 *660:16 0.0106051
7 *660:14 0.00406552
8 *660:12 0.00523232
9 *660:12 *984:dig_test_sel[1] 0
10 *660:12 *795:17 0.000137396
11 *660:14 *984:phi2_buffer 0
12 *660:14 *662:19 0.0241217
13 *660:14 *667:19 0
14 *660:14 *757:25 0.0227972
15 *660:14 *789:25 0.000269578
16 *660:14 *877:17 0.00565939
17 *660:18 *661:23 0.00664404
18 *660:18 *662:23 0.00315376
19 *660:18 *663:31 0.00263874
20 *660:18 *664:31 0.00498107
21 *660:18 *817:13 0.00740021
22 *660:22 *770:39 0.00724451
23 *32:13 *660:18 0.0331353
24 *69:37 *660:18 0.0071644
25 *70:33 *660:18 0.0346883
26 *646:12 *660:12 0.0014917
27 *656:65 *660:18 0.00307647
*RES
1 *984:SCANOUTPUT *660:12 9.81938 
2 *660:12 *660:14 296.411 
3 *660:14 *660:16 3.41 
4 *660:16 *660:18 77.4466 
5 *660:18 *660:20 3.41 
6 *660:20 *660:22 266.054 
7 *660:22 *988:adc_scanout 1.08036 
*END

*D_NET *661 0.279651
*CONN
*I *988:adc_test[0] I *D soc_sys
*I *984:test[0] I *D CF_ADC_DSM20
*CAP
1 *988:adc_test[0] 5.92556e-05
2 *984:test[0] 0.00305672
3 *661:27 0.0136989
4 *661:25 0.0136397
5 *661:23 0.00612756
6 *661:21 0.00612756
7 *661:19 0.00834376
8 *661:17 0.0114005
9 *661:17 *662:9 7.61865e-05
10 *661:17 *662:11 0.000207292
11 *661:17 *663:17 3.79035e-05
12 *661:17 *663:19 0.0023386
13 *661:17 *666:15 0.00276408
14 *661:17 *667:17 0.00175106
15 *661:17 *741:29 0.00765026
16 *661:17 *744:25 0.0150333
17 *661:17 *746:27 0.000392993
18 *661:19 *663:27 0.0453766
19 *661:19 *665:27 0.00817422
20 *661:19 *741:17 0.010591
21 *661:19 *754:17 0
22 *661:23 *662:23 0.000258026
23 *661:23 *663:31 0.0447787
24 *661:23 *744:13 0.00723288
25 *661:23 *817:13 0.00221332
26 *19:51 *661:17 0.00465977
27 *69:37 *661:23 0.0325256
28 *70:33 *661:23 0.00027436
29 *646:14 *661:19 0.0241718
30 *659:18 *661:19 4.471e-05
31 *660:18 *661:23 0.00664404
*RES
1 *984:test[0] *661:17 38.1956 
2 *661:17 *661:19 557.938 
3 *661:19 *661:21 4.5 
4 *661:21 *661:23 433.018 
5 *661:23 *661:25 4.5 
6 *661:25 *661:27 266.205 
7 *661:27 *988:adc_test[0] 1.08036 
*END

*D_NET *662 0.271719
*CONN
*I *988:adc_test[1] I *D soc_sys
*I *984:test[1] I *D CF_ADC_DSM20
*CAP
1 *988:adc_test[1] 5.92556e-05
2 *984:test[1] 0.000142523
3 *662:27 0.0136628
4 *662:25 0.0136036
5 *662:23 0.00568779
6 *662:21 0.00568779
7 *662:19 0.0087953
8 *662:17 0.00968283
9 *662:11 0.00304188
10 *662:9 0.00229687
11 *662:9 *663:17 9.52414e-05
12 *662:9 *663:19 4.7514e-05
13 *662:9 *664:25 6.45832e-06
14 *662:9 *665:21 4.13714e-05
15 *662:9 *666:13 3.69047e-06
16 *662:9 *667:5 7.62992e-06
17 *662:9 *787:21 3.72312e-06
18 *662:11 *984:EN_DWA 5.75691e-05
19 *662:11 *984:SCANINPUT 1.66955e-05
20 *662:11 *984:SCANMODE 0.000242772
21 *662:11 *984:SCANCLK 5.97311e-06
22 *662:11 *984:SCANEN 3.33238e-05
23 *662:11 *663:19 0.0116286
24 *662:11 *666:13 2.6032e-06
25 *662:11 *667:7 0.00690462
26 *662:11 *741:29 0.00157513
27 *662:17 *663:19 2.08465e-05
28 *662:17 *663:25 0.00233804
29 *662:17 *667:17 0.000485758
30 *662:19 *664:27 0.044365
31 *662:19 *744:17 0.000142809
32 *662:19 *789:25 0.0117892
33 *662:19 *877:17 0.00530231
34 *662:23 *663:31 0.0441871
35 *662:23 *664:31 0.0436685
36 *19:35 *662:11 0.000172536
37 *19:51 *662:11 0.00150579
38 *32:13 *662:23 0.00659057
39 *660:14 *662:19 0.0241217
40 *660:18 *662:23 0.00315376
41 *661:17 *662:9 7.61865e-05
42 *661:17 *662:11 0.000207292
43 *661:23 *662:23 0.000258026
*RES
1 *984:test[1] *662:9 3.71875 
2 *662:9 *662:11 109.375 
3 *662:11 *662:17 27.9464 
4 *662:17 *662:19 557.786 
5 *662:19 *662:21 4.5 
6 *662:21 *662:23 422.75 
7 *662:23 *662:25 4.5 
8 *662:25 *662:27 265.598 
9 *662:27 *988:adc_test[1] 1.08036 
*END

*D_NET *663 0.283785
*CONN
*I *988:adc_test[2] I *D soc_sys
*I *984:test[2] I *D CF_ADC_DSM20
*CAP
1 *988:adc_test[2] 6.08224e-05
2 *984:test[2] 0.000152947
3 *663:35 0.0140733
4 *663:33 0.0140125
5 *663:31 0.00568821
6 *663:29 0.00568821
7 *663:27 0.0085294
8 *663:25 0.00935913
9 *663:19 0.00225951
10 *663:17 0.00158273
11 *663:17 *664:25 7.30754e-05
12 *663:17 *665:21 2.22594e-05
13 *663:17 *666:13 9.99444e-06
14 *663:17 *787:21 4.12921e-06
15 *663:19 *665:23 1.98839e-05
16 *663:19 *666:15 0.0116943
17 *663:19 *787:21 2.43061e-05
18 *663:25 *665:23 0.000202453
19 *663:25 *666:15 0.000760348
20 *663:25 *787:21 1.6539e-05
21 *663:27 *715:45 0.00496205
22 *663:27 *741:17 0.00446488
23 *663:27 *754:17 0
24 *19:51 *663:25 0.000223108
25 *32:13 *663:31 0.00710674
26 *69:37 *663:31 2.12005e-05
27 *646:14 *663:27 1.03904e-05
28 *649:10 *663:27 2.2355e-05
29 *650:13 *663:27 0.0392528
30 *660:18 *663:31 0.00263874
31 *661:17 *663:17 3.79035e-05
32 *661:17 *663:19 0.0023386
33 *661:19 *663:27 0.0453766
34 *661:23 *663:31 0.0447787
35 *662:9 *663:17 9.52414e-05
36 *662:9 *663:19 4.7514e-05
37 *662:11 *663:19 0.0116286
38 *662:17 *663:19 2.08465e-05
39 *662:17 *663:25 0.00233804
40 *662:23 *663:31 0.0441871
*RES
1 *984:test[2] *663:17 11.9688 
2 *663:17 *663:19 111.018 
3 *663:19 *663:25 33.4911 
4 *663:25 *663:27 557.786 
5 *663:27 *663:29 4.5 
6 *663:29 *663:31 424.393 
7 *663:31 *663:33 4.5 
8 *663:33 *663:35 265.902 
9 *663:35 *988:adc_test[2] 1.08036 
*END

*D_NET *664 0.256712
*CONN
*I *988:adc_test[3] I *D soc_sys
*I *984:test[3] I *D CF_ADC_DSM20
*CAP
1 *988:adc_test[3] 5.92556e-05
2 *984:test[3] 0.00239219
3 *664:35 0.0136484
4 *664:33 0.0135891
5 *664:31 0.0131442
6 *664:29 0.0131442
7 *664:27 0.00887045
8 *664:25 0.0112626
9 *664:25 *665:21 6.23517e-05
10 *664:25 *666:13 8.23597e-06
11 *664:25 *667:17 7.59802e-06
12 *664:25 *734:29 0.00746282
13 *664:25 *740:27 4.89453e-05
14 *664:25 *741:29 0.0149796
15 *664:27 *734:17 4.22135e-05
16 *664:27 *744:17 0.0442791
17 *20:59 *664:25 0.00743519
18 *32:13 *664:31 0.0131811
19 *660:18 *664:31 0.00498107
20 *662:9 *664:25 6.45832e-06
21 *662:19 *664:27 0.044365
22 *662:23 *664:31 0.0436685
23 *663:17 *664:25 7.30754e-05
*RES
1 *984:test[3] *664:25 43.1843 
2 *664:25 *664:27 554.598 
3 *664:27 *664:29 4.5 
4 *664:29 *664:31 413.304 
5 *664:31 *664:33 4.5 
6 *664:33 *664:35 265.295 
7 *664:35 *988:adc_test[3] 1.08036 
*END

*D_NET *665 0.271541
*CONN
*I *988:adc_test[4] I *D soc_sys
*I *984:test[4] I *D CF_ADC_DSM20
*CAP
1 *988:adc_test[4] 5.92556e-05
2 *984:test[4] 0.000134447
3 *665:35 0.0131762
4 *665:33 0.013117
5 *665:31 0.00547891
6 *665:29 0.00547891
7 *665:27 0.00896353
8 *665:25 0.00896353
9 *665:23 0.00189863
10 *665:21 0.00203308
11 *665:21 *666:13 0.000143368
12 *665:21 *667:5 2.24969e-05
13 *665:23 *666:15 0.0137048
14 *665:23 *744:25 0.00256332
15 *665:23 *787:21 0.0145196
16 *665:27 *667:19 0.00243932
17 *665:27 *752:25 0.00944881
18 *665:27 *754:17 0
19 *665:27 *789:25 0
20 *665:31 *666:23 0.0427255
21 *665:31 *668:25 4.35597e-05
22 *665:31 *777:13 0.0439715
23 *665:31 *816:13 0.00965408
24 *647:13 *665:27 0.0391688
25 *648:13 *665:27 0.000304421
26 *659:18 *665:27 0.0250056
27 *661:19 *665:27 0.00817422
28 *662:9 *665:21 4.13714e-05
29 *663:17 *665:21 2.22594e-05
30 *663:19 *665:23 1.98839e-05
31 *663:25 *665:23 0.000202453
32 *664:25 *665:21 6.23517e-05
*RES
1 *984:test[4] *665:21 12.8795 
2 *665:21 *665:23 136.893 
3 *665:23 *665:25 4.5 
4 *665:25 *665:27 568.107 
5 *665:27 *665:29 4.5 
6 *665:29 *665:31 413.714 
7 *665:31 *665:33 4.5 
8 *665:33 *665:35 256.795 
9 *665:35 *988:adc_test[4] 1.08036 
*END

*D_NET *666 0.272471
*CONN
*I *988:adc_test[5] I *D soc_sys
*I *984:test[5] I *D CF_ADC_DSM20
*CAP
1 *988:adc_test[5] 5.92556e-05
2 *984:test[5] 0.000174618
3 *666:27 0.0132012
4 *666:25 0.013142
5 *666:23 0.00522281
6 *666:21 0.00522281
7 *666:19 0.00914554
8 *666:17 0.00914554
9 *666:15 0.00179898
10 *666:13 0.0019736
11 *666:13 *667:5 5.15753e-05
12 *666:13 *668:15 2.87715e-05
13 *666:19 *747:17 0.0453847
14 *666:19 *750:13 0.0453824
15 *666:23 *668:25 0.0417671
16 *666:23 *741:13 0.00895289
17 *661:17 *666:15 0.00276408
18 *662:9 *666:13 3.69047e-06
19 *662:11 *666:13 2.6032e-06
20 *663:17 *666:13 9.99444e-06
21 *663:19 *666:15 0.0116943
22 *663:25 *666:15 0.000760348
23 *664:25 *666:13 8.23597e-06
24 *665:21 *666:13 0.000143368
25 *665:23 *666:15 0.0137048
26 *665:31 *666:23 0.0427255
*RES
1 *984:test[5] *666:13 11.8705 
2 *666:13 *666:15 129.089 
3 *666:15 *666:17 4.5 
4 *666:17 *666:19 567.5 
5 *666:19 *666:21 4.5 
6 *666:21 *666:23 401.804 
7 *666:23 *666:25 4.5 
8 *666:25 *666:27 257.098 
9 *666:27 *988:adc_test[5] 1.08036 
*END

*D_NET *667 0.245856
*CONN
*I *988:adc_test[6] I *D soc_sys
*I *984:test[6] I *D CF_ADC_DSM20
*CAP
1 *988:adc_test[6] 0.000253393
2 *984:test[6] 4.51254e-05
3 *667:23 0.0133727
4 *667:21 0.0131193
5 *667:19 0.025905
6 *667:17 0.0276537
7 *667:7 0.0038304
8 *667:5 0.00212681
9 *667:5 *984:EN_DEM 8.74149e-06
10 *667:5 *668:15 6.65973e-05
11 *667:7 *984:EN_DEM 3.36758e-05
12 *667:7 *668:15 1.57296e-05
13 *667:7 *741:29 0.00289647
14 *667:17 *984:SCANMODE 8.6229e-06
15 *667:17 *734:29 5.99199e-06
16 *667:17 *739:31 0.000225365
17 *667:17 *741:29 4.98422e-05
18 *667:19 *984:phi2_buffer 0.00118297
19 *667:19 *715:43 6.58704e-05
20 *667:19 *740:13 0.01896
21 *667:19 *755:25 0
22 *667:19 *757:25 0
23 *667:19 *789:25 0
24 *667:23 *805:25 0.0429145
25 *667:23 *808:25 0
26 *19:51 *667:17 0.00466265
27 *20:59 *667:17 0.00668186
28 *648:13 *667:19 0.060294
29 *648:17 *667:23 0.00980647
30 *660:14 *667:19 0
31 *661:17 *667:17 0.00175106
32 *662:9 *667:5 7.62992e-06
33 *662:11 *667:7 0.00690462
34 *662:17 *667:17 0.000485758
35 *664:25 *667:17 7.59802e-06
36 *665:21 *667:5 2.24969e-05
37 *665:27 *667:19 0.00243932
38 *666:13 *667:5 5.15753e-05
*RES
1 *984:test[6] *667:5 1.58036 
2 *667:5 *667:7 64.8705 
3 *667:7 *667:17 24.5023 
4 *667:17 *667:19 820.527 
5 *667:19 *667:21 4.5 
6 *667:21 *667:23 403.446 
7 *667:23 *988:adc_test[6] 7.98214 
*END

*D_NET *668 0.249365
*CONN
*I *988:adc_test[7] I *D soc_sys
*I *984:test[7] I *D CF_ADC_DSM20
*CAP
1 *988:adc_test[7] 5.92556e-05
2 *984:test[7] 0.000339178
3 *668:29 0.0132296
4 *668:27 0.0131704
5 *668:25 0.0128494
6 *668:23 0.0128494
7 *668:21 0.00935202
8 *668:19 0.00935202
9 *668:17 0.00204579
10 *668:15 0.00238497
11 *668:15 *984:EN_DEM 0.000365298
12 *668:17 *756:75 0.00255374
13 *668:17 *763:21 0.000178199
14 *668:17 *771:37 0.0131938
15 *668:17 *784:29 0.00756744
16 *668:21 *739:17 0.0450958
17 *668:21 *744:17 8.62671e-05
18 *668:21 *747:17 0.0454599
19 *668:21 *750:13 3.96457e-05
20 *668:21 *789:25 0
21 *668:25 *741:13 0.00944069
22 *668:25 *779:13 0
23 *668:29 *766:19 0.0078303
24 *665:31 *668:25 4.35597e-05
25 *666:13 *668:15 2.87715e-05
26 *666:23 *668:25 0.0417671
27 *667:5 *668:15 6.65973e-05
28 *667:7 *668:15 1.57296e-05
*RES
1 *984:test[7] *668:15 15.4509 
2 *668:15 *668:17 128.679 
3 *668:17 *668:19 4.5 
4 *668:19 *668:21 570.536 
5 *668:21 *668:23 4.5 
6 *668:23 *668:25 393.589 
7 *668:25 *668:27 4.5 
8 *668:27 *668:29 257.402 
9 *668:29 *988:adc_test[7] 1.08036 
*END

*D_NET *669 0.151524
*CONN
*I *988:adc_test_dig I *D soc_sys
*I *984:test_dig_out O *D CF_ADC_DSM20
*CAP
1 *988:adc_test_dig 5.92556e-05
2 *984:test_dig_out 0.00275114
3 *669:23 0.0117251
4 *669:21 0.0116658
5 *669:19 0.0138202
6 *669:17 0.0138202
7 *669:15 0.0116201
8 *669:13 0.0143713
9 *669:13 *984:MODBIT 0.000394919
10 *669:13 *984:MODINPUT 9.6221e-05
11 *669:13 *984:itrim_comp[3] 0
12 *669:13 *984:BUF_FCHOP[1] 1.10131e-05
13 *669:15 *758:13 0.0104922
14 *669:19 *783:13 4.6988e-05
15 *669:19 *785:13 0.0455213
16 *20:11 *669:19 0.00984273
17 *114:21 *669:19 0.00221715
18 *646:12 *669:13 0.0018179
19 *658:13 *669:13 0.000683683
20 *659:16 *669:13 0.000567102
*RES
1 *984:test_dig_out *669:13 15.0405 
2 *669:13 *669:15 331.018 
3 *669:15 *669:17 3.41 
4 *669:17 *669:19 81.4103 
5 *669:19 *669:21 3.41 
6 *669:21 *669:23 232.661 
7 *669:23 *988:adc_test_dig 1.08036 
*END

*D_NET *670 0.151214
*CONN
*I *987:ref_1v2 I *D CF_REFBUF
*I *984:VREF I *D CF_ADC_DSM20
*I *984:VREFQ I *D CF_ADC_DSM20
*I *985:Vout O *D CF_BGR
*CAP
1 *987:ref_1v2 0.000101533
2 *984:VREF 4.80354e-05
3 *984:VREFQ 0.000998448
4 *985:Vout 0.000473744
5 *670:59 0.00853141
6 *670:57 0.00979153
7 *670:31 0.0168165
8 *670:29 0.0160298
9 *670:21 0.00152536
10 *670:19 0.0266356
11 *670:17 0.0266356
12 *670:15 0.000932534
13 *670:13 0.00140628
14 *984:VREFQ *736:13 0
15 *670:29 *868:17 1.47728e-05
16 *670:31 *695:13 1.66624e-05
17 *670:31 *711:29 1.60095e-05
18 *670:31 *732:29 0.00331865
19 *670:31 *733:17 0.000143772
20 *670:31 *749:25 0.00339912
21 *45:13 *670:13 0
22 *45:13 *670:15 0.000298561
23 *45:19 *670:19 0.00673407
24 *49:15 *670:15 0.00128273
25 *121:22 *670:15 0.00526711
26 *656:13 *670:13 9.72997e-05
27 *656:15 *670:15 0.00580706
28 *656:19 *670:19 0.014865
29 *656:19 *670:29 7.75495e-06
30 *657:28 *984:VREFQ 1.94945e-05
*RES
1 *985:Vout *670:13 18.2143 
2 *670:13 *670:15 71.4643 
3 *670:15 *670:17 4.5 
4 *670:17 *670:19 501.196 
5 *670:19 *670:21 4.5 
6 *670:21 *670:29 9.30482 
7 *670:29 *670:31 56.6162 
8 *670:31 *984:VREFQ 18.7589 
9 *984:VREFQ *984:VREF 0.919643 
10 *670:21 *670:57 31.6429 
11 *670:57 *670:59 160.714 
12 *670:59 *987:ref_1v2 6.48214 
*END

*D_NET *671 0.389718
*CONN
*I *986:pd I *D CF_BUF_HIZ
*I *988:analog_ctrl[0] O *D soc_sys
*CAP
1 *986:pd 0.0133956
2 *988:analog_ctrl[0] 0.00769288
3 *671:39 0.0133956
4 *671:37 0.0371012
5 *671:35 0.0372569
6 *671:29 0.0181018
7 *671:27 0.0180438
8 *671:21 0.0110136
9 *671:19 0.0109463
10 *671:15 0.00772336
11 *671:15 *693:13 0.019222
12 *671:15 *715:31 0.00335389
13 *671:15 *770:13 1.25167e-05
14 *671:15 *770:15 0
15 *671:15 *782:11 0.000660918
16 *671:15 *790:15 0.000422073
17 *671:15 *790:17 0.00023221
18 *671:15 *794:13 0.00180637
19 *671:15 *800:19 0.000195129
20 *671:15 *805:13 0.000843897
21 *671:15 *808:13 0.00614626
22 *671:15 *811:15 0.00232415
23 *671:15 *844:15 0.000735741
24 *671:15 *866:13 0.000676005
25 *671:19 *821:15 2.13687e-05
26 *671:21 *693:21 0.0283221
27 *671:21 *720:29 0.000136856
28 *671:21 *728:25 0.000172737
29 *671:21 *748:9 0
30 *671:21 *792:31 0.00063581
31 *671:21 *794:27 0.000504492
32 *671:21 *794:29 0.00386405
33 *671:21 *808:13 0.000426536
34 *671:21 *808:23 0.000182899
35 *671:21 *824:13 0.00479561
36 *671:21 *828:13 0
37 *671:21 *829:13 0
38 *671:21 *866:13 0.00327645
39 *671:29 *693:39 0.00486976
40 *671:29 *711:27 0.00528899
41 *671:29 *715:33 0.00169621
42 *671:29 *728:25 0.012845
43 *671:29 *732:27 0.00532648
44 *671:29 *735:19 0.000578458
45 *671:29 *740:9 0.00262049
46 *671:29 *754:13 0.000130965
47 *671:29 *755:13 0.00520492
48 *671:29 *756:15 2.61244e-05
49 *671:29 *757:15 1.25167e-05
50 *671:29 *764:15 0.00535887
51 *671:29 *766:15 0.000534447
52 *671:29 *770:27 0.00812848
53 *671:29 *771:19 0.00748376
54 *671:29 *790:29 0.00712959
55 *671:29 *792:31 0.000445919
56 *671:29 *794:29 0.00186083
57 *671:29 *805:25 0.00273279
58 *671:29 *808:25 0.000447438
59 *671:35 *787:9 0
60 *671:35 *788:9 4.14919e-05
61 *671:35 *794:39 4.43393e-05
62 *671:37 *766:15 0.000998863
63 *671:37 *790:29 0
64 *671:37 *808:25 0.0546822
65 *47:21 *671:15 9.74811e-05
66 *108:13 *671:15 0
67 *108:13 *671:29 0
68 *646:18 *671:37 0.00749015
*RES
1 *988:analog_ctrl[0] *671:15 49.489 
2 *671:15 *671:19 5.08036 
3 *671:19 *671:21 345.536 
4 *671:21 *671:27 9.0975 
5 *671:27 *671:29 62.745 
6 *671:29 *671:35 10.6154 
7 *671:35 *671:37 900.411 
8 *671:37 *671:39 4.5 
9 *671:39 *986:pd 263.473 
*END

*D_NET *672 0.0754695
*CONN
*I *984:itrim_2_3[1] I *D CF_ADC_DSM20
*I *988:analog_ctrl[100] O *D soc_sys
*CAP
1 *984:itrim_2_3[1] 0.00587223
2 *988:analog_ctrl[100] 0.000756666
3 *672:17 0.0304254
4 *672:15 0.0253099
5 *984:itrim_2_3[1] *984:itrim_sum[3] 0
6 *984:itrim_2_3[1] *984:itrim_2_3[0] 0.00102703
7 *984:itrim_2_3[1] *984:itrim_2_3[2] 0
8 *984:itrim_2_3[1] *984:itrim_2_3[3] 0
9 *984:itrim_2_3[1] *984:itrim_2_3[4] 0.000616064
10 *984:itrim_2_3[1] *984:itrim_sum[5] 0
11 *984:itrim_2_3[1] *984:itrim_2_3[5] 0
12 *984:itrim_2_3[1] *731:17 8.25286e-05
13 *672:15 *693:21 0.000101601
14 *672:15 *824:13 0.000457091
15 *672:15 *867:17 7.0413e-05
16 *672:17 *674:9 0.0107506
17 *108:13 *672:15 0
*RES
1 *988:analog_ctrl[100] *672:15 13.0484 
2 *672:15 *672:17 71.1047 
3 *672:17 *984:itrim_2_3[1] 24.464 
*END

*D_NET *673 0.0890601
*CONN
*I *984:itrim_2_3[2] I *D CF_ADC_DSM20
*I *988:analog_ctrl[101] O *D soc_sys
*CAP
1 *984:itrim_2_3[2] 0.00269995
2 *988:analog_ctrl[101] 6.59744e-05
3 *673:17 0.0139736
4 *673:15 0.0132699
5 *673:9 0.0046865
6 *673:7 0.00275615
7 *984:itrim_2_3[2] *984:itrim_2_3[0] 0
8 *984:itrim_2_3[2] *984:itrim_2_3[3] 0.00033708
9 *984:itrim_2_3[2] *984:itrim_2_3[4] 9.8822e-05
10 *984:itrim_2_3[2] *984:itrim_2_3[5] 0
11 *984:itrim_2_3[2] *984:itrim_1[0] 0.00115993
12 *984:itrim_2_3[2] *733:17 0.000177857
13 *984:itrim_2_3[2] *749:23 3.2906e-05
14 *673:15 *681:15 0.00258684
15 *673:15 *782:17 0.00659162
16 *673:17 *687:13 0.0257847
17 *673:17 *748:21 0.0116198
18 *673:17 *870:17 0.00292078
19 *984:iin *984:itrim_2_3[2] 0.000286592
20 *984:itrim_2_3[1] *984:itrim_2_3[2] 0
21 *656:63 *984:itrim_2_3[2] 1.11244e-05
*RES
1 *988:analog_ctrl[101] *673:7 1.08036 
2 *673:7 *673:9 51.125 
3 *673:9 *673:15 17.2446 
4 *673:15 *673:17 355.911 
5 *673:17 *984:itrim_2_3[2] 14.1622 
*END

*D_NET *674 0.0695484
*CONN
*I *984:itrim_2_3[3] I *D CF_ADC_DSM20
*I *988:analog_ctrl[102] O *D soc_sys
*CAP
1 *984:itrim_2_3[3] 0.00509074
2 *988:analog_ctrl[102] 6.5687e-05
3 *674:9 0.0250728
4 *674:7 0.0200477
5 *984:itrim_2_3[3] *984:itrim_2_3[4] 2.13553e-05
6 *984:itrim_2_3[3] *984:itrim_2_3[5] 0.00776885
7 *984:itrim_2_3[3] *984:itrim_1[0] 6.44417e-06
8 *984:itrim_2_3[3] *749:23 1.48677e-06
9 *984:itrim_2_3[3] *749:25 0.000360771
10 *984:iin *984:itrim_2_3[3] 2.48858e-05
11 *984:itrim_2_3[1] *984:itrim_2_3[3] 0
12 *984:itrim_2_3[2] *984:itrim_2_3[3] 0.00033708
13 *672:17 *674:9 0.0107506
*RES
1 *988:analog_ctrl[102] *674:7 1.08036 
2 *674:7 *674:9 402.661 
3 *674:9 *984:itrim_2_3[3] 35.2695 
*END

*D_NET *675 0.0547714
*CONN
*I *984:itrim_2_3[4] I *D CF_ADC_DSM20
*I *988:analog_ctrl[103] O *D soc_sys
*CAP
1 *984:itrim_2_3[4] 0.00623949
2 *988:analog_ctrl[103] 6.5687e-05
3 *675:9 0.025568
4 *675:7 0.0193942
5 *984:itrim_2_3[4] *984:itrim_sum[1] 0
6 *984:itrim_2_3[4] *984:itrim_sum[2] 0.00108784
7 *984:itrim_2_3[4] *984:itrim_sum[5] 1.80827e-05
8 *984:itrim_2_3[4] *736:13 0.00163415
9 *984:itrim_2_3[1] *984:itrim_2_3[4] 0.000616064
10 *984:itrim_2_3[2] *984:itrim_2_3[4] 9.8822e-05
11 *984:itrim_2_3[3] *984:itrim_2_3[4] 2.13553e-05
12 *656:63 *984:itrim_2_3[4] 2.77414e-05
*RES
1 *988:analog_ctrl[103] *675:7 1.08036 
2 *675:7 *675:9 389.304 
3 *675:9 *984:itrim_2_3[4] 49.0671 
*END

*D_NET *676 0.0704443
*CONN
*I *984:itrim_2_3[5] I *D CF_ADC_DSM20
*I *988:analog_ctrl[104] O *D soc_sys
*CAP
1 *984:itrim_2_3[5] 0.0034631
2 *988:analog_ctrl[104] 0.000712867
3 *676:17 0.023278
4 *676:15 0.0205278
5 *984:itrim_2_3[5] *984:itrim_1[0] 0.000644544
6 *984:itrim_2_3[5] *731:17 0.000366393
7 *676:15 *824:13 0.000919626
8 *676:17 *677:9 0
9 *676:17 *678:15 5.54097e-05
10 *984:itrim_2_3[1] *984:itrim_2_3[5] 0
11 *984:itrim_2_3[2] *984:itrim_2_3[5] 0
12 *984:itrim_2_3[3] *984:itrim_2_3[5] 0.00776885
13 *108:13 *676:15 0
14 *118:17 *676:17 0.0127078
*RES
1 *988:analog_ctrl[104] *676:15 12.5494 
2 *676:15 *676:17 400.232 
3 *676:17 *984:itrim_2_3[5] 26.9685 
*END

*D_NET *677 0.0858396
*CONN
*I *984:itrim_sum[0] I *D CF_ADC_DSM20
*I *988:analog_ctrl[105] O *D soc_sys
*CAP
1 *984:itrim_sum[0] 0.000795359
2 *988:analog_ctrl[105] 6.5687e-05
3 *677:17 0.00578633
4 *677:15 0.0075366
5 *677:9 0.0073246
6 *677:7 0.00484466
7 *984:itrim_sum[0] *984:itrim_sum[1] 0.000488051
8 *984:itrim_sum[0] *984:itrim_sum[3] 0.00168183
9 *984:itrim_sum[0] *984:itrim_sum[5] 0.00056763
10 *677:15 *802:13 0.00657406
11 *677:17 *689:17 0.0203945
12 *677:17 *691:9 0.0202465
13 *677:17 *717:17 0.00312438
14 *677:17 *719:17 0
15 *677:17 *728:33 0.00435837
16 *677:17 *876:21 0.00202859
17 *655:51 *984:itrim_sum[0] 2.24813e-05
18 *676:17 *677:9 0
*RES
1 *988:analog_ctrl[105] *677:7 1.08036 
2 *677:7 *677:9 94.2321 
3 *677:9 *677:15 17.2446 
4 *677:15 *677:17 321.304 
5 *677:17 *984:itrim_sum[0] 10.6636 
*END

*D_NET *678 0.0644162
*CONN
*I *984:itrim_sum[1] I *D CF_ADC_DSM20
*I *988:analog_ctrl[106] O *D soc_sys
*CAP
1 *984:itrim_sum[1] 0.00142257
2 *988:analog_ctrl[106] 0.000361297
3 *678:23 0.00596426
4 *678:17 0.0202243
5 *678:15 0.0160439
6 *984:itrim_sum[1] *984:itrim_1[9] 0.000116977
7 *984:itrim_sum[1] *984:itrim_sum[2] 0.000528225
8 *984:itrim_sum[1] *984:itrim_sum[5] 0.000556462
9 *984:itrim_sum[1] *681:17 0.001553
10 *984:itrim_sum[1] *700:17 0.000399945
11 *984:itrim_sum[1] *702:23 8.14379e-05
12 *984:itrim_sum[1] *736:13 0
13 *678:15 *824:13 1.74567e-05
14 *678:23 *984:itrim_1[9] 0
15 *678:23 *870:15 0
16 *984:iin *984:itrim_sum[1] 6.53906e-06
17 *984:itrim_sum[0] *984:itrim_sum[1] 0.000488051
18 *984:itrim_2_3[4] *984:itrim_sum[1] 0
19 *108:13 *678:15 5.00695e-06
20 *118:17 *678:17 0.0165358
21 *655:51 *984:itrim_sum[1] 5.56713e-05
22 *676:17 *678:15 5.54097e-05
*RES
1 *988:analog_ctrl[106] *678:15 12.3584 
2 *678:15 *678:17 65.4585 
3 *678:17 *678:23 18.3616 
4 *678:23 *984:itrim_sum[1] 45.9532 
*END

*D_NET *679 0.052106
*CONN
*I *984:itrim_sum[2] I *D CF_ADC_DSM20
*I *988:analog_ctrl[107] O *D soc_sys
*CAP
1 *984:itrim_sum[2] 0.00493203
2 *988:analog_ctrl[107] 6.5687e-05
3 *679:9 0.0246117
4 *679:7 0.0197454
5 *984:itrim_sum[2] *984:itrim_sum[4] 0.00018675
6 *984:itrim_sum[2] *984:itrim_2_3[0] 7.78784e-05
7 *984:itrim_sum[2] *984:itrim_sum[5] 0.000684778
8 *984:itrim_sum[2] *736:13 0.000185756
9 *984:itrim_sum[1] *984:itrim_sum[2] 0.000528225
10 *984:itrim_2_3[4] *984:itrim_sum[2] 0.00108784
*RES
1 *988:analog_ctrl[107] *679:7 1.08036 
2 *679:7 *679:9 395.982 
3 *679:9 *984:itrim_sum[2] 43.0689 
*END

*D_NET *680 0.0727442
*CONN
*I *984:itrim_sum[3] I *D CF_ADC_DSM20
*I *988:analog_ctrl[108] O *D soc_sys
*CAP
1 *984:itrim_sum[3] 0.00292625
2 *988:analog_ctrl[108] 0.000654428
3 *680:17 0.0270408
4 *680:15 0.0247689
5 *984:itrim_sum[3] *984:itrim_sum[4] 3.53973e-05
6 *984:itrim_sum[3] *984:itrim_sum[5] 0.00025419
7 *984:itrim_sum[3] *726:13 0
8 *984:itrim_sum[3] *731:17 0.000230174
9 *680:15 *715:31 0.000158108
10 *680:15 *824:13 0.000964917
11 *680:17 *683:9 0.0113479
12 *680:17 *866:25 0
13 *984:itrim_sum[0] *984:itrim_sum[3] 0.00168183
14 *984:itrim_2_3[1] *984:itrim_sum[3] 0
15 *108:13 *680:15 0
16 *655:51 *984:itrim_sum[3] 0.0026813
*RES
1 *988:analog_ctrl[108] *680:15 12.5854 
2 *680:15 *680:17 72.4897 
3 *680:17 *984:itrim_sum[3] 19.5421 
*END

*D_NET *681 0.0767639
*CONN
*I *984:itrim_sum[4] I *D CF_ADC_DSM20
*I *988:analog_ctrl[109] O *D soc_sys
*CAP
1 *984:itrim_sum[4] 0.000330738
2 *988:analog_ctrl[109] 6.5687e-05
3 *681:17 0.00988838
4 *681:15 0.0121406
5 *681:9 0.00523237
6 *681:7 0.00271515
7 *984:itrim_sum[4] *984:itrim_2_3[0] 0.00033119
8 *681:15 *782:17 0.00173768
9 *681:17 *984:itrim_1[9] 0
10 *681:17 *692:13 0.023756
11 *681:17 *700:17 0.00464133
12 *681:17 *702:23 0.0111402
13 *681:17 *705:25 2.82057e-05
14 *681:17 *707:17 0.000394431
15 *681:17 *731:17 0
16 *681:17 *736:13 0
17 *984:itrim_sum[1] *681:17 0.001553
18 *984:itrim_sum[2] *984:itrim_sum[4] 0.00018675
19 *984:itrim_sum[3] *984:itrim_sum[4] 3.53973e-05
20 *673:15 *681:15 0.00258684
*RES
1 *988:analog_ctrl[109] *681:7 1.08036 
2 *681:7 *681:9 51.7321 
3 *681:9 *681:15 16.1636 
4 *681:15 *681:17 360.161 
5 *681:17 *984:itrim_sum[4] 8.17055 
*END

*D_NET *682 0.105248
*CONN
*I *984:sleep I *D CF_ADC_DSM20
*I *988:analog_ctrl[10] O *D soc_sys
*CAP
1 *984:sleep 2.24816e-05
2 *988:analog_ctrl[10] 4.91189e-05
3 *682:13 0.0330422
4 *682:11 0.0330197
5 *682:9 0.0148225
6 *682:7 0.0148716
7 *682:9 *844:17 0
8 *86:26 *682:9 0.00942013
*RES
1 *988:analog_ctrl[10] *682:7 1.08036 
2 *682:7 *682:9 302.482 
3 *682:9 *682:11 3.41 
4 *682:11 *682:13 88.4007 
5 *682:13 *984:sleep 3.88321 
*END

*D_NET *683 0.0698992
*CONN
*I *984:itrim_sum[5] I *D CF_ADC_DSM20
*I *988:analog_ctrl[110] O *D soc_sys
*CAP
1 *984:itrim_sum[5] 0.00141652
2 *988:analog_ctrl[110] 6.5687e-05
3 *683:17 0.00250136
4 *683:15 0.00315345
5 *683:9 0.018724
6 *683:7 0.0167211
7 *984:itrim_sum[5] *984:itrim_2_3[0] 0.000223267
8 *984:itrim_sum[5] *732:29 8.41648e-05
9 *683:9 *866:23 0
10 *683:17 *688:13 0.000375731
11 *683:17 *738:17 0.00651755
12 *984:iin *984:itrim_sum[5] 0.000174461
13 *984:itrim_sum[0] *984:itrim_sum[5] 0.00056763
14 *984:itrim_sum[1] *984:itrim_sum[5] 0.000556462
15 *984:itrim_sum[2] *984:itrim_sum[5] 0.000684778
16 *984:itrim_sum[3] *984:itrim_sum[5] 0.00025419
17 *984:itrim_2_3[1] *984:itrim_sum[5] 0
18 *984:itrim_2_3[4] *984:itrim_sum[5] 1.80827e-05
19 *13:18 *683:17 0.00651287
20 *680:17 *683:9 0.0113479
*RES
1 *988:analog_ctrl[110] *683:7 1.08036 
2 *683:7 *683:9 334.054 
3 *683:9 *683:15 12.0558 
4 *683:15 *683:17 80.2679 
5 *683:17 *984:itrim_sum[5] 18.2264 
*END

*D_NET *684 0.0699975
*CONN
*I *984:itrim_1[0] I *D CF_ADC_DSM20
*I *988:analog_ctrl[111] O *D soc_sys
*CAP
1 *984:itrim_1[0] 0.00144281
2 *988:analog_ctrl[111] 6.5687e-05
3 *684:17 0.00328785
4 *684:15 0.00364562
5 *684:9 0.0154809
6 *684:7 0.013746
7 *684:9 *866:23 0
8 *684:9 *866:25 0.00867771
9 *684:15 *817:13 0
10 *684:17 *688:13 0.00110457
11 *684:17 *714:17 0.00180133
12 *684:17 *723:33 0.000445353
13 *984:itrim_2_3[2] *984:itrim_1[0] 0.00115993
14 *984:itrim_2_3[3] *984:itrim_1[0] 6.44417e-06
15 *984:itrim_2_3[5] *984:itrim_1[0] 0.000644544
16 *13:18 *684:17 0.010819
17 *18:15 *684:17 0.00759206
18 *655:57 *684:15 7.76548e-05
*RES
1 *988:analog_ctrl[111] *684:7 1.08036 
2 *684:7 *684:9 272.732 
3 *684:9 *684:15 11.4072 
4 *684:15 *684:17 133.089 
5 *684:17 *984:itrim_1[0] 13.1068 
*END

*D_NET *685 0.0472064
*CONN
*I *984:itrim_1[1] I *D CF_ADC_DSM20
*I *988:analog_ctrl[112] O *D soc_sys
*CAP
1 *984:itrim_1[1] 0.00348658
2 *988:analog_ctrl[112] 6.59744e-05
3 *685:9 0.0213065
4 *685:7 0.0178859
5 *984:itrim_1[1] *984:itrim_1[2] 0
6 *984:itrim_1[1] *716:41 0.000276268
7 *984:itrim_1[1] *719:17 0.00129482
8 *984:itrim_1[1] *731:17 0.000226238
9 *984:itrim_1[1] *876:19 0.00266403
10 *984:itrim_1[1] *876:21 0
*RES
1 *988:analog_ctrl[112] *685:7 1.08036 
2 *685:7 *685:9 346.804 
3 *685:9 *984:itrim_1[1] 42.3144 
*END

*D_NET *686 0.0450284
*CONN
*I *984:itrim_1[2] I *D CF_ADC_DSM20
*I *988:analog_ctrl[113] O *D soc_sys
*CAP
1 *984:itrim_1[2] 0.00233491
2 *988:analog_ctrl[113] 6.5687e-05
3 *686:9 0.0206631
4 *686:7 0.0183939
5 *984:itrim_1[2] *984:itrim_1[3] 0.00349464
6 *984:itrim_1[2] *870:15 7.62033e-05
7 *686:9 *828:23 0
8 *984:itrim_1[1] *984:itrim_1[2] 0
*RES
1 *988:analog_ctrl[113] *686:7 1.08036 
2 *686:7 *686:9 368.054 
3 *686:9 *984:itrim_1[2] 14.0424 
*END

*D_NET *687 0.0647344
*CONN
*I *984:itrim_1[3] I *D CF_ADC_DSM20
*I *988:analog_ctrl[114] O *D soc_sys
*CAP
1 *984:itrim_1[3] 0.00169475
2 *988:analog_ctrl[114] 0.00219769
3 *687:13 0.0121661
4 *687:11 0.0126691
5 *984:itrim_1[3] *984:itrim_1[4] 0.00109148
6 *984:itrim_1[3] *731:17 1.8755e-05
7 *687:11 *748:19 0.000138403
8 *687:11 *794:27 0
9 *687:11 *824:17 0.000939501
10 *687:11 *828:23 0
11 *687:13 *748:21 0.00453927
12 *984:itrim_1[2] *984:itrim_1[3] 0.00349464
13 *673:17 *687:13 0.0257847
*RES
1 *988:analog_ctrl[114] *687:11 43.8125 
2 *687:11 *687:13 327 
3 *687:13 *984:itrim_1[3] 13.3511 
*END

*D_NET *688 0.0571253
*CONN
*I *984:itrim_1[4] I *D CF_ADC_DSM20
*I *988:analog_ctrl[115] O *D soc_sys
*CAP
1 *984:itrim_1[4] 0.00168378
2 *988:analog_ctrl[115] 0.000283127
3 *688:13 0.0183865
4 *688:11 0.0169859
5 *984:itrim_1[4] *731:17 4.04289e-05
6 *688:11 *770:15 4.89453e-05
7 *688:11 *790:27 0.000815389
8 *688:11 *792:15 0.000721419
9 *688:13 *714:17 0.00109411
10 *688:13 *723:33 0.0111348
11 *688:13 *738:17 0.000420301
12 *688:13 *792:29 0.000282121
13 *984:itrim_1[3] *984:itrim_1[4] 0.00109148
14 *13:18 *688:13 0.00163555
15 *18:15 *688:13 0.00102104
16 *683:17 *688:13 0.000375731
17 *684:17 *688:13 0.00110457
*RES
1 *988:analog_ctrl[115] *688:11 8.99518 
2 *688:11 *688:13 64.9258 
3 *688:13 *984:itrim_1[4] 11.7678 
*END

*D_NET *689 0.0608657
*CONN
*I *984:itrim_1[5] I *D CF_ADC_DSM20
*I *988:analog_ctrl[116] O *D soc_sys
*CAP
1 *984:itrim_1[5] 0.00116642
2 *988:analog_ctrl[116] 0.00185146
3 *689:17 0.0101508
4 *689:15 0.0108358
5 *984:itrim_1[5] *984:itrim_1[8] 0.000407441
6 *984:itrim_1[5] *984:itrim_1[7] 0.000250015
7 *984:itrim_1[5] *984:itrim_1[6] 0.000131383
8 *984:itrim_1[5] *731:17 1.7732e-05
9 *689:17 *691:9 0.0033134
10 *689:17 *717:17 0.00670809
11 *689:17 *718:17 1.41029e-05
12 *689:17 *722:17 1.24066e-05
13 *689:17 *724:17 0
14 *689:17 *727:17 0
15 *689:17 *728:33 0.00561212
16 *689:17 *743:17 0
17 *65:13 *689:15 0
18 *677:17 *689:17 0.0203945
*RES
1 *988:analog_ctrl[116] *689:15 30.4448 
2 *689:15 *689:17 324.946 
3 *689:17 *984:itrim_1[5] 10.1668 
*END

*D_NET *690 0.0557274
*CONN
*I *984:itrim_1[6] I *D CF_ADC_DSM20
*I *988:analog_ctrl[117] O *D soc_sys
*CAP
1 *984:itrim_1[6] 0.00208065
2 *988:analog_ctrl[117] 5.50928e-05
3 *690:9 0.0161436
4 *690:7 0.014118
5 *984:itrim_1[6] *984:itrim_1[8] 0.000394976
6 *984:itrim_1[6] *984:itrim_1[7] 0.000792815
7 *984:itrim_1[6] *692:13 0
8 *984:itrim_1[6] *736:13 0.00104405
9 *690:9 *714:17 0.00555347
10 *690:9 *715:31 0
11 *690:9 *721:17 0.00567223
12 *690:9 *723:33 0.00970372
13 *690:9 *725:17 3.73269e-05
14 *690:9 *738:17 0
15 *984:itrim_1[5] *984:itrim_1[6] 0.000131383
16 *13:18 *690:9 0
*RES
1 *988:analog_ctrl[117] *690:7 1.08036 
2 *690:7 *690:9 331.625 
3 *690:9 *984:itrim_1[6] 30.557 
*END

*D_NET *691 0.0581598
*CONN
*I *984:itrim_1[7] I *D CF_ADC_DSM20
*I *988:analog_ctrl[118] O *D soc_sys
*CAP
1 *984:itrim_1[7] 0.00139618
2 *988:analog_ctrl[118] 5.31893e-05
3 *691:9 0.0128663
4 *691:7 0.0115233
5 *691:9 *715:31 2.71266e-05
6 *691:9 *719:17 0
7 *691:9 *725:17 0
8 *691:9 *728:25 1.48994e-05
9 *691:9 *728:33 0.00749241
10 *691:9 *770:25 0.000183782
11 *984:itrim_1[6] *984:itrim_1[7] 0.000792815
12 *984:itrim_1[5] *984:itrim_1[7] 0.000250015
13 *677:17 *691:9 0.0202465
14 *689:17 *691:9 0.0033134
*RES
1 *988:analog_ctrl[118] *691:7 1.08036 
2 *691:7 *691:9 343.768 
3 *691:9 *984:itrim_1[7] 10.2009 
*END

*D_NET *692 0.0568107
*CONN
*I *984:itrim_1[8] I *D CF_ADC_DSM20
*I *988:analog_ctrl[119] O *D soc_sys
*CAP
1 *984:itrim_1[8] 0.000277362
2 *988:analog_ctrl[119] 0.000296953
3 *692:13 0.0123364
4 *692:11 0.012356
5 *984:itrim_1[8] *731:17 7.91118e-05
6 *692:11 *728:25 0.000457481
7 *692:11 *735:19 0.000841434
8 *692:13 *695:11 7.3119e-07
9 *692:13 *700:17 0.00558741
10 *692:13 *736:13 0
11 *984:vpwr_int *692:13 1.94879e-05
12 *984:itrim_1[6] *984:itrim_1[8] 0.000394976
13 *984:itrim_1[6] *692:13 0
14 *984:itrim_1[5] *984:itrim_1[8] 0.000407441
15 *681:17 *692:13 0.023756
*RES
1 *988:analog_ctrl[119] *692:11 9.03121 
2 *692:11 *692:13 344.982 
3 *692:13 *984:itrim_1[8] 9.02453 
*END

*D_NET *693 0.410484
*CONN
*I *984:enable_hv I *D CF_ADC_DSM20
*I *988:analog_ctrl[11] O *D soc_sys
*CAP
1 *984:enable_hv 0.00201782
2 *988:analog_ctrl[11] 0.00914824
3 *693:41 0.0408081
4 *693:39 0.101211
5 *693:21 0.071348
6 *693:19 0.0089422
7 *693:13 0.00916363
8 *984:enable_hv *756:47 2.21649e-05
9 *693:13 *715:31 0.00415057
10 *693:13 *808:13 0.000509911
11 *693:13 *821:15 0.000256498
12 *693:13 *824:13 0.00606801
13 *693:19 *837:15 1.90936e-05
14 *693:21 *720:29 0.000156913
15 *693:21 *792:29 0.000101601
16 *693:21 *792:31 0.000966931
17 *693:21 *794:27 0.000137249
18 *693:21 *824:13 0.00068508
19 *693:39 *696:15 1.88175e-05
20 *693:39 *711:27 0.000478156
21 *693:39 *716:39 0.00128454
22 *693:39 *720:29 0.00174959
23 *693:39 *723:31 0.00200861
24 *693:39 *728:25 0.00255991
25 *693:39 *732:27 6.53009e-06
26 *693:39 *764:15 0.00058325
27 *693:39 *766:15 0.00401277
28 *693:39 *770:37 0.000141521
29 *693:39 *771:19 0.00228151
30 *693:39 *794:39 0.000129552
31 *693:41 *741:17 0
32 *693:41 *789:17 0.00520908
33 *693:41 *791:23 0.000392182
34 *693:41 *805:37 0.00749914
35 *693:41 *810:17 0.0299414
36 *984:vgnde_vnb *984:enable_hv 4.28033e-05
37 *988:adc_dout[6] *693:39 0.000543032
38 *47:21 *693:13 0.00154334
39 *108:13 *693:13 0
40 *646:18 *693:39 0.00963567
41 *647:17 *693:39 0.00586955
42 *648:17 *693:39 0.00679113
43 *653:27 *693:39 0.00982184
44 *659:22 *693:39 0.00971133
45 *671:15 *693:13 0.019222
46 *671:21 *693:21 0.0283221
47 *671:29 *693:39 0.00486976
48 *672:15 *693:21 0.000101601
*RES
1 *988:analog_ctrl[11] *693:13 48.8481 
2 *693:13 *693:19 8.18679 
3 *693:19 *693:21 267.911 
4 *693:21 *693:39 30.5092 
5 *693:39 *693:41 122.454 
6 *693:41 *984:enable_hv 12.7398 
*END

*D_NET *694 0.0607554
*CONN
*I *984:itrim_1[9] I *D CF_ADC_DSM20
*I *988:analog_ctrl[120] O *D soc_sys
*CAP
1 *984:itrim_1[9] 0.00156929
2 *988:analog_ctrl[120] 5.7759e-05
3 *694:9 0.0111332
4 *694:7 0.00962165
5 *984:itrim_1[9] *731:17 0.000154707
6 *984:itrim_1[9] *736:13 0.00112071
7 *694:7 *736:13 9.29129e-06
8 *694:9 *712:17 0.00762614
9 *694:9 *736:13 0.0287888
10 *694:9 *745:17 0.00055686
11 *984:itrim_sum[1] *984:itrim_1[9] 0.000116977
12 *678:23 *984:itrim_1[9] 0
13 *681:17 *984:itrim_1[9] 0
*RES
1 *988:analog_ctrl[120] *694:7 1.08036 
2 *694:7 *694:9 355.911 
3 *694:9 *984:itrim_1[9] 43.4681 
*END

*D_NET *695 0.350812
*CONN
*I *984:refsel[0] I *D CF_ADC_DSM20
*I *988:analog_ctrl[121] O *D soc_sys
*CAP
1 *984:refsel[0] 0.00137828
2 *988:analog_ctrl[121] 8.75057e-05
3 *695:17 0.0131054
4 *695:15 0.0117272
5 *695:13 0.0167456
6 *695:11 0.0168331
7 *984:refsel[0] *984:refsel[1] 0.00115328
8 *984:refsel[0] *984:SUMCAP3[2] 2.26973e-05
9 *984:refsel[0] *984:SUMCAP3_EN 6.0684e-05
10 *984:refsel[0] *984:SUMCAP2_EN 5.52387e-05
11 *984:refsel[0] *984:SUMCAP2[2] 1.01912e-05
12 *695:11 *700:15 0.000104865
13 *695:11 *735:19 0.000107212
14 *695:13 *700:17 0.000164947
15 *695:13 *709:17 0.0105449
16 *695:13 *711:29 0.0694617
17 *695:13 *713:17 0.00942666
18 *695:13 *732:27 0.000975195
19 *695:13 *732:29 0.0679012
20 *695:17 *732:33 0.0733955
21 *695:17 *735:25 3.6343e-05
22 *695:17 *749:29 0.0210811
23 *20:59 *984:refsel[0] 0.000181336
24 *80:13 *695:17 0.0362345
25 *670:31 *695:13 1.66624e-05
26 *692:13 *695:11 7.3119e-07
*RES
1 *988:analog_ctrl[121] *695:11 7.84211 
2 *695:11 *695:13 147.17 
3 *695:13 *695:15 3.41 
4 *695:15 *695:17 114.633 
5 *695:17 *984:refsel[0] 18.7925 
*END

*D_NET *696 0.301745
*CONN
*I *984:refsel[1] I *D CF_ADC_DSM20
*I *988:analog_ctrl[122] O *D soc_sys
*CAP
1 *984:refsel[1] 0.00186825
2 *988:analog_ctrl[122] 0.000743351
3 *696:21 0.026682
4 *696:19 0.0248138
5 *696:17 0.0441898
6 *696:15 0.0449332
7 *984:refsel[1] *984:refsel[6] 0
8 *984:refsel[1] *984:refsel[4] 1.01241e-05
9 *984:refsel[1] *984:refsel[3] 9.15186e-06
10 *984:refsel[1] *984:refsel[2] 8.27423e-05
11 *984:refsel[1] *984:SUMCAP3[0] 8.77885e-05
12 *984:refsel[1] *984:SUMCAP3[2] 0
13 *984:refsel[1] *984:FCAP2[3] 0
14 *984:refsel[1] *984:IPCAP1OFFSET 0.000100247
15 *696:15 *711:27 0
16 *696:15 *716:39 0.00170655
17 *696:15 *720:29 0.00171138
18 *696:17 *716:41 0
19 *696:17 *720:33 0.0695325
20 *696:17 *727:17 0.00965869
21 *696:17 *735:21 1.8599e-05
22 *696:21 *712:21 0.00067525
23 *696:21 *716:45 0.000198649
24 *696:21 *733:21 0.0730616
25 *696:21 *828:29 0
26 *984:refsel[0] *984:refsel[1] 0.00115328
27 *20:59 *984:refsel[1] 0.000489115
28 *693:39 *696:15 1.88175e-05
*RES
1 *988:analog_ctrl[122] *696:15 14.4177 
2 *696:15 *696:17 147.702 
3 *696:17 *696:19 3.41 
4 *696:19 *696:21 116.795 
5 *696:21 *984:refsel[1] 21.7469 
*END

*D_NET *697 0.253591
*CONN
*I *984:refsel[2] I *D CF_ADC_DSM20
*I *988:analog_ctrl[123] O *D soc_sys
*CAP
1 *984:refsel[2] 0.000222059
2 *988:analog_ctrl[123] 0.000127634
3 *697:17 0.0126195
4 *697:15 0.0123974
5 *697:13 0.0394929
6 *697:11 0.0396205
7 *984:refsel[2] *984:SUMCAPFB[1] 0
8 *984:refsel[2] *984:refsel[5] 6.25591e-06
9 *984:refsel[2] *984:refsel[4] 0.000310503
10 *984:refsel[2] *984:refsel[3] 5.38497e-05
11 *984:refsel[2] *984:SUMCAP3[0] 8.64841e-05
12 *984:refsel[2] *984:SUMCAP3[1] 0
13 *984:refsel[2] *984:FCAP1[4] 6.64265e-06
14 *697:11 *700:15 0.000187867
15 *697:11 *735:19 0.000191182
16 *697:13 *698:17 0.00253377
17 *697:13 *699:13 0
18 *697:13 *733:17 0
19 *697:13 *749:23 0.0115685
20 *697:17 *984:SUMCAPFB[0] 9.23226e-05
21 *697:17 *984:IPCAP1OFFSET 8.38112e-05
22 *697:17 *699:25 0.0155008
23 *697:17 *700:21 0.0415199
24 *697:17 *714:21 0.0417022
25 *984:refsel[1] *984:refsel[2] 8.27423e-05
26 *656:23 *697:13 0.0351844
*RES
1 *988:analog_ctrl[123] *697:11 7.98625 
2 *697:11 *697:13 145.252 
3 *697:13 *697:15 3.41 
4 *697:15 *697:17 112.219 
5 *697:17 *984:refsel[2] 14.0439 
*END

*D_NET *698 0.210887
*CONN
*I *984:refsel[3] I *D CF_ADC_DSM20
*I *988:analog_ctrl[124] O *D soc_sys
*CAP
1 *984:refsel[3] 0.000161969
2 *988:analog_ctrl[124] 0.000399795
3 *698:21 0.0217144
4 *698:19 0.0215524
5 *698:17 0.0375168
6 *698:15 0.0379166
7 *984:refsel[3] *984:refsel[6] 2.26973e-05
8 *984:refsel[3] *984:refsel[4] 5.26276e-05
9 *698:15 *716:39 5.11642e-05
10 *698:17 *699:13 0
11 *698:17 *749:23 0.00423595
12 *698:21 *984:SUMCAPFB[0] 5.30882e-05
13 *698:21 *984:refsel[8] 9.88726e-05
14 *698:21 *821:29 0.071097
15 *984:refsel[2] *984:refsel[3] 5.38497e-05
16 *984:refsel[1] *984:refsel[3] 9.15186e-06
17 *20:59 *698:21 0.000498683
18 *108:13 *698:15 5.00695e-06
19 *656:23 *698:17 0.0129132
20 *697:13 *698:17 0.00253377
*RES
1 *988:analog_ctrl[124] *698:15 12.3584 
2 *698:15 *698:17 143.547 
3 *698:17 *698:19 3.41 
4 *698:19 *698:21 111.498 
5 *698:21 *984:refsel[3] 9.75103 
*END

*D_NET *699 0.261539
*CONN
*I *984:refsel[4] I *D CF_ADC_DSM20
*I *988:analog_ctrl[125] O *D soc_sys
*CAP
1 *984:refsel[4] 0.00019172
2 *988:analog_ctrl[125] 8.78557e-05
3 *699:25 0.0118458
4 *699:23 0.0116541
5 *699:21 0.00884456
6 *699:19 0.0101508
7 *699:13 0.0172324
8 *699:11 0.016014
9 *984:refsel[4] *984:refsel[13] 0
10 *984:refsel[4] *984:refsel[6] 0.000112747
11 *984:refsel[4] *984:refsel[5] 0.00013394
12 *984:refsel[4] *984:FCAP1[4] 4.80821e-06
13 *699:11 *700:15 0.000104865
14 *699:11 *735:19 0.000107212
15 *699:19 *701:19 4.13107e-06
16 *699:19 *703:19 2.1599e-05
17 *699:19 *706:19 0.00284025
18 *699:19 *817:13 0
19 *699:21 *701:21 0.044164
20 *699:21 *703:21 0.0442256
21 *699:21 *706:21 4.5708e-05
22 *699:21 *708:17 1.50258e-05
23 *699:25 *984:SUMCAPFB[3] 0.00030926
24 *699:25 *984:refsel[13] 9.41642e-05
25 *699:25 *984:FCAP1[5] 0.000274288
26 *699:25 *700:21 0.000191413
27 *699:25 *718:21 0.0386907
28 *699:25 *730:21 0.0382681
29 *984:refsel[3] *984:refsel[4] 5.26276e-05
30 *984:refsel[2] *984:refsel[4] 0.000310503
31 *984:refsel[1] *984:refsel[4] 1.01241e-05
32 *19:23 *699:21 3.60839e-05
33 *697:13 *699:13 0
34 *697:17 *699:25 0.0155008
35 *698:17 *699:13 0
*RES
1 *988:analog_ctrl[125] *699:11 7.84211 
2 *699:11 *699:13 47.7739 
3 *699:13 *699:19 11.5153 
4 *699:19 *699:21 555.205 
5 *699:21 *699:23 4.5 
6 *699:23 *699:25 657.268 
7 *699:25 *984:refsel[4] 14.6786 
*END

*D_NET *700 0.335081
*CONN
*I *984:refsel[5] I *D CF_ADC_DSM20
*I *988:analog_ctrl[126] O *D soc_sys
*CAP
1 *984:refsel[5] 0.000227815
2 *988:analog_ctrl[126] 0.000728616
3 *700:21 0.0114012
4 *700:19 0.0111734
5 *700:17 0.032771
6 *700:15 0.0334996
7 *984:refsel[5] *984:refsel[10] 4.72244e-05
8 *984:refsel[5] *984:refsel[9] 0.000118465
9 *984:refsel[5] *984:refsel[7] 0.000152782
10 *984:refsel[5] *984:refsel[6] 6.4957e-05
11 *984:refsel[5] *984:FCAP1[4] 9.67053e-05
12 *700:15 *711:27 0.001236
13 *700:15 *728:25 0.0014018
14 *700:15 *735:19 0.00116539
15 *700:17 *702:23 0.00942666
16 *700:17 *705:25 0.0105449
17 *700:17 *711:29 0.0685395
18 *700:17 *823:17 0.00694963
19 *700:21 *984:SUMCAPFB[0] 9.23226e-05
20 *700:21 *984:refsel[14] 0.00560688
21 *700:21 *984:IPCAP1OFFSET 0.00100533
22 *700:21 *701:25 0.0019477
23 *700:21 *702:27 0.00209427
24 *700:21 *710:21 0.0627779
25 *700:21 *714:21 0.000301094
26 *700:21 *718:21 0.0145698
27 *984:refsel[4] *984:refsel[5] 0.00013394
28 *984:refsel[2] *984:refsel[5] 6.25591e-06
29 *984:itrim_sum[1] *700:17 0.000399945
30 *657:26 *700:17 0.000126169
31 *657:28 *700:17 0.00397082
32 *681:17 *700:17 0.00464133
33 *692:13 *700:17 0.00558741
34 *695:11 *700:15 0.000104865
35 *695:13 *700:17 0.000164947
36 *697:11 *700:15 0.000187867
37 *697:17 *700:21 0.0415199
38 *699:11 *700:15 0.000104865
39 *699:25 *700:21 0.000191413
*RES
1 *988:analog_ctrl[126] *700:15 12.8233 
2 *700:15 *700:17 144.932 
3 *700:17 *700:19 3.41 
4 *700:19 *700:21 113.876 
5 *700:21 *984:refsel[5] 13.9546 
*END

*D_NET *701 0.301556
*CONN
*I *984:refsel[6] I *D CF_ADC_DSM20
*I *988:analog_ctrl[127] O *D soc_sys
*CAP
1 *984:refsel[6] 0.000245519
2 *988:analog_ctrl[127] 9.77534e-05
3 *701:25 0.00839206
4 *701:23 0.00814654
5 *701:21 0.0170798
6 *701:19 0.0179842
7 *701:13 0.0187507
8 *701:11 0.017944
9 *984:refsel[6] *984:refsel[8] 1.01912e-05
10 *984:refsel[6] *984:refsel[7] 0.000267725
11 *701:11 *732:27 0.000101349
12 *701:11 *735:19 0.000104758
13 *701:13 *702:15 0
14 *701:13 *732:27 6.72288e-05
15 *701:19 *702:21 0.0032069
16 *701:19 *703:19 0.000229717
17 *701:21 *743:17 0
18 *701:25 *984:SUMCAPIN[3] 2.77258e-05
19 *701:25 *984:FCAP1[5] 0.000113083
20 *701:25 *702:27 0.0691224
21 *701:25 *706:25 0.00033313
22 *701:25 *710:21 0.0137122
23 *701:25 *718:21 0.0697681
24 *984:refsel[5] *984:refsel[6] 6.4957e-05
25 *984:refsel[4] *984:refsel[6] 0.000112747
26 *984:refsel[3] *984:refsel[6] 2.26973e-05
27 *984:refsel[1] *984:refsel[6] 0
28 *19:23 *701:21 0.00554983
29 *655:57 *701:19 0.00398548
30 *699:19 *701:19 4.13107e-06
31 *699:21 *701:21 0.044164
32 *700:21 *701:25 0.0019477
*RES
1 *988:analog_ctrl[127] *701:11 7.84211 
2 *701:11 *701:13 48.3066 
3 *701:13 *701:19 13.1728 
4 *701:19 *701:21 551.259 
5 *701:21 *701:23 4.5 
6 *701:23 *701:25 657.268 
7 *701:25 *984:refsel[6] 14.2232 
*END

*D_NET *702 0.322855
*CONN
*I *984:refsel[7] I *D CF_ADC_DSM20
*I *988:analog_ctrl[128] O *D soc_sys
*CAP
1 *984:refsel[7] 0.000189703
2 *988:analog_ctrl[128] 9.93421e-05
3 *702:27 0.00810934
4 *702:25 0.00791964
5 *702:23 0.007679
6 *702:21 0.00832524
7 *702:15 0.0166962
8 *702:13 0.0161493
9 *984:refsel[7] *984:refsel[11] 1.90936e-05
10 *984:refsel[7] *984:refsel[10] 1.64567e-05
11 *984:refsel[7] *984:refsel[9] 4.84614e-05
12 *984:refsel[7] *984:refsel[8] 5.65143e-05
13 *702:13 *732:27 4.73953e-05
14 *702:13 *735:19 5.0145e-05
15 *702:15 *703:13 0
16 *702:15 *723:31 0.000253946
17 *702:21 *703:19 2.1599e-05
18 *702:21 *705:23 0.00362823
19 *702:23 *705:25 0.0447112
20 *702:23 *707:17 6.37883e-06
21 *702:23 *730:17 4.16756e-05
22 *702:23 *736:13 0
23 *702:23 *823:17 0.031359
24 *702:27 *984:SUMCAPIN[3] 6.42095e-05
25 *702:27 *706:25 0.0689939
26 *702:27 *710:21 0.0126153
27 *984:refsel[6] *984:refsel[7] 0.000267725
28 *984:refsel[5] *984:refsel[7] 0.000152782
29 *984:itrim_sum[1] *702:23 8.14379e-05
30 *655:57 *702:21 0.000260993
31 *681:17 *702:23 0.0111402
32 *700:17 *702:23 0.00942666
33 *700:21 *702:27 0.00209427
34 *701:13 *702:15 0
35 *701:19 *702:21 0.0032069
36 *701:25 *702:27 0.0691224
*RES
1 *988:analog_ctrl[128] *702:13 7.98339 
2 *702:13 *702:15 48.2001 
3 *702:15 *702:21 12.5963 
4 *702:21 *702:23 551.562 
5 *702:23 *702:25 4.5 
6 *702:25 *702:27 649.054 
7 *702:27 *984:refsel[7] 13.3571 
*END

*D_NET *703 0.319679
*CONN
*I *984:refsel[8] I *D CF_ADC_DSM20
*I *988:analog_ctrl[129] O *D soc_sys
*CAP
1 *984:refsel[8] 0.00195853
2 *988:analog_ctrl[129] 8.78557e-05
3 *703:25 0.011402
4 *703:23 0.00944352
5 *703:21 0.00869404
6 *703:19 0.00966253
7 *703:13 0.0169857
8 *703:11 0.016105
9 *984:refsel[8] *984:SUMCAPFB[0] 5.13156e-05
10 *984:refsel[8] *984:refsel[14] 0.0105764
11 *984:refsel[8] *984:refsel[10] 1.01912e-05
12 *984:refsel[8] *984:refsel[9] 5.77863e-05
13 *984:refsel[8] *984:IPCAP1OFFSET 9.59008e-05
14 *984:refsel[8] *707:21 0.010889
15 *984:refsel[8] *710:21 5.07108e-05
16 *703:11 *732:27 0.000104865
17 *703:11 *735:19 0.000107212
18 *703:13 *705:17 0
19 *703:13 *706:13 0
20 *703:13 *723:31 0
21 *703:19 *705:23 0.00418376
22 *703:19 *706:19 0.00488933
23 *703:21 *706:21 0.0442228
24 *703:25 *706:25 0.0135801
25 *703:25 *707:21 0.0359413
26 *703:25 *708:21 0.0125846
27 *703:25 *710:21 0.0632116
28 *703:25 *714:21 0
29 *703:25 *821:29 2.70974e-05
30 *984:refsel[7] *984:refsel[8] 5.65143e-05
31 *984:refsel[6] *984:refsel[8] 1.01912e-05
32 *20:59 *984:refsel[8] 9.13847e-05
33 *698:21 *984:refsel[8] 9.88726e-05
34 *699:19 *703:19 2.1599e-05
35 *699:21 *703:21 0.0442256
36 *701:19 *703:19 0.000229717
37 *702:15 *703:13 0
38 *702:21 *703:19 2.1599e-05
*RES
1 *988:analog_ctrl[129] *703:11 7.84211 
2 *703:11 *703:13 47.987 
3 *703:13 *703:19 14.6142 
4 *703:19 *703:21 552.018 
5 *703:21 *703:23 3.41 
6 *703:23 *703:25 97.9496 
7 *703:25 *984:refsel[8] 33.5308 
*END

*D_NET *704 0.397833
*CONN
*I *984:iso I *D CF_ADC_DSM20
*I *988:analog_ctrl[12] O *D soc_sys
*CAP
1 *984:iso 0.000321016
2 *988:analog_ctrl[12] 5.10627e-05
3 *704:17 0.0191361
4 *704:15 0.0188151
5 *704:13 0.0531324
6 *704:11 0.0531324
7 *704:9 0.00422928
8 *704:7 0.00428034
9 *704:13 *811:21 0.151821
10 *704:17 *755:33 0.0118886
11 *704:17 *780:17 0.00808142
12 *704:17 *786:17 0.00173375
13 *704:17 *793:17 0
14 *704:17 *795:17 0
15 *704:17 *798:17 0.0134476
16 *704:17 *799:17 0.0410007
17 *704:17 *802:17 0
18 *704:17 *803:17 0.00481313
19 *704:17 *803:23 0.000450831
20 *704:17 *812:17 0.000838055
21 *15:37 *984:iso 2.55163e-05
22 *15:43 *984:iso 0
23 *20:47 *704:17 0.000582614
24 *651:10 *704:17 0.00766291
25 *652:13 *704:17 0.000582614
26 *654:13 *704:17 0.00180666
*RES
1 *988:analog_ctrl[12] *704:7 1.08036 
2 *704:7 *704:9 82.0893 
3 *704:9 *704:11 3.41 
4 *704:11 *704:13 238.191 
5 *704:13 *704:15 3.41 
6 *704:15 *704:17 107.646 
7 *704:17 *984:iso 8.10457 
*END

*D_NET *705 0.325476
*CONN
*I *984:refsel[9] I *D CF_ADC_DSM20
*I *988:analog_ctrl[130] O *D soc_sys
*CAP
1 *984:refsel[9] 0.000471411
2 *988:analog_ctrl[130] 0.000388242
3 *705:29 0.00813507
4 *705:27 0.00766366
5 *705:25 0.00710985
6 *705:23 0.00791394
7 *705:17 0.0165626
8 *705:15 0.0161468
9 *984:refsel[9] *984:SUMCAPIN[3] 7.31971e-05
10 *984:refsel[9] *984:SUMCAPIN[1] 2.61099e-05
11 *984:refsel[9] *984:SUMCAPIN[0] 4.25966e-05
12 *984:refsel[9] *984:SUMCAPFB[1] 0.000240143
13 *984:refsel[9] *984:refsel[12] 2.03416e-06
14 *984:refsel[9] *984:refsel[11] 0.000232456
15 *984:refsel[9] *984:refsel[10] 6.04486e-05
16 *984:refsel[9] *984:FCAP1[4] 0.000959794
17 *984:refsel[9] *823:21 7.65719e-05
18 *705:15 *716:39 4.73953e-05
19 *705:15 *720:29 5.11642e-05
20 *705:17 *706:13 0
21 *705:23 *706:19 0.000260993
22 *705:25 *707:17 0.0447558
23 *705:29 *984:FCAP1[4] 1.02936e-05
24 *705:29 *707:21 0.0145243
25 *705:29 *717:21 0.0679849
26 *705:29 *823:21 0.0680277
27 *984:refsel[8] *984:refsel[9] 5.77863e-05
28 *984:refsel[7] *984:refsel[9] 4.84614e-05
29 *984:refsel[5] *984:refsel[9] 0.000118465
30 *655:57 *705:23 0.000387955
31 *681:17 *705:25 2.82057e-05
32 *700:17 *705:25 0.0105449
33 *702:21 *705:23 0.00362823
34 *702:23 *705:25 0.0447112
35 *703:13 *705:17 0
36 *703:19 *705:23 0.00418376
*RES
1 *988:analog_ctrl[130] *705:15 12.3584 
2 *705:15 *705:17 47.3478 
3 *705:17 *705:23 14.1097 
4 *705:23 *705:25 550.045 
5 *705:25 *705:27 4.5 
6 *705:27 *705:29 638.375 
7 *705:29 *984:refsel[9] 14.9821 
*END

*D_NET *706 0.321228
*CONN
*I *984:refsel[10] I *D CF_ADC_DSM20
*I *988:analog_ctrl[131] O *D soc_sys
*CAP
1 *984:refsel[10] 0.000178353
2 *988:analog_ctrl[131] 7.31973e-05
3 *706:25 0.00824244
4 *706:23 0.00806408
5 *706:21 0.0087253
6 *706:19 0.0104558
7 *706:13 0.0177234
8 *706:11 0.0160661
9 *984:refsel[10] *984:refsel[13] 1.99921e-05
10 *984:refsel[10] *984:refsel[12] 0.000190395
11 *984:refsel[10] *984:refsel[11] 6.03254e-05
12 *706:11 *732:27 3.6849e-05
13 *706:11 *735:19 3.89852e-05
14 *706:19 *817:13 0
15 *706:21 *708:17 0.0442808
16 *706:21 *710:17 1.03782e-05
17 *706:25 *984:SUMCAPIN[3] 0.000715986
18 *706:25 *984:refsel[14] 0.00209427
19 *706:25 *984:refsel[12] 1.0634e-05
20 *706:25 *708:21 0.0688429
21 *706:25 *738:21 8.25843e-06
22 *984:refsel[9] *984:refsel[10] 6.04486e-05
23 *984:refsel[8] *984:refsel[10] 1.01912e-05
24 *984:refsel[7] *984:refsel[10] 1.64567e-05
25 *984:refsel[5] *984:refsel[10] 4.72244e-05
26 *655:57 *706:19 8.92305e-05
27 *699:19 *706:19 0.00284025
28 *699:21 *706:21 4.5708e-05
29 *701:25 *706:25 0.00033313
30 *702:27 *706:25 0.0689939
31 *703:13 *706:13 0
32 *703:19 *706:19 0.00488933
33 *703:21 *706:21 0.0442228
34 *703:25 *706:25 0.0135801
35 *705:17 *706:13 0
36 *705:23 *706:19 0.000260993
*RES
1 *988:analog_ctrl[131] *706:11 7.73245 
2 *706:11 *706:13 47.8805 
3 *706:13 *706:19 15.9834 
4 *706:19 *706:21 553.08 
5 *706:21 *706:23 4.5 
6 *706:23 *706:25 653.982 
7 *706:25 *984:refsel[10] 12.8304 
*END

*D_NET *707 0.32732
*CONN
*I *984:refsel[11] I *D CF_ADC_DSM20
*I *988:analog_ctrl[132] O *D soc_sys
*CAP
1 *984:refsel[11] 0.000129489
2 *988:analog_ctrl[132] 6.20266e-05
3 *707:21 0.0124549
4 *707:19 0.0123254
5 *707:17 0.00756981
6 *707:15 0.00756981
7 *707:13 0.00162937
8 *707:11 0.00162937
9 *707:9 0.0130191
10 *707:7 0.0130811
11 *984:refsel[11] *984:refsel[15] 2.6206e-06
12 *984:refsel[11] *984:refsel[13] 2.70449e-05
13 *984:refsel[11] *984:refsel[12] 5.7486e-05
14 *707:13 *708:13 6.85372e-05
15 *707:13 *709:13 0.00516797
16 *707:13 *733:15 0.00172759
17 *707:17 *709:17 2.37761e-05
18 *707:17 *711:29 0.00942666
19 *707:17 *713:17 2.16603e-05
20 *707:17 *730:17 0.045787
21 *707:17 *731:17 0
22 *707:21 *984:IPCAP1OFFSET 2.01929e-05
23 *707:21 *717:21 0.0145618
24 *707:21 *738:21 0.0156859
25 *707:21 *821:29 0.0414204
26 *707:21 *823:21 0.0156619
27 *984:refsel[10] *984:refsel[11] 6.03254e-05
28 *984:refsel[9] *984:refsel[11] 0.000232456
29 *984:refsel[8] *707:21 0.010889
30 *984:refsel[7] *984:refsel[11] 1.90936e-05
31 *20:59 *707:21 0.00136595
32 *681:17 *707:17 0.000394431
33 *702:23 *707:17 6.37883e-06
34 *703:25 *707:21 0.0359413
35 *705:25 *707:17 0.0447558
36 *705:29 *707:21 0.0145243
*RES
1 *988:analog_ctrl[132] *707:7 1.08036 
2 *707:7 *707:9 258.92 
3 *707:9 *707:11 4.5 
4 *707:11 *707:13 49.8214 
5 *707:13 *707:15 4.5 
6 *707:15 *707:17 565.223 
7 *707:17 *707:19 3.41 
8 *707:19 *707:21 113.696 
9 *707:21 *984:refsel[11] 11.6779 
*END

*D_NET *708 0.284357
*CONN
*I *984:refsel[12] I *D CF_ADC_DSM20
*I *988:analog_ctrl[133] O *D soc_sys
*CAP
1 *984:refsel[12] 0.000385416
2 *988:analog_ctrl[133] 5.85943e-05
3 *708:21 0.0111285
4 *708:19 0.0107431
5 *708:17 0.00923753
6 *708:15 0.00923753
7 *708:13 0.000962823
8 *708:11 0.000962823
9 *708:9 0.0130592
10 *708:7 0.0131178
11 *984:refsel[12] *984:SUMCAPIN[3] 0.000672167
12 *984:refsel[12] *984:refsel[14] 1.91463e-05
13 *984:refsel[12] *984:refsel[13] 0.000215899
14 *984:refsel[12] *984:FCAP1[4] 0.000706382
15 *708:13 *709:13 0.00564826
16 *708:13 *710:13 0.0064165
17 *708:13 *725:13 3.81416e-06
18 *708:13 *733:15 0.00120244
19 *708:17 *710:17 0.0452817
20 *708:17 *743:17 0
21 *708:17 *745:17 6.56312e-06
22 *708:21 *984:refsel[14] 0.00194216
23 *708:21 *984:FCAP1[4] 6.61018e-05
24 *708:21 *738:21 0.0270685
25 *708:21 *738:35 0.000161813
26 *984:refsel[11] *984:refsel[12] 5.7486e-05
27 *984:refsel[10] *984:refsel[12] 0.000190395
28 *984:refsel[9] *984:refsel[12] 2.03416e-06
29 *699:21 *708:17 1.50258e-05
30 *703:25 *708:21 0.0125846
31 *706:21 *708:17 0.0442808
32 *706:25 *984:refsel[12] 1.0634e-05
33 *706:25 *708:21 0.0688429
34 *707:13 *708:13 6.85372e-05
*RES
1 *988:analog_ctrl[133] *708:7 1.08036 
2 *708:7 *708:9 259.527 
3 *708:9 *708:11 4.5 
4 *708:11 *708:13 60.9107 
5 *708:13 *708:15 4.5 
6 *708:15 *708:17 565.982 
7 *708:17 *708:19 4.5 
8 *708:19 *708:21 646.259 
9 *708:21 *984:refsel[12] 20.375 
*END

*D_NET *709 0.289712
*CONN
*I *984:refsel[13] I *D CF_ADC_DSM20
*I *988:analog_ctrl[134] O *D soc_sys
*CAP
1 *984:refsel[13] 0.000939977
2 *988:analog_ctrl[134] 5.85943e-05
3 *709:21 0.0217018
4 *709:19 0.0207618
5 *709:17 0.00823143
6 *709:15 0.00823143
7 *709:13 0.000922314
8 *709:11 0.000922314
9 *709:9 0.013038
10 *709:7 0.0130965
11 *984:refsel[13] *984:SUMCAPFB[1] 0.00106108
12 *984:refsel[13] *984:SUMCAPFB[3] 0
13 *984:refsel[13] *984:refsel[15] 0.000636853
14 *984:refsel[13] *984:refsel[14] 8.80822e-05
15 *984:refsel[13] *718:21 9.60875e-05
16 *709:13 *710:13 0.000264212
17 *709:13 *733:15 0.00109552
18 *709:17 *713:17 0.0470401
19 *709:17 *731:17 0.0465347
20 *709:21 *727:21 0.0685762
21 *709:21 *748:25 0.0146734
22 *984:refsel[12] *984:refsel[13] 0.000215899
23 *984:refsel[11] *984:refsel[13] 2.70449e-05
24 *984:refsel[10] *984:refsel[13] 1.99921e-05
25 *984:refsel[4] *984:refsel[13] 0
26 *695:13 *709:17 0.0105449
27 *699:25 *984:refsel[13] 9.41642e-05
28 *707:13 *709:13 0.00516797
29 *707:17 *709:17 2.37761e-05
30 *708:13 *709:13 0.00564826
*RES
1 *988:analog_ctrl[134] *709:7 1.08036 
2 *709:7 *709:9 259.223 
3 *709:9 *709:11 4.5 
4 *709:11 *709:13 57.625 
5 *709:13 *709:15 4.5 
6 *709:15 *709:17 583.893 
7 *709:17 *709:19 4.5 
8 *709:19 *709:21 644.125 
9 *709:21 *984:refsel[13] 41.25 
*END

*D_NET *710 0.344259
*CONN
*I *984:refsel[14] I *D CF_ADC_DSM20
*I *988:analog_ctrl[135] O *D soc_sys
*CAP
1 *984:refsel[14] 0.0020002
2 *988:analog_ctrl[135] 5.85943e-05
3 *710:21 0.00965627
4 *710:19 0.00765608
5 *710:17 0.0082124
6 *710:15 0.0082124
7 *710:13 0.00105772
8 *710:11 0.00105772
9 *710:9 0.0130703
10 *710:7 0.0131289
11 *984:refsel[14] *984:SUMCAPFB[1] 8.19176e-05
12 *984:refsel[14] *984:SUMCAPFB[2] 8.8929e-06
13 *984:refsel[14] *984:SUMCAPFB[0] 1.24049e-05
14 *984:refsel[14] *984:refsel[15] 0.000184453
15 *984:refsel[14] *984:IPCAP1OFFSET 0.000730145
16 *710:13 *713:13 0.00665465
17 *710:13 *725:13 1.00073e-05
18 *710:13 *729:13 0.000361093
19 *710:13 *733:15 0.00132244
20 *710:17 *729:17 0.0459893
21 *710:17 *745:17 2.50489e-05
22 *710:21 *714:21 0.000100568
23 *984:refsel[13] *984:refsel[14] 8.80822e-05
24 *984:refsel[12] *984:refsel[14] 1.91463e-05
25 *984:refsel[8] *984:refsel[14] 0.0105764
26 *984:refsel[8] *710:21 5.07108e-05
27 *700:21 *984:refsel[14] 0.00560688
28 *700:21 *710:21 0.0627779
29 *701:25 *710:21 0.0137122
30 *702:27 *710:21 0.0126153
31 *703:25 *710:21 0.0632116
32 *706:21 *710:17 1.03782e-05
33 *706:25 *984:refsel[14] 0.00209427
34 *708:13 *710:13 0.0064165
35 *708:17 *710:17 0.0452817
36 *708:21 *984:refsel[14] 0.00194216
37 *709:13 *710:13 0.000264212
*RES
1 *988:analog_ctrl[135] *710:7 1.08036 
2 *710:7 *710:9 259.83 
3 *710:9 *710:11 4.5 
4 *710:11 *710:13 69.5357 
5 *710:13 *710:15 4.5 
6 *710:15 *710:17 566.134 
7 *710:17 *710:19 3.41 
8 *710:19 *710:21 97.9496 
9 *710:21 *984:refsel[14] 28.095 
*END

*D_NET *711 0.338718
*CONN
*I *984:refsel[15] I *D CF_ADC_DSM20
*I *988:analog_ctrl[136] O *D soc_sys
*CAP
1 *984:refsel[15] 0.000796625
2 *988:analog_ctrl[136] 0.0021111
3 *711:33 0.0161532
4 *711:31 0.0153565
5 *711:29 0.0166088
6 *711:27 0.0187199
7 *984:refsel[15] *984:bw[2] 0
8 *984:refsel[15] *984:SUMCAPFB[1] 5.5409e-05
9 *984:refsel[15] *984:SUMCAPFB[2] 1.60939e-05
10 *984:refsel[15] *984:SUMCAPFB[3] 0.000294897
11 *984:refsel[15] *984:SUMCAPFB[0] 0.000719549
12 *711:27 *715:33 0.00128873
13 *711:27 *716:39 0.000361968
14 *711:27 *720:29 0.000509898
15 *711:27 *728:25 0.00162525
16 *711:27 *732:27 0.00463322
17 *711:27 *735:19 0.000128568
18 *711:27 *770:27 0.000162575
19 *711:27 *790:29 0.000810441
20 *711:27 *805:23 7.69776e-06
21 *711:27 *805:25 0.000150767
22 *711:27 *808:23 5.25884e-05
23 *711:29 *730:17 0.0105449
24 *711:33 *748:25 0.0199325
25 *711:33 *749:29 0.0720301
26 *984:refsel[14] *984:refsel[15] 0.000184453
27 *984:refsel[13] *984:refsel[15] 0.000636853
28 *984:refsel[11] *984:refsel[15] 2.6206e-06
29 *80:13 *711:33 0.00029473
30 *108:13 *711:27 8.14312e-05
31 *670:31 *711:29 1.60095e-05
32 *671:29 *711:27 0.00528899
33 *693:39 *711:27 0.000478156
34 *695:13 *711:29 0.0694617
35 *696:15 *711:27 0
36 *700:15 *711:27 0.001236
37 *700:17 *711:29 0.0685395
38 *707:17 *711:29 0.00942666
*RES
1 *988:analog_ctrl[136] *711:27 31.4419 
2 *711:27 *711:29 146.637 
3 *711:29 *711:31 3.41 
4 *711:31 *711:33 113.156 
5 *711:33 *984:refsel[15] 27.3654 
*END

*D_NET *712 0.323636
*CONN
*I *984:FCAP1[0] I *D CF_ADC_DSM20
*I *988:analog_ctrl[137] O *D soc_sys
*CAP
1 *984:FCAP1[0] 0.00200123
2 *988:analog_ctrl[137] 5.85943e-05
3 *712:21 0.0130317
4 *712:19 0.0110304
5 *712:17 0.0091627
6 *712:15 0.0106314
7 *712:9 0.0146875
8 *712:7 0.0132774
9 *984:FCAP1[0] *984:IPCAP1[5] 0.000132862
10 *984:FCAP1[0] *984:FCAP1[2] 1.90936e-05
11 *984:FCAP1[0] *984:FCAP1[1] 0.000178757
12 *984:FCAP1[0] *984:RESCAPEN 5.65143e-05
13 *984:FCAP1[0] *984:RESCAP[2] 4.21204e-05
14 *984:FCAP1[0] *734:29 0.000143853
15 *984:FCAP1[0] *740:27 1.02849e-05
16 *712:15 *721:13 0.00161152
17 *712:15 *722:13 0.00174615
18 *712:15 *812:13 0.00866443
19 *712:17 *729:17 1.76569e-05
20 *712:17 *736:13 0.019495
21 *712:17 *745:17 0.0464707
22 *712:21 *716:45 0.0754356
23 *712:21 *733:21 0.0744732
24 *712:21 *748:25 0.000267556
25 *13:14 *712:15 0.00866443
26 *19:23 *712:17 0
27 *657:18 *712:17 0.00402369
28 *694:9 *712:17 0.00762614
29 *696:21 *712:21 0.00067525
*RES
1 *988:analog_ctrl[137] *712:7 1.08036 
2 *712:7 *712:9 261.804 
3 *712:9 *712:15 20.4155 
4 *712:15 *712:17 582.375 
5 *712:17 *712:19 3.41 
6 *712:19 *712:21 118.489 
7 *712:21 *984:FCAP1[0] 21.0638 
*END

*D_NET *713 0.339607
*CONN
*I *984:FCAP1[1] I *D CF_ADC_DSM20
*I *988:analog_ctrl[138] O *D soc_sys
*CAP
1 *984:FCAP1[1] 0.000929021
2 *988:analog_ctrl[138] 5.85943e-05
3 *713:21 0.00938976
4 *713:19 0.00846074
5 *713:17 0.00808778
6 *713:15 0.00808778
7 *713:13 0.00122978
8 *713:11 0.00122978
9 *713:9 0.0130814
10 *713:7 0.01314
11 *984:FCAP1[1] *984:SUMCAP1[0] 6.30035e-05
12 *984:FCAP1[1] *984:IPCAP1[0] 2.6526e-05
13 *984:FCAP1[1] *984:FCAP1[6] 7.85117e-06
14 *984:FCAP1[1] *984:FCAP1[2] 0.000437326
15 *984:FCAP1[1] *984:RESCAP[2] 0.00025738
16 *984:FCAP1[1] *984:IPCAP1OFFSET 0.000216969
17 *984:FCAP1[1] *984:FCAP2EN 0
18 *984:FCAP1[1] *787:21 7.93932e-06
19 *984:FCAP1[1] *788:31 1.437e-05
20 *713:13 *729:13 0.00809166
21 *713:13 *733:15 0.00173094
22 *713:17 *730:17 0.0460688
23 *713:21 *727:21 0
24 *713:21 *737:13 0.0711329
25 *713:21 *743:21 0.0698303
26 *713:21 *749:29 0.0147047
27 *984:FCAP1[0] *984:FCAP1[1] 0.000178757
28 *695:13 *713:17 0.00942666
29 *707:17 *713:17 2.16603e-05
30 *709:17 *713:17 0.0470401
31 *710:13 *713:13 0.00665465
*RES
1 *988:analog_ctrl[138] *713:7 1.08036 
2 *713:7 *713:9 260.134 
3 *713:9 *713:11 4.5 
4 *713:11 *713:13 76.1071 
5 *713:13 *713:15 4.5 
6 *713:15 *713:17 579.946 
7 *713:17 *713:19 4.5 
8 *713:19 *713:21 668.357 
9 *713:21 *984:FCAP1[1] 28.0446 
*END

*D_NET *714 0.265659
*CONN
*I *984:FCAP1[2] I *D CF_ADC_DSM20
*I *988:analog_ctrl[139] O *D soc_sys
*CAP
1 *984:FCAP1[2] 0.000356749
2 *988:analog_ctrl[139] 5.85943e-05
3 *714:21 0.017207
4 *714:19 0.0168502
5 *714:17 0.00923567
6 *714:15 0.00923567
7 *714:13 0.00352801
8 *714:11 0.00352801
9 *714:9 0.0133401
10 *714:7 0.0133987
11 *984:FCAP1[2] *984:IPCAP1[4] 0
12 *984:FCAP1[2] *984:IPCAP1[0] 8.15143e-05
13 *984:FCAP1[2] *984:RESCAP[2] 5.66471e-06
14 *984:FCAP1[2] *756:75 4.32918e-05
15 *984:FCAP1[2] *788:31 0.000265803
16 *714:13 *717:13 0.00992336
17 *714:13 *719:13 0.000170404
18 *714:13 *721:13 6.54834e-06
19 *714:17 *721:17 0.0114511
20 *714:17 *723:33 0.00671967
21 *714:17 *726:17 0.00312051
22 *714:17 *738:17 0
23 *714:21 *984:IPCAP1OFFSET 0.000434281
24 *714:21 *723:37 0.000285996
25 *714:21 *730:21 0.012443
26 *714:21 *756:75 3.70515e-05
27 *984:FCAP1[1] *984:FCAP1[2] 0.000437326
28 *984:FCAP1[0] *984:FCAP1[2] 1.90936e-05
29 *13:18 *714:17 0.000277215
30 *14:21 *714:17 0.0199944
31 *18:15 *714:17 0.0316346
32 *18:69 *714:21 0.000245009
33 *656:65 *714:13 0.00193413
34 *657:14 *714:21 0.028838
35 *684:17 *714:17 0.00180133
36 *688:13 *714:17 0.00109411
37 *690:9 *714:17 0.00555347
38 *697:17 *714:21 0.0417022
39 *700:21 *714:21 0.000301094
40 *703:25 *714:21 0
41 *710:21 *714:21 0.000100568
*RES
1 *988:analog_ctrl[139] *714:7 1.08036 
2 *714:7 *714:9 263.473 
3 *714:9 *714:11 4.5 
4 *714:11 *714:13 99.9286 
5 *714:13 *714:15 4.5 
6 *714:15 *714:17 565.527 
7 *714:17 *714:19 3.41 
8 *714:19 *714:21 120.615 
9 *714:21 *984:FCAP1[2] 15.7225 
*END

*D_NET *715 0.471503
*CONN
*I *984:phi2_buffer I *D CF_ADC_DSM20
*I *988:analog_ctrl[13] O *D soc_sys
*CAP
1 *984:phi2_buffer 0.00192138
2 *988:analog_ctrl[13] 0.0399857
3 *715:45 0.0257331
4 *715:43 0.0240354
5 *715:33 0.0120563
6 *715:31 0.0518184
7 *984:phi2_buffer *984:SIGN 3.28552e-05
8 *984:phi2_buffer *984:BUF_CHOP_EN 0.000346733
9 *984:phi2_buffer *984:BUF_FCHOP[2] 3.81416e-06
10 *984:phi2_buffer *984:BUF_FCHOP[1] 1.80913e-05
11 *984:phi2_buffer *740:13 0.000176806
12 *984:phi2_buffer *789:25 0
13 *715:31 *723:33 3.93741e-05
14 *715:31 *728:33 1.02849e-05
15 *715:31 *735:21 2.98341e-05
16 *715:31 *790:15 0.000115959
17 *715:31 *790:17 0.00918941
18 *715:31 *792:29 4.73891e-05
19 *715:31 *794:13 0.00860334
20 *715:31 *794:27 8.22793e-06
21 *715:31 *805:13 0.00779357
22 *715:31 *808:13 0.00761185
23 *715:31 *808:23 4.73891e-05
24 *715:31 *824:13 0.00598054
25 *715:31 *848:15 0.000132815
26 *715:31 *860:15 0.000146098
27 *715:31 *863:15 0.000106249
28 *715:33 *728:25 0.000162575
29 *715:33 *764:15 0.0010244
30 *715:33 *770:27 0.000871086
31 *715:33 *790:29 0.0944642
32 *715:33 *794:29 5.56984e-05
33 *715:33 *805:25 0.0929143
34 *715:33 *808:23 0.000166636
35 *715:45 *740:13 0.00232617
36 *715:45 *741:17 0.0247162
37 *715:45 *753:17 0.000317088
38 *715:45 *754:17 0.0025439
39 *715:45 *756:25 0.00474946
40 *715:45 *791:23 0.00294676
41 *715:45 *805:37 0
42 *47:21 *715:31 0.000132815
43 *108:13 *715:43 0
44 *120:27 *715:31 5.09315e-05
45 *646:14 *715:45 0.0042525
46 *646:18 *715:43 0.000292703
47 *647:13 *715:43 2.30116e-06
48 *647:17 *715:33 0.0117453
49 *648:13 *715:43 1.26641e-05
50 *649:10 *715:45 0.00513917
51 *650:13 *715:45 0.0055596
52 *659:18 *715:45 0.00393091
53 *659:22 *715:43 0.000249282
54 *660:14 *984:phi2_buffer 0
55 *663:27 *715:45 0.00496205
56 *667:19 *984:phi2_buffer 0.00118297
57 *667:19 *715:43 6.58704e-05
58 *671:15 *715:31 0.00335389
59 *671:29 *715:33 0.00169621
60 *680:15 *715:31 0.000158108
61 *690:9 *715:31 0
62 *691:9 *715:31 2.71266e-05
63 *693:13 *715:31 0.00415057
64 *711:27 *715:33 0.00128873
*RES
1 *988:analog_ctrl[13] *715:31 31.8297 
2 *715:31 *715:33 892.196 
3 *715:33 *715:43 13.3986 
4 *715:43 *715:45 96.4597 
5 *715:45 *984:phi2_buffer 48.5325 
*END

*D_NET *716 0.340979
*CONN
*I *984:FCAP1[3] I *D CF_ADC_DSM20
*I *988:analog_ctrl[140] O *D soc_sys
*CAP
1 *984:FCAP1[3] 0.00103008
2 *988:analog_ctrl[140] 0.00409066
3 *716:45 0.012228
4 *716:43 0.0111979
5 *716:41 0.0282837
6 *716:39 0.0323743
7 *984:FCAP1[3] *984:IPCAP1[4] 0.000453623
8 *984:FCAP1[3] *984:IPCAP1[3] 0.000796693
9 *984:FCAP1[3] *984:IPCAP1[2] 0.000361425
10 *984:FCAP1[3] *984:IPCAP1[1] 5.65143e-05
11 *984:FCAP1[3] *984:IPCAP1[0] 0
12 *984:FCAP1[3] *984:FCAP1[4] 0.000222385
13 *716:39 *720:29 0.00845884
14 *716:39 *723:31 6.41086e-06
15 *716:39 *728:25 2.55223e-05
16 *716:39 *792:29 0.000590234
17 *716:39 *792:31 0.000529872
18 *716:41 *719:17 0.00491554
19 *716:41 *723:33 0.0690798
20 *716:41 *728:33 0.00804217
21 *716:45 *748:25 0.0767032
22 *716:45 *828:29 0
23 *984:itrim_1[1] *716:41 0.000276268
24 *13:32 *716:41 0.000223303
25 *14:19 *716:41 0.000129666
26 *18:41 *716:41 0.000141594
27 *108:13 *716:39 0.00167526
28 *693:39 *716:39 0.00128454
29 *696:15 *716:39 0.00170655
30 *696:17 *716:41 0
31 *696:21 *716:45 0.000198649
32 *698:15 *716:39 5.11642e-05
33 *705:15 *716:39 4.73953e-05
34 *711:27 *716:39 0.000361968
35 *712:21 *716:45 0.0754356
*RES
1 *988:analog_ctrl[140] *716:39 39.3114 
2 *716:39 *716:41 147.276 
3 *716:41 *716:43 3.41 
4 *716:43 *716:45 119.642 
5 *716:45 *984:FCAP1[3] 31.2314 
*END

*D_NET *717 0.334223
*CONN
*I *984:FCAP1[4] I *D CF_ADC_DSM20
*I *988:analog_ctrl[141] O *D soc_sys
*CAP
1 *984:FCAP1[4] 0.00124907
2 *988:analog_ctrl[141] 5.85943e-05
3 *717:21 0.00933112
4 *717:19 0.00808205
5 *717:17 0.00875227
6 *717:15 0.00875227
7 *717:13 0.00160564
8 *717:11 0.00160564
9 *717:9 0.0133094
10 *717:7 0.013368
11 *984:FCAP1[4] *984:SUMCAPIN[3] 0.00129479
12 *984:FCAP1[4] *984:SUMCAP3[0] 0
13 *984:FCAP1[4] *984:SUMCAP3[1] 0
14 *984:FCAP1[4] *984:SUMCAP3_EN 3.6692e-06
15 *984:FCAP1[4] *984:SUMCAP2[1] 1.93403e-06
16 *984:FCAP1[4] *984:SUMCAP1[1] 1.56192e-05
17 *984:FCAP1[4] *984:SUMCAP1[0] 4.12921e-06
18 *984:FCAP1[4] *984:FCAP3[1] 0.000180875
19 *984:FCAP1[4] *984:FCAP2[2] 1.98124e-05
20 *984:FCAP1[4] *984:FCAP2[0] 1.45341e-05
21 *984:FCAP1[4] *984:DACCAP[4] 0.000508167
22 *984:FCAP1[4] *984:DACCAP[0] 4.18808e-05
23 *984:FCAP1[4] *984:DACCAP[2] 1.30607e-05
24 *984:FCAP1[4] *984:IPCAP1[3] 1.74352e-05
25 *984:FCAP1[4] *984:FCAP1[5] 0.000116276
26 *984:FCAP1[4] *984:FCAP1[6] 2.60118e-05
27 *984:FCAP1[4] *738:35 0.000122529
28 *984:FCAP1[4] *756:75 3.22862e-06
29 *984:FCAP1[4] *787:21 3.91935e-05
30 *717:13 *718:13 0.0108401
31 *717:13 *719:13 2.36643e-05
32 *717:17 *718:17 0.045682
33 *717:17 *735:21 0.0104146
34 *717:21 *738:21 0.0691391
35 *717:21 *738:35 1.89997e-05
36 *717:21 *742:21 0.000257377
37 *717:21 *823:21 3.97677e-05
38 *984:refsel[12] *984:FCAP1[4] 0.000706382
39 *984:refsel[9] *984:FCAP1[4] 0.000959794
40 *984:refsel[5] *984:FCAP1[4] 9.67053e-05
41 *984:refsel[4] *984:FCAP1[4] 4.80821e-06
42 *984:refsel[2] *984:FCAP1[4] 6.64265e-06
43 *984:FCAP1[3] *984:FCAP1[4] 0.000222385
44 *13:34 *717:17 0.0150844
45 *13:38 *717:17 2.96328e-05
46 *13:52 *717:17 0.00221441
47 *19:15 *717:17 0.00557488
48 *656:65 *717:13 0.00199154
49 *677:17 *717:17 0.00312438
50 *689:17 *717:17 0.00670809
51 *705:29 *984:FCAP1[4] 1.02936e-05
52 *705:29 *717:21 0.0679849
53 *707:21 *717:21 0.0145618
54 *708:21 *984:FCAP1[4] 6.61018e-05
55 *714:13 *717:13 0.00992336
*RES
1 *988:analog_ctrl[141] *717:7 1.08036 
2 *717:7 *717:9 263.17 
3 *717:9 *717:11 4.5 
4 *717:11 *717:13 102.804 
5 *717:13 *717:15 4.5 
6 *717:15 *717:17 561.125 
7 *717:17 *717:19 4.5 
8 *717:19 *717:21 649.875 
9 *717:21 *984:FCAP1[4] 34.0179 
*END

*D_NET *718 0.319445
*CONN
*I *984:FCAP1[5] I *D CF_ADC_DSM20
*I *988:analog_ctrl[142] O *D soc_sys
*CAP
1 *984:FCAP1[5] 0.000997252
2 *988:analog_ctrl[142] 5.85943e-05
3 *718:21 0.0110035
4 *718:19 0.0100062
5 *718:17 0.00725503
6 *718:15 0.00725503
7 *718:13 0.00156542
8 *718:11 0.00156542
9 *718:9 0.0132844
10 *718:7 0.013343
11 *984:FCAP1[5] *984:SUMCAPIN[3] 1.94146e-05
12 *984:FCAP1[5] *984:IPCAP1[2] 0.000270796
13 *984:FCAP1[5] *984:IPCAP1[0] 1.03104e-05
14 *984:FCAP1[5] *984:FCAP1[6] 0.000203947
15 *984:FCAP1[5] *730:21 0.000121382
16 *984:FCAP1[5] *758:17 0.000383166
17 *984:FCAP1[5] *769:21 0.000454901
18 *984:FCAP1[5] *771:37 0.000268165
19 *984:FCAP1[5] *773:21 7.27549e-05
20 *718:13 *719:13 0.0113215
21 *718:17 *722:17 0.0458988
22 *718:17 *735:21 0.0107656
23 *718:21 *738:21 0
24 *984:refsel[13] *718:21 9.60875e-05
25 *984:FCAP1[4] *984:FCAP1[5] 0.000116276
26 *13:14 *718:13 0.00227629
27 *13:52 *718:17 7.71366e-05
28 *18:71 *984:FCAP1[5] 0.000802311
29 *689:17 *718:17 1.41029e-05
30 *699:25 *984:FCAP1[5] 0.000274288
31 *699:25 *718:21 0.0386907
32 *700:21 *718:21 0.0145698
33 *701:25 *984:FCAP1[5] 0.000113083
34 *701:25 *718:21 0.0697681
35 *717:13 *718:13 0.0108401
36 *717:17 *718:17 0.045682
*RES
1 *988:analog_ctrl[142] *718:7 1.08036 
2 *718:7 *718:9 262.866 
3 *718:9 *718:11 4.5 
4 *718:11 *718:13 106.911 
5 *718:13 *718:15 4.5 
6 *718:15 *718:17 563.857 
7 *718:17 *718:19 4.5 
8 *718:19 *718:21 658.911 
9 *718:21 *984:FCAP1[5] 34.6429 
*END

*D_NET *719 0.327414
*CONN
*I *984:FCAP1[6] I *D CF_ADC_DSM20
*I *988:analog_ctrl[143] O *D soc_sys
*CAP
1 *984:FCAP1[6] 0.000474824
2 *988:analog_ctrl[143] 5.85943e-05
3 *719:21 0.00976361
4 *719:19 0.00928878
5 *719:17 0.0171572
6 *719:15 0.0171572
7 *719:13 0.00175941
8 *719:11 0.00175941
9 *719:9 0.0132594
10 *719:7 0.013318
11 *984:FCAP1[6] *984:DACCAP[4] 1.59935e-05
12 *984:FCAP1[6] *984:IPCAP1[2] 0.000145384
13 *984:FCAP1[6] *984:IPCAP1[0] 0.000827232
14 *719:13 *721:13 0.000300911
15 *719:13 *722:13 0.011758
16 *719:17 *721:17 7.41077e-05
17 *719:17 *723:33 0.00537505
18 *719:17 *725:17 0.0463633
19 *719:17 *876:21 0
20 *719:21 *721:21 0.000290634
21 *719:21 *724:21 0.0159852
22 *719:21 *729:21 0.0699254
23 *719:21 *736:17 0.000451164
24 *719:21 *745:21 0.070048
25 *719:21 *750:17 0.00052257
26 *719:21 *754:21 0.000349628
27 *719:21 *786:21 8.43535e-06
28 *984:FCAP1[4] *984:FCAP1[6] 2.60118e-05
29 *984:FCAP1[5] *984:FCAP1[6] 0.000203947
30 *984:FCAP1[1] *984:FCAP1[6] 7.85117e-06
31 *984:itrim_1[1] *719:17 0.00129482
32 *13:14 *719:13 0.00201674
33 *13:32 *719:17 0.000996099
34 *14:35 *719:21 0
35 *18:41 *719:17 0
36 *19:15 *719:17 0
37 *677:17 *719:17 0
38 *691:9 *719:17 0
39 *714:13 *719:13 0.000170404
40 *716:41 *719:17 0.00491554
41 *717:13 *719:13 2.36643e-05
42 *718:13 *719:13 0.0113215
*RES
1 *988:analog_ctrl[143] *719:7 1.08036 
2 *719:7 *719:9 262.562 
3 *719:9 *719:11 4.5 
4 *719:11 *719:13 116.357 
5 *719:13 *719:15 4.5 
6 *719:15 *719:17 571.143 
7 *719:17 *719:19 4.5 
8 *719:19 *719:21 683.964 
9 *719:21 *984:FCAP1[6] 21.0536 
*END

*D_NET *720 0.361043
*CONN
*I *984:FCAP1EN I *D CF_ADC_DSM20
*I *988:analog_ctrl[144] O *D soc_sys
*CAP
1 *984:FCAP1EN 0.000946455
2 *988:analog_ctrl[144] 0.00364302
3 *720:37 0.0246587
4 *720:35 0.0237122
5 *720:33 0.0159508
6 *720:31 0.0159508
7 *720:29 0.00364302
8 *984:FCAP1EN *984:IPCAP1[5] 4.8673e-05
9 *984:FCAP1EN *984:FCAP3EN 5.53811e-05
10 *984:FCAP1EN *984:FCAP1OFFSET 0.000402652
11 *984:FCAP1EN *761:27 0
12 *720:29 *723:31 0.00799269
13 *720:29 *728:25 0.00224653
14 *720:29 *792:29 4.98422e-05
15 *720:29 *792:31 0.000772143
16 *720:29 *794:29 0.000264935
17 *720:29 *808:23 0.00153735
18 *720:33 *722:17 0.00965869
19 *720:33 *724:17 0.0108044
20 *720:33 *735:21 0.0695782
21 *720:37 *728:37 0.0108543
22 *720:37 *732:33 0.000342896
23 *720:37 *735:25 0.0746363
24 *720:37 *755:39 0
25 *720:37 *759:13 0.000320382
26 *720:37 *785:53 0.000320382
27 *720:37 *796:13 0.000345474
28 *108:13 *720:29 0
29 *657:14 *720:37 0
30 *671:21 *720:29 0.000136856
31 *693:21 *720:29 0.000156913
32 *693:39 *720:29 0.00174959
33 *696:15 *720:29 0.00171138
34 *696:17 *720:33 0.0695325
35 *705:15 *720:29 5.11642e-05
36 *711:27 *720:29 0.000509898
37 *716:39 *720:29 0.00845884
*RES
1 *988:analog_ctrl[144] *720:29 46.7957 
2 *720:29 *720:31 3.41 
3 *720:31 *720:33 146.317 
4 *720:33 *720:35 3.41 
5 *720:35 *720:37 120.29 
6 *720:37 *984:FCAP1EN 24.4725 
*END

*D_NET *721 0.271778
*CONN
*I *984:FCAP1OFFSET I *D CF_ADC_DSM20
*I *988:analog_ctrl[145] O *D soc_sys
*CAP
1 *984:FCAP1OFFSET 0.000601125
2 *988:analog_ctrl[145] 5.85943e-05
3 *721:21 0.0245822
4 *721:19 0.023981
5 *721:17 0.00800338
6 *721:15 0.00800338
7 *721:13 0.00183914
8 *721:11 0.00183914
9 *721:9 0.0132021
10 *721:7 0.0132607
11 *984:FCAP1OFFSET *984:IPCAP1[5] 1.94945e-05
12 *984:FCAP1OFFSET *984:RESCAP[1] 7.02611e-05
13 *984:FCAP1OFFSET *984:FCAP3EN 0.000810214
14 *984:FCAP1OFFSET *984:FCAP2EN 0.000110657
15 *721:13 *722:13 0.0127135
16 *721:13 *724:13 0.0126739
17 *721:13 *725:13 0.000234153
18 *721:17 *723:33 0.00975812
19 *721:17 *725:17 0.0464108
20 *721:21 *728:37 0.0126763
21 *721:21 *729:21 5.6685e-05
22 *721:21 *736:17 0.0384864
23 *721:21 *757:45 0.00125411
24 *721:21 *759:13 0
25 *984:FCAP1EN *984:FCAP1OFFSET 0.000402652
26 *13:14 *721:13 0.000843361
27 *14:19 *721:17 0.000352853
28 *14:21 *721:17 0.0201265
29 *690:9 *721:17 0.00567223
30 *712:15 *721:13 0.00161152
31 *714:13 *721:13 6.54834e-06
32 *714:17 *721:17 0.0114511
33 *719:13 *721:13 0.000300911
34 *719:17 *721:17 7.41077e-05
35 *719:21 *721:21 0.000290634
*RES
1 *988:analog_ctrl[145] *721:7 1.08036 
2 *721:7 *721:9 261.955 
3 *721:9 *721:11 4.5 
4 *721:11 *721:13 126.214 
5 *721:13 *721:15 4.5 
6 *721:15 *721:17 572.964 
7 *721:17 *721:19 4.5 
8 *721:19 *721:21 690.536 
9 *721:21 *984:FCAP1OFFSET 24.5714 
*END

*D_NET *722 0.351786
*CONN
*I *984:FCAP2[0] I *D CF_ADC_DSM20
*I *988:analog_ctrl[146] O *D soc_sys
*CAP
1 *984:FCAP2[0] 0.000358708
2 *988:analog_ctrl[146] 5.85943e-05
3 *722:21 0.0139293
4 *722:19 0.0135706
5 *722:17 0.00749207
6 *722:15 0.00749207
7 *722:13 0.00198829
8 *722:11 0.00198829
9 *722:9 0.0132196
10 *722:7 0.0132782
11 *984:FCAP2[0] *984:FCAP2[2] 9.64177e-05
12 *984:FCAP2[0] *984:FCAP2[1] 0.000644827
13 *984:FCAP2[0] *984:DACCAPEN 6.11802e-05
14 *984:FCAP2[0] *984:DACCAP[5] 0.000649158
15 *984:FCAP2[0] *984:DACCAP[4] 3.4795e-05
16 *722:13 *724:13 0.000264212
17 *722:17 *724:17 0.0464111
18 *722:21 *723:37 7.81022e-05
19 *722:21 *724:21 0.0738577
20 *722:21 *725:21 0.07378
21 *722:21 *728:37 1.75318e-05
22 *984:FCAP1[4] *984:FCAP2[0] 1.45341e-05
23 *13:14 *722:13 0.000698969
24 *13:52 *722:17 0
25 *657:14 *722:21 1.39702e-05
26 *689:17 *722:17 1.24066e-05
27 *712:15 *722:13 0.00174615
28 *718:17 *722:17 0.0458988
29 *719:13 *722:13 0.011758
30 *720:33 *722:17 0.00965869
31 *721:13 *722:13 0.0127135
*RES
1 *988:analog_ctrl[146] *722:7 1.08036 
2 *722:7 *722:9 262.259 
3 *722:9 *722:11 4.5 
4 *722:11 *722:13 124.571 
5 *722:13 *722:15 4.5 
6 *722:15 *722:17 570.384 
7 *722:17 *722:19 3.41 
8 *722:19 *722:21 117.948 
9 *722:21 *984:FCAP2[0] 19.0707 
*END

*D_NET *723 0.403669
*CONN
*I *984:FCAP2[1] I *D CF_ADC_DSM20
*I *988:analog_ctrl[147] O *D soc_sys
*CAP
1 *984:FCAP2[1] 0.000362137
2 *988:analog_ctrl[147] 0.00462787
3 *723:37 0.010484
4 *723:35 0.0101219
5 *723:33 0.0281468
6 *723:31 0.0327746
7 *984:FCAP2[1] *984:FCAP3[0] 4.70561e-05
8 *984:FCAP2[1] *984:FCAP2[2] 0.00062209
9 *984:FCAP2[1] *984:DACCAP[5] 4.66861e-05
10 *723:31 *728:25 0.00956315
11 *723:31 *732:27 0.00273514
12 *723:31 *735:19 0.00206799
13 *723:31 *770:25 0.000269125
14 *723:31 *790:27 1.53359e-05
15 *723:31 *792:31 0.000100235
16 *723:31 *805:23 2.39892e-06
17 *723:33 *725:17 0.00975812
18 *723:33 *726:17 0.00432852
19 *723:33 *728:33 0
20 *723:33 *792:29 2.69599e-06
21 *723:37 *725:21 0.0765499
22 *984:FCAP2[0] *984:FCAP2[1] 0.000644827
23 *13:18 *723:33 0.00195431
24 *14:21 *723:33 0.00494923
25 *18:15 *723:33 0.00525925
26 *108:13 *723:31 0
27 *657:14 *723:37 0.0753543
28 *684:17 *723:33 0.000445353
29 *688:13 *723:33 0.0111348
30 *690:9 *723:33 0.00970372
31 *693:39 *723:31 0.00200861
32 *702:15 *723:31 0.000253946
33 *703:13 *723:31 0
34 *714:17 *723:33 0.00671967
35 *714:21 *723:37 0.000285996
36 *715:31 *723:33 3.93741e-05
37 *716:39 *723:31 6.41086e-06
38 *716:41 *723:33 0.0690798
39 *719:17 *723:33 0.00537505
40 *720:29 *723:31 0.00799269
41 *721:17 *723:33 0.00975812
42 *722:21 *723:37 7.81022e-05
*RES
1 *988:analog_ctrl[147] *723:31 42.8428 
2 *723:31 *723:33 146.104 
3 *723:33 *723:35 3.41 
4 *723:35 *723:37 118.921 
5 *723:37 *984:FCAP2[1] 18.2761 
*END

*D_NET *724 0.399948
*CONN
*I *984:FCAP2[2] I *D CF_ADC_DSM20
*I *988:analog_ctrl[148] O *D soc_sys
*CAP
1 *984:FCAP2[2] 0.000395676
2 *988:analog_ctrl[148] 5.85943e-05
3 *724:21 0.014153
4 *724:19 0.0137573
5 *724:17 0.00743438
6 *724:15 0.00743438
7 *724:13 0.0020059
8 *724:11 0.0020059
9 *724:9 0.0131719
10 *724:7 0.0132305
11 *984:FCAP2[2] *984:FCAP3[0] 0.000668856
12 *984:FCAP2[2] *984:FCAP3[1] 0.000176569
13 *984:FCAP2[2] *984:DACCAP[5] 9.65999e-06
14 *724:13 *725:13 2.36643e-05
15 *724:13 *727:13 0.0140696
16 *724:13 *812:13 0.00289608
17 *724:17 *727:17 0.046502
18 *724:21 *728:37 0.0738237
19 *724:21 *736:17 0.0125717
20 *724:21 *745:21 0.0148242
21 *984:FCAP2[1] *984:FCAP2[2] 0.00062209
22 *984:FCAP2[0] *984:FCAP2[2] 9.64177e-05
23 *984:FCAP1[4] *984:FCAP2[2] 1.98124e-05
24 *689:17 *724:17 0
25 *719:21 *724:21 0.0159852
26 *720:33 *724:17 0.0108044
27 *721:13 *724:13 0.0126739
28 *722:13 *724:13 0.000264212
29 *722:17 *724:17 0.0464111
30 *722:21 *724:21 0.0738577
*RES
1 *988:analog_ctrl[148] *724:7 1.08036 
2 *724:7 *724:9 261.652 
3 *724:9 *724:11 4.5 
4 *724:11 *724:13 133.196 
5 *724:13 *724:15 4.5 
6 *724:15 *724:17 571.598 
7 *724:17 *724:19 3.41 
8 *724:19 *724:21 117.732 
9 *724:21 *984:FCAP2[2] 20.0707 
*END

*D_NET *725 0.372297
*CONN
*I *984:FCAP2[3] I *D CF_ADC_DSM20
*I *988:analog_ctrl[149] O *D soc_sys
*CAP
1 *984:FCAP2[3] 0.00113571
2 *988:analog_ctrl[149] 5.85943e-05
3 *725:21 0.0129745
4 *725:19 0.0118388
5 *725:17 0.00737283
6 *725:15 0.00737283
7 *725:13 0.00225767
8 *725:11 0.00225767
9 *725:9 0.0131245
10 *725:7 0.0131831
11 *984:FCAP2[3] *984:IPCAP2[0] 6.2589e-06
12 *984:FCAP2[3] *984:FCAP3[2] 5.39642e-05
13 *984:FCAP2[3] *984:FCAP3[0] 8.27284e-05
14 *984:FCAP2[3] *744:25 1.17749e-05
15 *725:13 *727:13 0.0145502
16 *725:13 *729:13 0.000334463
17 *725:13 *730:13 0.0134023
18 *725:13 *801:13 0.00299768
19 *725:21 *728:37 5.26867e-05
20 *725:21 *731:21 0.0158633
21 *725:21 *789:29 0.000141343
22 *984:refsel[1] *984:FCAP2[3] 0
23 *20:59 *984:FCAP2[3] 5.29214e-05
24 *690:9 *725:17 3.73269e-05
25 *691:9 *725:17 0
26 *708:13 *725:13 3.81416e-06
27 *710:13 *725:13 1.00073e-05
28 *719:17 *725:17 0.0463633
29 *721:13 *725:13 0.000234153
30 *721:17 *725:17 0.0464108
31 *722:21 *725:21 0.07378
32 *723:33 *725:17 0.00975812
33 *723:37 *725:21 0.0765499
34 *724:13 *725:13 2.36643e-05
*RES
1 *988:analog_ctrl[149] *725:7 1.08036 
2 *725:7 *725:9 261.045 
3 *725:9 *725:11 4.5 
4 *725:11 *725:13 143.875 
5 *725:13 *725:15 4.5 
6 *725:15 *725:17 570.991 
7 *725:17 *725:19 3.41 
8 *725:19 *725:21 118.633 
9 *725:21 *984:FCAP2[3] 17.4045 
*END

*D_NET *726 0.177846
*CONN
*I *984:buf_sel I *D CF_ADC_DSM20
*I *988:analog_ctrl[14] O *D soc_sys
*CAP
1 *984:buf_sel 0.0021082
2 *988:analog_ctrl[14] 4.86864e-05
3 *726:17 0.00741509
4 *726:15 0.00530689
5 *726:13 0.0280394
6 *726:11 0.0280394
7 *726:9 0.020564
8 *726:7 0.0206126
9 *984:buf_sel *731:17 0.000235363
10 *726:17 *738:17 0.00608633
11 *984:itrim_sum[3] *726:13 0
12 *13:18 *726:17 0.0128676
13 *18:15 *726:17 0.0228794
14 *120:27 *726:9 0.0161943
15 *655:51 *726:13 0
16 *714:17 *726:17 0.00312051
17 *723:33 *726:17 0.00432852
*RES
1 *988:analog_ctrl[14] *726:7 1.08036 
2 *726:7 *726:9 420.268 
3 *726:9 *726:11 3.41 
4 *726:11 *726:13 81.4823 
5 *726:13 *726:15 3.41 
6 *726:15 *726:17 348.625 
7 *726:17 *984:buf_sel 15.9097 
*END

*D_NET *727 0.314428
*CONN
*I *984:FCAP2EN I *D CF_ADC_DSM20
*I *988:analog_ctrl[150] O *D soc_sys
*CAP
1 *984:FCAP2EN 0.000911904
2 *988:analog_ctrl[150] 5.85943e-05
3 *727:21 0.0237702
4 *727:19 0.0228583
5 *727:17 0.00783062
6 *727:15 0.00783062
7 *727:13 0.00211515
8 *727:11 0.00211515
9 *727:9 0.0131433
10 *727:7 0.0132019
11 *984:FCAP2EN *984:RESCAP[0] 0.000699272
12 *984:FCAP2EN *984:RESCAP[1] 9.4688e-05
13 *984:FCAP2EN *984:IPCAP1EN 3.26233e-05
14 *984:FCAP2EN *984:FCAP3EN 0.00108489
15 *984:FCAP2EN *746:27 2.15178e-05
16 *727:13 *730:13 0.000264212
17 *727:13 *812:13 0.00260096
18 *727:17 *743:17 0.0470784
19 *727:21 *737:13 0
20 *727:21 *743:21 0
21 *727:21 *748:25 0.0152482
22 *984:FCAP1[1] *984:FCAP2EN 0
23 *984:FCAP1OFFSET *984:FCAP2EN 0.000110657
24 *13:52 *727:17 0
25 *19:23 *727:17 0
26 *689:17 *727:17 0
27 *696:17 *727:17 0.00965869
28 *709:21 *727:21 0.0685762
29 *713:21 *727:21 0
30 *724:13 *727:13 0.0140696
31 *724:17 *727:17 0.046502
32 *725:13 *727:13 0.0145502
*RES
1 *988:analog_ctrl[150] *727:7 1.08036 
2 *727:7 *727:9 261.348 
3 *727:9 *727:11 4.5 
4 *727:11 *727:13 141.821 
5 *727:13 *727:15 4.5 
6 *727:15 *727:17 581.464 
7 *727:17 *727:19 4.5 
8 *727:19 *727:21 682.732 
9 *727:21 *984:FCAP2EN 30.8571 
*END

*D_NET *728 0.373064
*CONN
*I *984:FCAP3[0] I *D CF_ADC_DSM20
*I *988:analog_ctrl[151] O *D soc_sys
*CAP
1 *984:FCAP3[0] 0.000513553
2 *988:analog_ctrl[151] 0.0052615
3 *728:37 0.0234648
4 *728:35 0.0229512
5 *728:33 0.0296299
6 *728:31 0.0296848
7 *728:25 0.00531632
8 *984:FCAP3[0] *984:FCAP3[3] 7.06481e-05
9 *984:FCAP3[0] *984:FCAP3[2] 0.000354698
10 *984:FCAP3[0] *984:FCAP3[1] 6.21263e-05
11 *984:FCAP3[0] *984:DACCAPEN 0
12 *984:FCAP3[0] *984:DACCAP[5] 0
13 *728:25 *735:19 9.80445e-05
14 *728:25 *770:25 2.94869e-05
15 *728:25 *770:27 0.000160191
16 *728:25 *790:27 2.05629e-05
17 *728:25 *790:29 0.000621915
18 *728:25 *794:29 0.000958319
19 *728:25 *805:23 0.00159742
20 *728:25 *805:25 0.000172737
21 *728:25 *808:25 0.000502373
22 *728:31 *792:29 0.000132889
23 *728:31 *808:23 0.000134119
24 *728:33 *735:21 0.0693414
25 *728:33 *876:21 0.000571306
26 *728:37 *729:21 0.0148242
27 *984:FCAP2[3] *984:FCAP3[0] 8.27284e-05
28 *984:FCAP2[2] *984:FCAP3[0] 0.000668856
29 *984:FCAP2[1] *984:FCAP3[0] 4.70561e-05
30 *13:34 *728:33 0.00375286
31 *13:52 *728:33 0.000777481
32 *18:41 *728:33 0.00197264
33 *18:69 *984:FCAP3[0] 3.08281e-05
34 *19:15 *728:33 0.00524224
35 *108:13 *728:25 0
36 *671:21 *728:25 0.000172737
37 *671:29 *728:25 0.012845
38 *677:17 *728:33 0.00435837
39 *689:17 *728:33 0.00561212
40 *691:9 *728:25 1.48994e-05
41 *691:9 *728:33 0.00749241
42 *692:11 *728:25 0.000457481
43 *693:39 *728:25 0.00255991
44 *700:15 *728:25 0.0014018
45 *711:27 *728:25 0.00162525
46 *715:31 *728:33 1.02849e-05
47 *715:33 *728:25 0.000162575
48 *716:39 *728:25 2.55223e-05
49 *716:41 *728:33 0.00804217
50 *720:29 *728:25 0.00224653
51 *720:37 *728:37 0.0108543
52 *721:21 *728:37 0.0126763
53 *722:21 *728:37 1.75318e-05
54 *723:31 *728:25 0.00956315
55 *723:33 *728:33 0
56 *724:21 *728:37 0.0738237
57 *725:21 *728:37 5.26867e-05
*RES
1 *988:analog_ctrl[151] *728:25 46.5976 
2 *728:25 *728:31 7.04717 
3 *728:31 *728:33 145.785 
4 *728:33 *728:35 3.41 
5 *728:35 *728:37 118.056 
6 *728:37 *984:FCAP3[0] 19.9636 
*END

*D_NET *729 0.34347
*CONN
*I *984:FCAP3[1] I *D CF_ADC_DSM20
*I *988:analog_ctrl[152] O *D soc_sys
*CAP
1 *984:FCAP3[1] 0.000677278
2 *988:analog_ctrl[152] 5.85943e-05
3 *729:21 0.00915055
4 *729:19 0.00847328
5 *729:17 0.00771774
6 *729:15 0.00771774
7 *729:13 0.00326576
8 *729:11 0.00326576
9 *729:9 0.0130671
10 *729:7 0.0131257
11 *984:FCAP3[1] *984:SUMCAP1_EN 0.000103253
12 *984:FCAP3[1] *984:SUMCAP1[0] 0.000310506
13 *984:FCAP3[1] *984:SUMCAP1[2] 0.000183289
14 *984:FCAP3[1] *984:IPCAP3[1] 0.000274471
15 *984:FCAP3[1] *984:IPCAP3[2] 0.00014531
16 *984:FCAP3[1] *984:IPCAP2[1] 4.53458e-05
17 *984:FCAP3[1] *984:FCAP3[3] 1.86723e-06
18 *984:FCAP3[1] *984:FCAP3[2] 8.0285e-06
19 *729:13 *730:13 0.0148405
20 *729:13 *733:15 0.00469121
21 *729:17 *745:17 0.04657
22 *729:21 *736:17 0.0697567
23 *984:FCAP3[0] *984:FCAP3[1] 6.21263e-05
24 *984:FCAP2[2] *984:FCAP3[1] 0.000176569
25 *984:FCAP1[4] *984:FCAP3[1] 0.000180875
26 *19:23 *729:17 0
27 *710:13 *729:13 0.000361093
28 *710:17 *729:17 0.0459893
29 *712:17 *729:17 1.76569e-05
30 *713:13 *729:13 0.00809166
31 *719:21 *729:21 0.0699254
32 *721:21 *729:21 5.6685e-05
33 *725:13 *729:13 0.000334463
34 *728:37 *729:21 0.0148242
*RES
1 *988:analog_ctrl[152] *729:7 1.08036 
2 *729:7 *729:9 260.438 
3 *729:9 *729:11 4.5 
4 *729:11 *729:13 145.929 
5 *729:13 *729:15 4.5 
6 *729:15 *729:17 573.571 
7 *729:17 *729:19 4.5 
8 *729:19 *729:21 661.375 
9 *729:21 *984:FCAP3[1] 25.4286 
*END

*D_NET *730 0.279564
*CONN
*I *984:FCAP3[2] I *D CF_ADC_DSM20
*I *988:analog_ctrl[153] O *D soc_sys
*CAP
1 *984:FCAP3[2] 0.000257011
2 *988:analog_ctrl[153] 5.85943e-05
3 *730:21 0.022903
4 *730:19 0.022646
5 *730:17 0.00759261
6 *730:15 0.00759261
7 *730:13 0.00224708
8 *730:11 0.00224708
9 *730:9 0.0130861
10 *730:7 0.0131447
11 *984:FCAP3[2] *984:IPCAP2[0] 1.96438e-06
12 *984:FCAP3[2] *984:FCAP3[3] 0.000197457
13 *984:FCAP3[2] *744:25 6.64121e-05
14 *730:13 *801:13 0.00270462
15 *730:21 *984:SUMCAPFB[3] 0.000307336
16 *730:21 *984:SUMCAP1[0] 0.000298483
17 *730:21 *771:37 0.000590017
18 *730:21 *784:29 0.000732777
19 *984:FCAP3[0] *984:FCAP3[2] 0.000354698
20 *984:FCAP3[1] *984:FCAP3[2] 8.0285e-06
21 *984:FCAP2[3] *984:FCAP3[2] 5.39642e-05
22 *984:FCAP1[5] *730:21 0.000121382
23 *14:35 *730:21 0
24 *18:69 *984:FCAP3[2] 5.41794e-05
25 *18:69 *730:21 0.000637533
26 *699:25 *730:21 0.0382681
27 *702:23 *730:17 4.16756e-05
28 *707:17 *730:17 0.045787
29 *711:29 *730:17 0.0105449
30 *713:17 *730:17 0.0460688
31 *714:21 *730:21 0.012443
32 *725:13 *730:13 0.0134023
33 *727:13 *730:13 0.000264212
34 *729:13 *730:13 0.0148405
*RES
1 *988:analog_ctrl[153] *730:7 1.08036 
2 *730:7 *730:9 260.741 
3 *730:9 *730:11 4.5 
4 *730:11 *730:13 144.286 
5 *730:13 *730:15 4.5 
6 *730:15 *730:17 567.196 
7 *730:17 *730:19 4.5 
8 *730:19 *730:21 658.5 
9 *730:21 *984:FCAP3[2] 15.6161 
*END

*D_NET *731 0.241392
*CONN
*I *984:FCAP3[3] I *D CF_ADC_DSM20
*I *988:analog_ctrl[154] O *D soc_sys
*CAP
1 *984:FCAP3[3] 0.000408099
2 *988:analog_ctrl[154] 5.85943e-05
3 *731:21 0.0247042
4 *731:19 0.0242961
5 *731:17 0.0181759
6 *731:15 0.0181759
7 *731:13 0.00491048
8 *731:11 0.00491048
9 *731:9 0.0124669
10 *731:7 0.0125255
11 *984:FCAP3[3] *984:IPCAP3[2] 0.000608394
12 *984:FCAP3[3] *984:IPCAP2[2] 3.44107e-05
13 *984:FCAP3[3] *984:IPCAP2[1] 4.1307e-05
14 *984:FCAP3[3] *984:IPCAP2[0] 6.22816e-05
15 *984:FCAP3[3] *744:25 6.83553e-05
16 *731:13 *738:13 0.0156586
17 *731:13 *798:13 0.00208263
18 *731:17 *732:29 0.00925376
19 *731:21 *745:21 0.0251637
20 *731:21 *786:21 0.00166789
21 *731:21 *789:29 0.00179309
22 *984:FCAP3[2] *984:FCAP3[3] 0.000197457
23 *984:FCAP3[0] *984:FCAP3[3] 7.06481e-05
24 *984:FCAP3[1] *984:FCAP3[3] 1.86723e-06
25 *984:buf_sel *731:17 0.000235363
26 *984:vpwr_int *731:17 8.39931e-05
27 *984:itrim_1[9] *731:17 0.000154707
28 *984:itrim_1[1] *731:17 0.000226238
29 *984:itrim_1[3] *731:17 1.8755e-05
30 *984:itrim_1[4] *731:17 4.04289e-05
31 *984:itrim_1[8] *731:17 7.91118e-05
32 *984:itrim_1[5] *731:17 1.7732e-05
33 *984:itrim_sum[3] *731:17 0.000230174
34 *984:itrim_2_3[1] *731:17 8.25286e-05
35 *984:itrim_2_3[5] *731:17 0.000366393
36 *14:35 *731:21 0
37 *18:69 *984:FCAP3[3] 0.00012222
38 *681:17 *731:17 0
39 *707:17 *731:17 0
40 *709:17 *731:17 0.0465347
41 *725:21 *731:21 0.0158633
*RES
1 *988:analog_ctrl[154] *731:7 1.08036 
2 *731:7 *731:9 249.205 
3 *731:9 *731:11 4.5 
4 *731:11 *731:13 147.571 
5 *731:13 *731:15 4.5 
6 *731:15 *731:17 583.286 
7 *731:17 *731:19 4.5 
8 *731:19 *731:21 656.446 
9 *731:21 *984:FCAP3[3] 19.5089 
*END

*D_NET *732 0.374122
*CONN
*I *984:FCAP3EN I *D CF_ADC_DSM20
*I *988:analog_ctrl[155] O *D soc_sys
*CAP
1 *984:FCAP3EN 0.000612916
2 *988:analog_ctrl[155] 0.00495251
3 *732:33 0.0136897
4 *732:31 0.0130767
5 *732:29 0.0257285
6 *732:27 0.030681
7 *984:FCAP3EN *984:IPCAP1[5] 3.63287e-05
8 *984:FCAP3EN *984:IPCAP1EN 7.72808e-05
9 *984:FCAP3EN *746:27 2.90614e-05
10 *732:27 *735:19 0.0154382
11 *732:29 *733:17 0
12 *732:29 *749:25 0.00279881
13 *732:33 *735:25 0.0732372
14 *732:33 *748:25 0
15 *732:33 *749:29 2.70433e-05
16 *732:33 *778:21 0.000193062
17 *732:33 *779:21 0.000320382
18 *732:33 *796:13 0.0143231
19 *984:FCAP2EN *984:FCAP3EN 0.00108489
20 *984:FCAP1EN *984:FCAP3EN 5.53811e-05
21 *984:FCAP1OFFSET *984:FCAP3EN 0.000810214
22 *984:iin *732:29 7.20393e-05
23 *984:itrim_sum[5] *732:29 8.41648e-05
24 *655:30 *732:29 0.00212815
25 *656:63 *732:29 0.00641908
26 *670:31 *732:29 0.00331865
27 *671:29 *732:27 0.00532648
28 *693:39 *732:27 6.53009e-06
29 *695:13 *732:27 0.000975195
30 *695:13 *732:29 0.0679012
31 *695:17 *732:33 0.0733955
32 *701:11 *732:27 0.000101349
33 *701:13 *732:27 6.72288e-05
34 *702:13 *732:27 4.73953e-05
35 *703:11 *732:27 0.000104865
36 *706:11 *732:27 3.6849e-05
37 *711:27 *732:27 0.00463322
38 *720:37 *732:33 0.000342896
39 *723:31 *732:27 0.00273514
40 *731:17 *732:29 0.00925376
*RES
1 *988:analog_ctrl[155] *732:27 46.9879 
2 *732:27 *732:29 142.996 
3 *732:29 *732:31 3.41 
4 *732:31 *732:33 117.768 
5 *732:33 *984:FCAP3EN 24.3029 
*END

*D_NET *733 0.327867
*CONN
*I *984:IPCAP1[0] I *D CF_ADC_DSM20
*I *988:analog_ctrl[156] O *D soc_sys
*CAP
1 *984:IPCAP1[0] 0.00118224
2 *988:analog_ctrl[156] 5.85943e-05
3 *733:21 0.0120562
4 *733:19 0.010874
5 *733:17 0.0230212
6 *733:15 0.0292407
7 *733:9 0.0192398
8 *733:7 0.0130789
9 *984:IPCAP1[0] *984:SUMCAP1[0] 0.000321509
10 *984:IPCAP1[0] *984:IPCAP1[2] 0
11 *984:IPCAP1[0] *756:75 0.000221034
12 *984:IPCAP1[0] *788:31 3.67405e-05
13 *733:15 *801:13 0.0171284
14 *733:15 *816:13 0
15 *733:17 *749:25 0.0364046
16 *733:21 *828:29 0
17 *984:FCAP1[3] *984:IPCAP1[0] 0
18 *984:FCAP1[5] *984:IPCAP1[0] 1.03104e-05
19 *984:FCAP1[6] *984:IPCAP1[0] 0.000827232
20 *984:FCAP1[2] *984:IPCAP1[0] 8.15143e-05
21 *984:FCAP1[1] *984:IPCAP1[0] 2.6526e-05
22 *984:iin *733:17 0.000130561
23 *984:itrim_2_3[2] *733:17 0.000177857
24 *656:23 *733:17 0
25 *656:63 *733:17 0.00429999
26 *670:31 *733:17 0.000143772
27 *696:21 *733:21 0.0730616
28 *697:13 *733:17 0
29 *707:13 *733:15 0.00172759
30 *708:13 *733:15 0.00120244
31 *709:13 *733:15 0.00109552
32 *710:13 *733:15 0.00132244
33 *712:21 *733:21 0.0744732
34 *713:13 *733:15 0.00173094
35 *729:13 *733:15 0.00469121
36 *732:29 *733:17 0
*RES
1 *988:analog_ctrl[156] *733:7 1.08036 
2 *733:7 *733:9 259.982 
3 *733:9 *733:15 33.6398 
4 *733:15 *733:17 102.639 
5 *733:17 *733:19 3.41 
6 *733:19 *733:21 116.11 
7 *733:21 *984:IPCAP1[0] 31.8296 
*END

*D_NET *734 0.336171
*CONN
*I *984:IPCAP1[1] I *D CF_ADC_DSM20
*I *988:analog_ctrl[157] O *D soc_sys
*CAP
1 *984:IPCAP1[1] 5.46197e-05
2 *988:analog_ctrl[157] 5.85943e-05
3 *734:29 0.00470113
4 *734:17 0.0139782
5 *734:15 0.00933171
6 *734:13 0.0173128
7 *734:11 0.0173128
8 *734:9 0.0127519
9 *734:7 0.0128105
10 *984:IPCAP1[1] *984:IPCAP1[4] 2.26973e-05
11 *984:IPCAP1[1] *984:IPCAP1[2] 5.65143e-05
12 *734:13 *739:13 0.073584
13 *734:13 *746:13 2.12005e-05
14 *734:13 *816:13 0.00787256
15 *734:17 *739:17 0.0452263
16 *734:17 *744:17 0.0443255
17 *734:29 *984:IPCAP1[5] 0.000109199
18 *734:29 *739:31 0.0216696
19 *734:29 *740:27 0.00528027
20 *734:29 *741:29 9.20095e-05
21 *984:FCAP1[3] *984:IPCAP1[1] 5.65143e-05
22 *984:FCAP1[0] *734:29 0.000143853
23 *20:59 *734:29 0.00116726
24 *33:13 *734:13 0.00660942
25 *34:17 *734:13 0.0333226
26 *35:13 *734:13 0.000257349
27 *66:17 *734:13 0.000530943
28 *664:25 *734:29 0.00746282
29 *664:27 *734:17 4.22135e-05
30 *667:17 *734:29 5.99199e-06
*RES
1 *988:analog_ctrl[157] *734:7 1.08036 
2 *734:7 *734:9 254.67 
3 *734:9 *734:11 4.5 
4 *734:11 *734:13 710.661 
5 *734:13 *734:15 4.5 
6 *734:15 *734:17 565.83 
7 *734:17 *734:29 47.1908 
8 *734:29 *984:IPCAP1[1] 9.07964 
*END

*D_NET *735 0.414523
*CONN
*I *984:IPCAP1[2] I *D CF_ADC_DSM20
*I *988:analog_ctrl[158] O *D soc_sys
*CAP
1 *984:IPCAP1[2] 0.000692382
2 *988:analog_ctrl[158] 0.00967214
3 *735:25 0.0144881
4 *735:23 0.0137958
5 *735:21 0.0161816
6 *735:19 0.0258537
7 *984:IPCAP1[2] *984:IPCAP1[4] 0.000474564
8 *984:IPCAP1[2] *984:IPCAP1[3] 0.000110123
9 *735:19 *736:9 0.00223522
10 *735:25 *777:21 0.000345474
11 *735:25 *783:33 0.000320382
12 *984:IPCAP1[1] *984:IPCAP1[2] 5.65143e-05
13 *984:IPCAP1[0] *984:IPCAP1[2] 0
14 *984:FCAP1[3] *984:IPCAP1[2] 0.000361425
15 *984:FCAP1[5] *984:IPCAP1[2] 0.000270796
16 *984:FCAP1[6] *984:IPCAP1[2] 0.000145384
17 *80:13 *735:25 0.000436851
18 *671:29 *735:19 0.000578458
19 *692:11 *735:19 0.000841434
20 *695:11 *735:19 0.000107212
21 *695:17 *735:25 3.6343e-05
22 *696:17 *735:21 1.8599e-05
23 *697:11 *735:19 0.000191182
24 *699:11 *735:19 0.000107212
25 *700:15 *735:19 0.00116539
26 *701:11 *735:19 0.000104758
27 *702:13 *735:19 5.0145e-05
28 *703:11 *735:19 0.000107212
29 *706:11 *735:19 3.89852e-05
30 *711:27 *735:19 0.000128568
31 *715:31 *735:21 2.98341e-05
32 *717:17 *735:21 0.0104146
33 *718:17 *735:21 0.0107656
34 *720:33 *735:21 0.0695782
35 *720:37 *735:25 0.0746363
36 *723:31 *735:19 0.00206799
37 *728:25 *735:19 9.80445e-05
38 *728:33 *735:21 0.0693414
39 *732:27 *735:19 0.0154382
40 *732:33 *735:25 0.0732372
*RES
1 *988:analog_ctrl[158] *735:19 39.8397 
2 *735:19 *735:21 146.743 
3 *735:21 *735:23 3.41 
4 *735:23 *735:25 119.065 
5 *735:25 *984:IPCAP1[2] 24.035 
*END

*D_NET *736 0.275759
*CONN
*I *984:IPCAP1[3] I *D CF_ADC_DSM20
*I *988:analog_ctrl[159] O *D soc_sys
*CAP
1 *984:IPCAP1[3] 0.000485064
2 *988:analog_ctrl[159] 3.79406e-05
3 *736:17 0.0109832
4 *736:15 0.0104981
5 *736:13 0.0263759
6 *736:11 0.0263759
7 *736:9 0.00860677
8 *736:7 0.00864471
9 *984:IPCAP1[3] *984:DACCAP[0] 0
10 *984:IPCAP1[3] *984:DACCAP[2] 0.000336502
11 *984:IPCAP1[3] *984:IPCAP1[5] 7.65823e-05
12 *984:IPCAP1[3] *984:IPCAP1[4] 5.91997e-05
13 *736:9 *790:29 0.00205767
14 *736:13 *821:27 0
15 *736:13 *823:17 0
16 *736:17 *754:21 9.67754e-05
17 *736:17 *757:45 0.00040105
18 *984:IPCAP1[2] *984:IPCAP1[3] 0.000110123
19 *984:FCAP1[3] *984:IPCAP1[3] 0.000796693
20 *984:FCAP1[4] *984:IPCAP1[3] 1.74352e-05
21 *984:VREFQ *736:13 0
22 *984:vpwr_int *736:13 0
23 *984:itrim_1[9] *736:13 0.00112071
24 *984:itrim_1[6] *736:13 0.00104405
25 *984:itrim_sum[1] *736:13 0
26 *984:itrim_sum[2] *736:13 0.000185756
27 *984:itrim_2_3[4] *736:13 0.00163415
28 *657:18 *736:13 0.00402009
29 *657:26 *736:13 0
30 *657:28 *736:13 0
31 *681:17 *736:13 0
32 *692:13 *736:13 0
33 *694:7 *736:13 9.29129e-06
34 *694:9 *736:13 0.0287888
35 *702:23 *736:13 0
36 *712:17 *736:13 0.019495
37 *719:21 *736:17 0.000451164
38 *721:21 *736:17 0.0384864
39 *724:21 *736:17 0.0125717
40 *729:21 *736:17 0.0697567
41 *735:19 *736:9 0.00223522
*RES
1 *988:analog_ctrl[159] *736:7 5.19643 
2 *736:7 *736:9 175.804 
3 *736:9 *736:11 4.5 
4 *736:11 *736:13 834.339 
5 *736:13 *736:15 4.5 
6 *736:15 *736:17 668.768 
7 *736:17 *984:IPCAP1[3] 21.9464 
*END

*D_NET *737 0.270974
*CONN
*I *984:EN_DEM I *D CF_ADC_DSM20
*I *988:analog_ctrl[15] O *D soc_sys
*CAP
1 *984:EN_DEM 0.00116519
2 *988:analog_ctrl[15] 4.86864e-05
3 *737:13 0.0489211
4 *737:11 0.0477559
5 *737:9 0.0409331
6 *737:7 0.0409818
7 *737:13 *743:21 0.000638375
8 *737:13 *749:29 0.000452321
9 *737:13 *759:13 0
10 *737:13 *778:21 4.8035e-05
11 *737:13 *779:21 1.96125e-05
12 *737:13 *780:21 0.0103156
13 *737:13 *796:13 0
14 *80:13 *737:13 0.00815368
15 *655:18 *737:9 0
16 *667:5 *984:EN_DEM 8.74149e-06
17 *667:7 *984:EN_DEM 3.36758e-05
18 *668:15 *984:EN_DEM 0.000365298
19 *713:21 *737:13 0.0711329
20 *727:21 *737:13 0
*RES
1 *988:analog_ctrl[15] *737:7 1.08036 
2 *737:7 *737:9 839.652 
3 *737:9 *737:11 4.5 
4 *737:11 *737:13 1223.23 
5 *737:13 *984:EN_DEM 28.1964 
*END

*D_NET *738 0.280136
*CONN
*I *984:IPCAP1[4] I *D CF_ADC_DSM20
*I *988:analog_ctrl[160] O *D soc_sys
*CAP
1 *984:IPCAP1[4] 0.000368131
2 *988:analog_ctrl[160] 4.91189e-05
3 *738:35 0.00151273
4 *738:21 0.0125698
5 *738:19 0.0114252
6 *738:17 0.020401
7 *738:15 0.020401
8 *738:13 0.00371299
9 *738:11 0.00371299
10 *738:9 0.0124291
11 *738:7 0.0124782
12 *984:IPCAP1[4] *984:DACCAP[1] 0
13 *984:IPCAP1[4] *984:IPCAP1[6] 6.07578e-07
14 *984:IPCAP1[4] *984:IPCAP1[5] 6.14462e-05
15 *738:13 *742:13 0.000397675
16 *738:13 *743:13 0.0197813
17 *738:13 *797:13 0.0043251
18 *738:17 *742:17 0
19 *738:21 *742:21 8.50254e-05
20 *738:35 *984:bw[2] 0
21 *738:35 *984:bw[3] 0.000169422
22 *738:35 *984:IPCAP1OFFSET 6.28248e-05
23 *738:35 *788:31 0.00249888
24 *984:IPCAP1[3] *984:IPCAP1[4] 5.91997e-05
25 *984:IPCAP1[2] *984:IPCAP1[4] 0.000474564
26 *984:IPCAP1[1] *984:IPCAP1[4] 2.26973e-05
27 *984:FCAP1[3] *984:IPCAP1[4] 0.000453623
28 *984:FCAP1[4] *738:35 0.000122529
29 *984:FCAP1[2] *984:IPCAP1[4] 0
30 *13:18 *738:17 0.0107252
31 *14:35 *738:35 0.000964261
32 *18:69 *738:35 0.00010613
33 *683:17 *738:17 0.00651755
34 *688:13 *738:17 0.000420301
35 *690:9 *738:17 0
36 *706:25 *738:21 8.25843e-06
37 *707:21 *738:21 0.0156859
38 *708:21 *738:21 0.0270685
39 *708:21 *738:35 0.000161813
40 *714:17 *738:17 0
41 *717:21 *738:21 0.0691391
42 *717:21 *738:35 1.89997e-05
43 *718:21 *738:21 0
44 *726:17 *738:17 0.00608633
45 *731:13 *738:13 0.0156586
*RES
1 *988:analog_ctrl[160] *738:7 1.08036 
2 *738:7 *738:9 248.902 
3 *738:9 *738:11 4.5 
4 *738:11 *738:13 196.857 
5 *738:13 *738:15 4.5 
6 *738:15 *738:17 575.696 
7 *738:17 *738:19 4.5 
8 *738:19 *738:21 657.473 
9 *738:21 *738:35 47.7054 
10 *738:35 *984:IPCAP1[4] 13.2232 
*END

*D_NET *739 0.355739
*CONN
*I *984:IPCAP1[5] I *D CF_ADC_DSM20
*I *988:analog_ctrl[161] O *D soc_sys
*CAP
1 *984:IPCAP1[5] 0.00047387
2 *988:analog_ctrl[161] 4.91189e-05
3 *739:31 0.00409528
4 *739:17 0.012782
5 *739:15 0.00916055
6 *739:13 0.00937398
7 *739:11 0.00937398
8 *739:9 0.0127625
9 *739:7 0.0128116
10 *984:IPCAP1[5] *984:DACCAP[2] 9.70677e-05
11 *984:IPCAP1[5] *984:IPCAP1[6] 5.9528e-05
12 *984:IPCAP1[5] *740:27 0.000492091
13 *984:IPCAP1[5] *741:29 0.000160965
14 *984:IPCAP1[5] *744:25 0.000993032
15 *739:13 *746:13 0.0702226
16 *739:13 *816:13 0.00486271
17 *739:17 *744:17 2.2355e-05
18 *739:17 *747:17 5.70517e-05
19 *739:31 *741:29 0.000982932
20 *984:IPCAP1[4] *984:IPCAP1[5] 6.14462e-05
21 *984:IPCAP1[3] *984:IPCAP1[5] 7.65823e-05
22 *984:FCAP1[0] *984:IPCAP1[5] 0.000132862
23 *984:FCAP3EN *984:IPCAP1[5] 3.63287e-05
24 *984:FCAP1EN *984:IPCAP1[5] 4.8673e-05
25 *984:FCAP1OFFSET *984:IPCAP1[5] 1.94945e-05
26 *20:59 *739:31 0.0130213
27 *33:13 *739:13 0.00712707
28 *35:13 *739:13 0.000238658
29 *66:17 *739:13 0.000233389
30 *667:17 *739:31 0.000225365
31 *668:21 *739:17 0.0450958
32 *734:13 *739:13 0.073584
33 *734:17 *739:17 0.0452263
34 *734:29 *984:IPCAP1[5] 0.000109199
35 *734:29 *739:31 0.0216696
*RES
1 *988:analog_ctrl[161] *739:7 1.08036 
2 *739:7 *739:9 254.973 
3 *739:9 *739:11 4.5 
4 *739:11 *739:13 692.179 
5 *739:13 *739:15 4.5 
6 *739:15 *739:17 566.134 
7 *739:17 *739:31 49.125 
8 *739:31 *984:IPCAP1[5] 16.4525 
*END

*D_NET *740 0.382983
*CONN
*I *984:IPCAP1[6] I *D CF_ADC_DSM20
*I *988:analog_ctrl[162] O *D soc_sys
*CAP
1 *984:IPCAP1[6] 5.6252e-05
2 *988:analog_ctrl[162] 4.70063e-05
3 *740:27 0.00990126
4 *740:13 0.0394683
5 *740:11 0.0296233
6 *740:9 0.0349934
7 *740:7 0.0350404
8 *984:IPCAP1[6] *984:DACCAP[5] 0
9 *984:IPCAP1[6] *984:DACCAP[2] 5.85357e-05
10 *740:9 *750:9 0.0177361
11 *740:9 *754:13 0.0144834
12 *740:9 *755:13 0.0658998
13 *740:9 *758:9 0.0091381
14 *740:13 *753:17 0.0478864
15 *740:13 *789:25 0.00243762
16 *740:13 *873:17 0.0277365
17 *740:13 *877:17 0.000568296
18 *740:27 *984:DACCAP[3] 3.48321e-05
19 *740:27 *741:29 0.0076264
20 *740:27 *744:25 2.24813e-05
21 *984:IPCAP1[5] *984:IPCAP1[6] 5.9528e-05
22 *984:IPCAP1[5] *740:27 0.000492091
23 *984:IPCAP1[4] *984:IPCAP1[6] 6.07578e-07
24 *984:FCAP1[0] *740:27 1.02849e-05
25 *984:phi2_buffer *740:13 0.000176806
26 *20:59 *740:27 0.000126445
27 *647:13 *740:13 0.0035378
28 *647:17 *740:9 0.0026545
29 *648:13 *740:13 0.00393091
30 *664:25 *740:27 4.89453e-05
31 *667:19 *740:13 0.01896
32 *671:29 *740:9 0.00262049
33 *715:45 *740:13 0.00232617
34 *734:29 *740:27 0.00528027
*RES
1 *988:analog_ctrl[162] *740:7 4.25821 
2 *740:7 *740:9 121.462 
3 *740:9 *740:11 3.41 
4 *740:11 *740:13 143.654 
5 *740:13 *740:27 48.8154 
6 *740:27 *984:IPCAP1[6] 9.01714 
*END

*D_NET *741 0.360068
*CONN
*I *984:IPCAP1EN I *D CF_ADC_DSM20
*I *988:analog_ctrl[163] O *D soc_sys
*CAP
1 *984:IPCAP1EN 5.21104e-05
2 *988:analog_ctrl[163] 5.31893e-05
3 *741:29 0.00435892
4 *741:17 0.0204652
5 *741:15 0.0161584
6 *741:13 0.0230061
7 *741:11 0.0230061
8 *741:9 0.012878
9 *741:7 0.0129312
10 *984:IPCAP1EN *984:RESCAP[1] 0.000113263
11 *984:IPCAP1EN *746:27 1.21859e-05
12 *741:13 *777:13 0.00311956
13 *741:13 *801:13 0
14 *741:13 *816:13 0.076261
15 *741:17 *752:25 0.0460508
16 *741:17 *753:17 0.00047272
17 *741:17 *791:23 0
18 *741:29 *744:25 0.00437946
19 *984:IPCAP1[5] *741:29 0.000160965
20 *984:FCAP3EN *984:IPCAP1EN 7.72808e-05
21 *984:FCAP2EN *984:IPCAP1EN 3.26233e-05
22 *20:59 *741:29 0.00393965
23 *36:9 *741:13 0.000618271
24 *104:29 *741:13 0.00736773
25 *646:14 *741:17 0.00513886
26 *649:10 *741:17 0.00225647
27 *650:13 *741:17 0.00313947
28 *661:17 *741:29 0.00765026
29 *661:19 *741:17 0.010591
30 *662:11 *741:29 0.00157513
31 *663:27 *741:17 0.00446488
32 *664:25 *741:29 0.0149796
33 *666:23 *741:13 0.00895289
34 *667:7 *741:29 0.00289647
35 *667:17 *741:29 4.98422e-05
36 *668:25 *741:13 0.00944069
37 *693:41 *741:17 0
38 *715:45 *741:17 0.0247162
39 *734:29 *741:29 9.20095e-05
40 *739:31 *741:29 0.000982932
41 *740:27 *741:29 0.0076264
*RES
1 *988:analog_ctrl[163] *741:7 1.08036 
2 *741:7 *741:9 256.946 
3 *741:9 *741:11 3.41 
4 *741:11 *741:13 121.083 
5 *741:13 *741:15 3.41 
6 *741:15 *741:17 98.6969 
7 *741:17 *741:29 47.5464 
8 *741:29 *984:IPCAP1EN 9.70464 
*END

*D_NET *742 0.253621
*CONN
*I *984:IPCAP1OFFSET I *D CF_ADC_DSM20
*I *988:analog_ctrl[164] O *D soc_sys
*CAP
1 *984:IPCAP1OFFSET 0.00201988
2 *988:analog_ctrl[164] 5.31893e-05
3 *742:21 0.0255399
4 *742:19 0.02352
5 *742:17 0.0256123
6 *742:15 0.0256123
7 *742:13 0.0073958
8 *742:11 0.0073958
9 *742:9 0.0123582
10 *742:7 0.0124114
11 *984:IPCAP1OFFSET *984:SUMCAPIN[3] 3.10151e-05
12 *984:IPCAP1OFFSET *984:bw[3] 2.98576e-05
13 *984:IPCAP1OFFSET *984:RESCAP[2] 0.000318014
14 *984:IPCAP1OFFSET *984:RESCAP[0] 0.000131981
15 *984:IPCAP1OFFSET *747:31 0.00146463
16 *984:IPCAP1OFFSET *756:75 0.000201965
17 *984:IPCAP1OFFSET *787:21 1.07719e-05
18 *742:13 *743:13 0.000285775
19 *742:13 *745:13 0.0211789
20 *742:13 *781:13 0.00598398
21 *742:21 *984:bw[3] 0.00014285
22 *742:21 *821:29 0.0290453
23 *742:21 *823:21 0.0378602
24 *984:refsel[14] *984:IPCAP1OFFSET 0.000730145
25 *984:refsel[8] *984:IPCAP1OFFSET 9.59008e-05
26 *984:refsel[1] *984:IPCAP1OFFSET 0.000100247
27 *984:FCAP1[1] *984:IPCAP1OFFSET 0.000216969
28 *20:59 *984:IPCAP1OFFSET 7.03036e-05
29 *655:53 *742:17 0.0114573
30 *697:17 *984:IPCAP1OFFSET 8.38112e-05
31 *700:21 *984:IPCAP1OFFSET 0.00100533
32 *707:21 *984:IPCAP1OFFSET 2.01929e-05
33 *714:21 *984:IPCAP1OFFSET 0.000434281
34 *717:21 *742:21 0.000257377
35 *738:13 *742:13 0.000397675
36 *738:17 *742:17 0
37 *738:21 *742:21 8.50254e-05
38 *738:35 *984:IPCAP1OFFSET 6.28248e-05
*RES
1 *988:analog_ctrl[164] *742:7 1.08036 
2 *742:7 *742:9 247.991 
3 *742:9 *742:11 4.5 
4 *742:11 *742:13 216.982 
5 *742:13 *742:15 4.5 
6 *742:15 *742:17 575.089 
7 *742:17 *742:19 4.5 
8 *742:19 *742:21 661.375 
9 *742:21 *984:IPCAP1OFFSET 29.6065 
*END

*D_NET *743 0.295162
*CONN
*I *984:IPCAP2[0] I *D CF_ADC_DSM20
*I *988:analog_ctrl[165] O *D soc_sys
*CAP
1 *984:IPCAP2[0] 0.000860413
2 *988:analog_ctrl[165] 5.31893e-05
3 *743:21 0.0224541
4 *743:19 0.0215937
5 *743:17 0.0192296
6 *743:15 0.0192296
7 *743:13 0.00326337
8 *743:11 0.00326337
9 *743:9 0.0124021
10 *743:7 0.0124553
11 *984:IPCAP2[0] *984:SUMCAP1[2] 0.00116439
12 *984:IPCAP2[0] *984:IPCAP3[1] 0
13 *984:IPCAP2[0] *984:IPCAP2[2] 0.000749837
14 *984:IPCAP2[0] *984:IPCAP2[1] 7.36323e-05
15 *984:IPCAP2[0] *984:DACCAP[5] 0
16 *984:IPCAP2[0] *747:31 1.33107e-05
17 *743:13 *745:13 0.0216589
18 *743:13 *797:13 0.00314746
19 *743:21 *749:29 0.0158648
20 *984:FCAP3[3] *984:IPCAP2[0] 6.22816e-05
21 *984:FCAP3[2] *984:IPCAP2[0] 1.96438e-06
22 *984:FCAP2[3] *984:IPCAP2[0] 6.2589e-06
23 *19:23 *743:17 0
24 *689:17 *743:17 0
25 *701:21 *743:17 0
26 *708:17 *743:17 0
27 *713:21 *743:21 0.0698303
28 *727:17 *743:17 0.0470784
29 *727:21 *743:21 0
30 *737:13 *743:21 0.000638375
31 *738:13 *743:13 0.0197813
32 *742:13 *743:13 0.000285775
*RES
1 *988:analog_ctrl[165] *743:7 1.08036 
2 *743:7 *743:9 248.598 
3 *743:9 *743:11 4.5 
4 *743:11 *743:13 209.179 
5 *743:13 *743:15 4.5 
6 *743:15 *743:17 591.786 
7 *743:17 *743:19 4.5 
8 *743:19 *743:21 667.125 
9 *743:21 *984:IPCAP2[0] 28.9018 
*END

*D_NET *744 0.307983
*CONN
*I *984:IPCAP2[1] I *D CF_ADC_DSM20
*I *988:analog_ctrl[166] O *D soc_sys
*CAP
1 *984:IPCAP2[1] 0.00012418
2 *988:analog_ctrl[166] 5.31893e-05
3 *744:25 0.00423259
4 *744:17 0.0130774
5 *744:15 0.00896903
6 *744:13 0.0261412
7 *744:11 0.0261412
8 *744:9 0.0133921
9 *744:7 0.0134453
10 *984:IPCAP2[1] *984:IPCAP3[2] 3.13904e-05
11 *984:IPCAP2[1] *984:IPCAP2[2] 0.000102063
12 *744:13 *749:15 0.000826052
13 *744:13 *817:13 0.0135592
14 *744:17 *789:25 0
15 *744:25 *984:DACCAPEN 0.000190739
16 *744:25 *746:27 0.0229035
17 *744:25 *747:31 0.000695308
18 *744:25 *787:21 0.00585335
19 *984:IPCAP2[0] *984:IPCAP2[1] 7.36323e-05
20 *984:FCAP3[3] *984:IPCAP2[1] 4.1307e-05
21 *984:FCAP3[3] *744:25 6.83553e-05
22 *984:FCAP3[2] *744:25 6.64121e-05
23 *984:FCAP3[1] *984:IPCAP2[1] 4.53458e-05
24 *984:FCAP2[3] *744:25 1.17749e-05
25 *984:IPCAP1[5] *744:25 0.000993032
26 *20:59 *744:25 8.60326e-05
27 *69:37 *744:13 0.0318557
28 *70:33 *744:13 0.00691571
29 *661:17 *744:25 0.0150333
30 *661:23 *744:13 0.00723288
31 *662:19 *744:17 0.000142809
32 *664:27 *744:17 0.0442791
33 *665:23 *744:25 0.00256332
34 *668:21 *744:17 8.62671e-05
35 *734:17 *744:17 0.0443255
36 *739:17 *744:17 2.2355e-05
37 *740:27 *744:25 2.24813e-05
38 *741:29 *744:25 0.00437946
*RES
1 *988:analog_ctrl[166] *744:7 1.08036 
2 *744:7 *744:9 266.812 
3 *744:9 *744:11 4.5 
4 *744:11 *744:13 670.411 
5 *744:13 *744:15 4.5 
6 *744:15 *744:17 557.938 
7 *744:17 *744:25 45.5139 
8 *744:25 *984:IPCAP2[1] 7.91071 
*END

*D_NET *745 0.32643
*CONN
*I *984:IPCAP2[2] I *D CF_ADC_DSM20
*I *988:analog_ctrl[167] O *D soc_sys
*CAP
1 *984:IPCAP2[2] 0.00041614
2 *988:analog_ctrl[167] 5.31893e-05
3 *745:21 0.0123415
4 *745:19 0.0119254
5 *745:17 0.00803074
6 *745:15 0.00803074
7 *745:13 0.00330753
8 *745:11 0.00330753
9 *745:9 0.0123771
10 *745:7 0.0124303
11 *984:IPCAP2[2] *984:SUMCAP1[2] 4.35667e-05
12 *984:IPCAP2[2] *984:IPCAP3[2] 0.000667618
13 *984:IPCAP2[2] *984:IPCAP3[0] 5.80348e-05
14 *745:13 *781:13 0.00521616
15 *745:21 *786:21 0.000835169
16 *984:IPCAP2[1] *984:IPCAP2[2] 0.000102063
17 *984:IPCAP2[0] *984:IPCAP2[2] 0.000749837
18 *984:FCAP3[3] *984:IPCAP2[2] 3.44107e-05
19 *14:35 *745:21 0
20 *694:9 *745:17 0.00055686
21 *708:17 *745:17 6.56312e-06
22 *710:17 *745:17 2.50489e-05
23 *712:17 *745:17 0.0464707
24 *719:21 *745:21 0.070048
25 *724:21 *745:21 0.0148242
26 *729:17 *745:17 0.04657
27 *731:21 *745:21 0.0251637
28 *742:13 *745:13 0.0211789
29 *743:13 *745:13 0.0216589
*RES
1 *988:analog_ctrl[167] *745:7 1.08036 
2 *745:7 *745:9 248.295 
3 *745:9 *745:11 4.5 
4 *745:11 *745:13 213.286 
5 *745:13 *745:15 4.5 
6 *745:15 *745:17 585.107 
7 *745:17 *745:19 4.5 
8 *745:19 *745:21 662.607 
9 *745:21 *984:IPCAP2[2] 21.3125 
*END

*D_NET *746 0.364968
*CONN
*I *984:IPCAP2EN I *D CF_ADC_DSM20
*I *988:analog_ctrl[168] O *D soc_sys
*CAP
1 *984:IPCAP2EN 1.42217e-05
2 *988:analog_ctrl[168] 5.31893e-05
3 *746:27 0.00417984
4 *746:17 0.0125342
5 *746:15 0.00836863
6 *746:13 0.00887116
7 *746:11 0.00887116
8 *746:9 0.0127698
9 *746:7 0.012823
10 *984:IPCAP2EN *984:RESCAP[1] 5.65143e-05
11 *984:IPCAP2EN *984:IPCAP3EN 5.77863e-05
12 *746:13 *747:13 0.0696585
13 *746:13 *816:13 0.00593156
14 *746:17 *763:17 0.0464031
15 *746:17 *784:25 0.00788017
16 *746:17 *810:17 0.00582403
17 *746:17 *818:17 0.0262037
18 *746:27 *984:RESCAPEN 2.2355e-05
19 *746:27 *984:RESCAP[0] 4.00349e-05
20 *746:27 *984:IPCAP3EN 0.000158176
21 *746:27 *747:31 0.0227469
22 *746:27 *761:27 0.000782404
23 *746:27 *767:21 0.00458307
24 *746:27 *787:21 0.000150767
25 *746:27 *788:21 0.00425019
26 *984:IPCAP1EN *746:27 1.21859e-05
27 *984:FCAP3EN *746:27 2.90614e-05
28 *984:FCAP2EN *746:27 2.15178e-05
29 *34:17 *746:13 0.000472484
30 *35:13 *746:13 0.0068827
31 *38:17 *746:13 0.000775265
32 *661:17 *746:27 0.000392993
33 *734:13 *746:13 2.12005e-05
34 *739:13 *746:13 0.0702226
35 *744:25 *746:27 0.0229035
*RES
1 *988:analog_ctrl[168] *746:7 1.08036 
2 *746:7 *746:9 255.277 
3 *746:9 *746:11 4.5 
4 *746:11 *746:13 674.107 
5 *746:13 *746:15 4.5 
6 *746:15 *746:17 570.08 
7 *746:17 *746:27 47.5228 
8 *746:27 *984:IPCAP2EN 5.16964 
*END

*D_NET *747 0.350765
*CONN
*I *984:IPCAP3[0] I *D CF_ADC_DSM20
*I *988:analog_ctrl[169] O *D soc_sys
*CAP
1 *984:IPCAP3[0] 1.41419e-05
2 *988:analog_ctrl[169] 5.31893e-05
3 *747:31 0.00436227
4 *747:17 0.0136416
5 *747:15 0.00929346
6 *747:13 0.0116874
7 *747:11 0.0116874
8 *747:9 0.0127911
9 *747:7 0.0128443
10 *984:IPCAP3[0] *984:SUMCAP1[2] 5.80348e-05
11 *747:13 *777:13 0.00867377
12 *747:13 *816:13 0.0068234
13 *747:17 *750:13 8.34149e-05
14 *747:31 *984:SUMCAP1_EN 0.000118866
15 *747:31 *984:SUMCAP1[0] 1.94945e-05
16 *747:31 *984:SUMCAP1[2] 2.15178e-05
17 *747:31 *984:DACCAPEN 0
18 *747:31 *756:75 0.000450061
19 *747:31 *761:27 0.0220643
20 *747:31 *769:21 0.00442049
21 *747:31 *773:21 0.00409943
22 *984:IPCAP2[2] *984:IPCAP3[0] 5.80348e-05
23 *984:IPCAP2[0] *747:31 1.33107e-05
24 *984:IPCAP1OFFSET *747:31 0.00146463
25 *20:59 *747:31 0.000137698
26 *35:13 *747:13 0.00742175
27 *38:17 *747:13 0.0344597
28 *666:19 *747:17 0.0453847
29 *668:21 *747:17 0.0454599
30 *739:17 *747:17 5.70517e-05
31 *744:25 *747:31 0.000695308
32 *746:13 *747:13 0.0696585
33 *746:27 *747:31 0.0227469
*RES
1 *988:analog_ctrl[169] *747:7 1.08036 
2 *747:7 *747:9 255.58 
3 *747:9 *747:11 4.5 
4 *747:11 *747:13 655.214 
5 *747:13 *747:15 4.5 
6 *747:15 *747:17 570.384 
7 *747:17 *747:31 47.8312 
8 *747:31 *984:IPCAP3[0] 5.16964 
*END

*D_NET *748 0.417904
*CONN
*I *984:EN_ADWA I *D CF_ADC_DSM20
*I *988:analog_ctrl[16] O *D soc_sys
*CAP
1 *984:EN_ADWA 0.00113042
2 *988:analog_ctrl[16] 3.95317e-05
3 *748:25 0.0277695
4 *748:23 0.0266391
5 *748:21 0.0194282
6 *748:19 0.0196655
7 *748:9 0.0191838
8 *748:7 0.018986
9 *984:EN_ADWA *984:EN_DWA 0.000550694
10 *984:EN_ADWA *984:SCANINPUT 0
11 *984:EN_ADWA *984:SCANCLK 0
12 *984:EN_ADWA *984:SCANEN 0.000419995
13 *748:9 *792:15 0.0180849
14 *748:9 *828:13 0.00012589
15 *748:9 *829:13 0.00881526
16 *748:9 *866:13 0.00205079
17 *748:9 *867:15 0.00152432
18 *748:9 *868:11 0.00189636
19 *748:19 *828:23 0.000249864
20 *748:19 *829:23 0.000408105
21 *748:21 *824:17 0.037531
22 *748:21 *828:25 0.0700602
23 *748:21 *829:25 2.33124e-05
24 *748:25 *749:29 0.000198681
25 *748:25 *828:29 0
26 *80:13 *748:25 0
27 *671:21 *748:9 0
28 *673:17 *748:21 0.0116198
29 *687:11 *748:19 0.000138403
30 *687:13 *748:21 0.00453927
31 *709:21 *748:25 0.0146734
32 *711:33 *748:25 0.0199325
33 *712:21 *748:25 0.000267556
34 *716:45 *748:25 0.0767032
35 *727:21 *748:25 0.0152482
36 *732:33 *748:25 0
*RES
1 *988:analog_ctrl[16] *748:7 5.19643 
2 *748:7 *748:9 442.161 
3 *748:9 *748:19 15.6109 
4 *748:19 *748:21 147.276 
5 *748:21 *748:23 3.41 
6 *748:23 *748:25 148.324 
7 *748:25 *984:EN_ADWA 31.0529 
*END

*D_NET *749 0.351274
*CONN
*I *984:IPCAP3[1] I *D CF_ADC_DSM20
*I *988:analog_ctrl[170] O *D soc_sys
*CAP
1 *984:IPCAP3[1] 0.000813022
2 *988:analog_ctrl[170] 5.31893e-05
3 *749:29 0.0128137
4 *749:27 0.0120007
5 *749:25 0.012315
6 *749:23 0.016143
7 *749:15 0.0119776
8 *749:9 0.0215361
9 *749:7 0.0134398
10 *984:IPCAP3[1] *984:SUMCAP2[0] 0.000305883
11 *984:IPCAP3[1] *984:SUMCAP1_EN 0.000262634
12 *984:IPCAP3[1] *984:SUMCAP1[1] 0.000647241
13 *984:IPCAP3[1] *984:SUMCAP1[2] 0
14 *749:15 *817:13 0.0231941
15 *984:IPCAP2[0] *984:IPCAP3[1] 0
16 *984:FCAP3[1] *984:IPCAP3[1] 0.000274471
17 *984:iinc *749:23 0
18 *984:iin *749:23 3.58143e-06
19 *984:iin *749:25 0.000417935
20 *984:itrim_2_3[2] *749:23 3.2906e-05
21 *984:itrim_2_3[3] *749:23 1.48677e-06
22 *984:itrim_2_3[3] *749:25 0.000360771
23 *80:13 *749:29 0.0357865
24 *655:30 *749:25 0.00512438
25 *656:63 *749:25 0.000177599
26 *656:65 *749:15 0
27 *670:31 *749:25 0.00339912
28 *695:17 *749:29 0.0210811
29 *697:13 *749:23 0.0115685
30 *698:17 *749:23 0.00423595
31 *711:33 *749:29 0.0720301
32 *713:21 *749:29 0.0147047
33 *732:29 *749:25 0.00279881
34 *732:33 *749:29 2.70433e-05
35 *733:17 *749:25 0.0364046
36 *737:13 *749:29 0.000452321
37 *743:21 *749:29 0.0158648
38 *744:13 *749:15 0.000826052
39 *748:25 *749:29 0.000198681
*RES
1 *988:analog_ctrl[170] *749:7 1.08036 
2 *749:7 *749:9 266.661 
3 *749:9 *749:15 43.7291 
4 *749:15 *749:23 32.3567 
5 *749:23 *749:25 76.3249 
6 *749:25 *749:27 3.41 
7 *749:27 *749:29 114.092 
8 *749:29 *984:IPCAP3[1] 26.2493 
*END

*D_NET *750 0.295355
*CONN
*I *984:IPCAP3[2] I *D CF_ADC_DSM20
*I *988:analog_ctrl[171] O *D soc_sys
*CAP
1 *984:IPCAP3[2] 0.000460343
2 *988:analog_ctrl[171] 4.05471e-05
3 *750:17 0.00346394
4 *750:15 0.0030036
5 *750:13 0.0320084
6 *750:11 0.0320084
7 *750:9 0.0217021
8 *750:7 0.0217426
9 *984:IPCAP3[2] *984:SUMCAP1[0] 0.000173893
10 *984:IPCAP3[2] *984:SUMCAP1[2] 0.000128265
11 *750:9 *754:13 0.00104476
12 *750:9 *758:9 0.0647051
13 *750:9 *790:29 0.000214301
14 *750:13 *771:33 0
15 *750:13 *784:17 0
16 *750:13 *785:33 0.000902581
17 *750:13 *789:25 0
18 *750:13 *813:17 0
19 *750:17 *751:21 0.0211703
20 *750:17 *753:23 0.000104613
21 *750:17 *754:21 9.64659e-05
22 *750:17 *755:39 0.00454244
23 *750:17 *762:25 4.35597e-05
24 *750:17 *764:29 0.000306096
25 *750:17 *786:21 0.0219643
26 *984:IPCAP2[2] *984:IPCAP3[2] 0.000667618
27 *984:IPCAP2[1] *984:IPCAP3[2] 3.13904e-05
28 *984:FCAP3[3] *984:IPCAP3[2] 0.000608394
29 *984:FCAP3[1] *984:IPCAP3[2] 0.00014531
30 *20:45 *750:13 0.000311983
31 *658:15 *750:13 0
32 *666:19 *750:13 0.0453824
33 *668:21 *750:13 3.96457e-05
34 *719:21 *750:17 0.00052257
35 *740:9 *750:9 0.0177361
36 *747:17 *750:13 8.34149e-05
*RES
1 *988:analog_ctrl[171] *750:7 5.19643 
2 *750:7 *750:9 645.464 
3 *750:9 *750:11 4.5 
4 *750:11 *750:13 833.125 
5 *750:13 *750:15 4.5 
6 *750:15 *750:17 213.696 
7 *750:17 *984:IPCAP3[2] 22.3393 
*END

*D_NET *751 0.360285
*CONN
*I *984:IPCAP3EN I *D CF_ADC_DSM20
*I *988:analog_ctrl[172] O *D soc_sys
*CAP
1 *984:IPCAP3EN 0.000450352
2 *988:analog_ctrl[172] 6.01612e-05
3 *751:21 0.00340123
4 *751:19 0.00295087
5 *751:17 0.00803705
6 *751:15 0.00803705
7 *751:13 0.0124252
8 *751:11 0.0124252
9 *751:9 0.012386
10 *751:7 0.0124462
11 *984:IPCAP3EN *984:RESCAPEN 0.000276486
12 *984:IPCAP3EN *984:RESCAP[2] 0.0002304
13 *984:IPCAP3EN *984:RESCAP[0] 0.000407287
14 *984:IPCAP3EN *984:RESCAP[1] 2.73554e-05
15 *751:13 *761:13 0.0651922
16 *751:13 *786:13 0.0526697
17 *751:13 *809:13 0.0113641
18 *751:17 *761:17 0.0474906
19 *751:17 *762:21 0.000307517
20 *751:17 *763:17 8.51637e-06
21 *751:17 *784:25 0
22 *751:17 *788:17 0.047433
23 *751:17 *791:23 0.00132238
24 *751:17 *805:37 0.00528252
25 *751:21 *753:23 0.000189146
26 *751:21 *755:39 0.00413852
27 *751:21 *762:25 0.0225119
28 *751:21 *764:29 0.000516565
29 *984:IPCAP2EN *984:IPCAP3EN 5.77863e-05
30 *31:13 *751:13 0.00691095
31 *746:27 *984:IPCAP3EN 0.000158176
32 *750:17 *751:21 0.0211703
*RES
1 *988:analog_ctrl[172] *751:7 1.08036 
2 *751:7 *751:9 241.92 
3 *751:9 *751:11 4.5 
4 *751:11 *751:13 654.393 
5 *751:13 *751:15 4.5 
6 *751:15 *751:17 591.482 
7 *751:17 *751:19 4.5 
8 *751:19 *751:21 214.107 
9 *751:21 *984:IPCAP3EN 20.5804 
*END

*D_NET *752 0.352952
*CONN
*I *984:DACCAP[0] I *D CF_ADC_DSM20
*I *988:analog_ctrl[173] O *D soc_sys
*CAP
1 *984:DACCAP[0] 0.000337499
2 *988:analog_ctrl[173] 5.85943e-05
3 *752:31 0.00391659
4 *752:25 0.0143923
5 *752:23 0.0108132
6 *752:21 0.0190164
7 *752:19 0.0193929
8 *752:9 0.0137701
9 *752:7 0.0134522
10 *984:DACCAP[0] *984:DACCAP[4] 2.45053e-05
11 *984:DACCAP[0] *984:DACCAP[3] 8.31031e-05
12 *984:DACCAP[0] *984:DACCAP[1] 0.000667804
13 *984:DACCAP[0] *984:DACCAP[2] 0.000601812
14 *752:19 *817:13 0.000367111
15 *752:21 *756:21 0
16 *752:21 *817:13 0.0368099
17 *752:25 *753:17 0.0470615
18 *752:31 *753:23 0.0242692
19 *752:31 *772:21 0.00466436
20 *752:31 *774:21 0.00432559
21 *984:IPCAP1[3] *984:DACCAP[0] 0
22 *984:FCAP1[4] *984:DACCAP[0] 4.18808e-05
23 *70:33 *752:21 0.00028634
24 *649:14 *752:21 0.052995
25 *656:65 *752:19 0
26 *657:14 *752:31 0.0243558
27 *659:18 *752:25 0.00574845
28 *665:27 *752:25 0.00944881
29 *741:17 *752:25 0.0460508
*RES
1 *988:analog_ctrl[173] *752:7 1.08036 
2 *752:7 *752:9 266.661 
3 *752:9 *752:19 11.1841 
4 *752:19 *752:21 112.471 
5 *752:21 *752:23 3.41 
6 *752:23 *752:25 98.8034 
7 *752:25 *752:31 44.666 
8 *752:31 *984:DACCAP[0] 14.7768 
*END

*D_NET *753 0.375376
*CONN
*I *984:DACCAP[1] I *D CF_ADC_DSM20
*I *988:analog_ctrl[174] O *D soc_sys
*CAP
1 *984:DACCAP[1] 0.000376197
2 *988:analog_ctrl[174] 5.85943e-05
3 *753:23 0.00477126
4 *753:17 0.0164275
5 *753:15 0.0120324
6 *753:13 0.0152334
7 *753:11 0.0152334
8 *753:9 0.0121876
9 *753:7 0.0122462
10 *984:DACCAP[1] *984:DACCAPEN 0.000194692
11 *984:DACCAP[1] *984:DACCAP[5] 7.06358e-06
12 *984:DACCAP[1] *984:DACCAP[3] 0.00021916
13 *984:DACCAP[1] *984:DACCAP[2] 0.000116284
14 *753:13 *791:21 0.00855982
15 *753:13 *792:39 0.00997062
16 *753:13 *820:13 0.026299
17 *753:13 *875:13 0.0716259
18 *753:23 *754:21 0.000141354
19 *753:23 *755:39 0.0221335
20 *753:23 *760:25 0.000141354
21 *753:23 *762:25 0.000145107
22 *753:23 *764:29 0.00483027
23 *753:23 *789:29 0.00432559
24 *984:DACCAP[0] *984:DACCAP[1] 0.000667804
25 *984:IPCAP1[4] *984:DACCAP[1] 0
26 *647:13 *753:17 0.00897495
27 *648:13 *753:17 0.0081337
28 *657:14 *753:23 2.24813e-05
29 *715:45 *753:17 0.000317088
30 *740:13 *753:17 0.0478864
31 *741:17 *753:17 0.00047272
32 *750:17 *753:23 0.000104613
33 *751:21 *753:23 0.000189146
34 *752:25 *753:17 0.0470615
35 *752:31 *753:23 0.0242692
*RES
1 *988:analog_ctrl[174] *753:7 1.08036 
2 *753:7 *753:9 244.804 
3 *753:9 *753:11 3.41 
4 *753:11 *753:13 112.075 
5 *753:13 *753:15 3.41 
6 *753:15 *753:17 103.065 
7 *753:17 *753:23 44.5939 
8 *753:23 *984:DACCAP[1] 14.7679 
*END

*D_NET *754 0.331854
*CONN
*I *984:DACCAP[2] I *D CF_ADC_DSM20
*I *988:analog_ctrl[175] O *D soc_sys
*CAP
1 *984:DACCAP[2] 0.000495967
2 *988:analog_ctrl[175] 9.49073e-05
3 *754:21 0.00348137
4 *754:19 0.0029854
5 *754:17 0.021782
6 *754:15 0.021782
7 *754:13 0.00844882
8 *754:11 0.00854373
9 *984:DACCAP[2] *984:DACCAP[3] 0
10 *754:13 *758:9 0.0658832
11 *754:13 *760:13 0.0653942
12 *754:13 *790:29 0.000913786
13 *754:17 *756:25 0.0228314
14 *754:17 *760:19 0
15 *754:17 *760:21 0.0259872
16 *754:17 *791:23 0.00614641
17 *754:17 *805:35 3.5686e-05
18 *754:21 *755:39 0.00271931
19 *754:21 *757:45 0.000377944
20 *754:21 *760:25 0.0222589
21 *754:21 *762:25 0.0224301
22 *984:DACCAP[0] *984:DACCAP[2] 0.000601812
23 *984:DACCAP[1] *984:DACCAP[2] 0.000116284
24 *984:IPCAP1[6] *984:DACCAP[2] 5.85357e-05
25 *984:IPCAP1[5] *984:DACCAP[2] 9.70677e-05
26 *984:IPCAP1[3] *984:DACCAP[2] 0.000336502
27 *984:FCAP1[4] *984:DACCAP[2] 1.30607e-05
28 *646:14 *754:17 0
29 *647:13 *754:17 0
30 *649:10 *754:17 0.00910194
31 *650:13 *754:17 4.94506e-05
32 *661:19 *754:17 0
33 *663:27 *754:17 0
34 *665:27 *754:17 0
35 *671:29 *754:13 0.000130965
36 *715:45 *754:17 0.0025439
37 *719:21 *754:21 0.000349628
38 *736:17 *754:21 9.67754e-05
39 *740:9 *754:13 0.0144834
40 *750:9 *754:13 0.00104476
41 *750:17 *754:21 9.64659e-05
42 *753:23 *754:21 0.000141354
*RES
1 *988:analog_ctrl[175] *754:11 6.16071 
2 *754:11 *754:13 638.375 
3 *754:13 *754:15 4.5 
4 *754:15 *754:17 833.429 
5 *754:17 *754:19 4.5 
6 *754:19 *754:21 218.625 
7 *754:21 *984:DACCAP[2] 21.5 
*END

*D_NET *755 0.399431
*CONN
*I *984:DACCAP[3] I *D CF_ADC_DSM20
*I *988:analog_ctrl[176] O *D soc_sys
*CAP
1 *984:DACCAP[3] 0.000531753
2 *988:analog_ctrl[176] 0.000108643
3 *755:39 0.0094729
4 *755:33 0.0241366
5 *755:31 0.0163022
6 *755:25 0.00957361
7 *755:23 0.00954326
8 *755:17 0.0175836
9 *755:15 0.0165072
10 *755:13 0.0127573
11 *755:11 0.0128659
12 *984:DACCAP[3] *984:DACCAPEN 0.000318245
13 *984:DACCAP[3] *984:DACCAP[5] 0.000204848
14 *984:DACCAP[3] *984:DACCAP[4] 0.000136006
15 *755:13 *760:13 0.00807011
16 *755:13 *762:13 0.0132742
17 *755:13 *764:15 0.0053637
18 *755:13 *771:19 0.000432068
19 *755:17 *771:25 0
20 *755:23 *770:43 0.00433807
21 *755:25 *757:25 0.0225789
22 *755:25 *877:17 0.004951
23 *755:33 *984:ODET_TH[2] 0.000109425
24 *755:33 *984:RESET1 0
25 *755:33 *984:dig_test_sel[1] 0
26 *755:33 *756:47 0.00270303
27 *755:33 *756:51 0.000624756
28 *755:33 *756:61 0.000579282
29 *755:33 *757:41 0.00392311
30 *755:33 *780:17 0.00185864
31 *755:33 *785:49 0.00446082
32 *755:33 *786:17 0.00116944
33 *755:33 *793:17 0
34 *755:33 *798:17 0.00183765
35 *755:39 *757:45 0.001939
36 *755:39 *760:25 0.00199049
37 *755:39 *762:25 0.00350908
38 *755:39 *786:21 0.00421252
39 *984:DACCAP[0] *984:DACCAP[3] 8.31031e-05
40 *984:DACCAP[1] *984:DACCAP[3] 0.00021916
41 *984:DACCAP[2] *984:DACCAP[3] 0
42 *984:vgnde_vnb *755:33 0.000489141
43 *15:35 *755:33 0.00129092
44 *15:37 *755:33 0.00057713
45 *15:45 *755:33 0
46 *18:75 *755:33 0.000628494
47 *19:53 *755:33 0.00147865
48 *20:47 *755:33 0.00117704
49 *20:59 *984:DACCAP[3] 5.27479e-05
50 *647:17 *755:13 0.0501966
51 *651:10 *755:33 0.000217088
52 *652:13 *755:33 0.000448033
53 *653:15 *755:33 0.00284726
54 *653:21 *755:31 0.000273892
55 *654:13 *755:33 0.000554337
56 *655:57 *755:23 0.0043358
57 *657:14 *755:39 3.20942e-05
58 *667:19 *755:25 0
59 *671:29 *755:13 0.00520492
60 *704:17 *755:33 0.0118886
61 *720:37 *755:39 0
62 *740:9 *755:13 0.0658998
63 *740:27 *984:DACCAP[3] 3.48321e-05
64 *750:17 *755:39 0.00454244
65 *751:21 *755:39 0.00413852
66 *753:23 *755:39 0.0221335
67 *754:21 *755:39 0.00271931
*RES
1 *988:analog_ctrl[176] *755:11 5.2225 
2 *755:11 *755:13 103.138 
3 *755:13 *755:15 3.41 
4 *755:15 *755:17 48.2001 
5 *755:17 *755:23 13.8214 
6 *755:23 *755:25 276.982 
7 *755:25 *755:31 8.9209 
8 *755:31 *755:33 49.2654 
9 *755:33 *755:39 42.2878 
10 *755:39 *984:DACCAP[3] 22.3896 
*END

*D_NET *756 0.314319
*CONN
*I *984:DACCAP[4] I *D CF_ADC_DSM20
*I *988:analog_ctrl[177] O *D soc_sys
*CAP
1 *984:DACCAP[4] 0.000329785
2 *988:analog_ctrl[177] 0.000396378
3 *756:75 0.00764649
4 *756:61 0.00808035
5 *756:57 0.000818654
6 *756:51 0.000906683
7 *756:49 0.000877888
8 *756:47 0.00227685
9 *756:45 0.00288066
10 *756:35 0.00150872
11 *756:25 0.00440852
12 *756:23 0.00352982
13 *756:21 0.0199733
14 *756:19 0.0199733
15 *756:17 0.0156307
16 *756:15 0.016027
17 *984:DACCAP[4] *984:DACCAP[5] 8.45222e-05
18 *984:DACCAP[4] *787:21 0.000303483
19 *756:17 *757:17 0
20 *756:21 *757:21 0.070312
21 *756:21 *764:21 0.000319442
22 *756:35 *757:39 0.00059044
23 *756:35 *785:33 0.00137723
24 *756:35 *817:17 0.000250403
25 *756:45 *984:ODET_TH[4] 6.06291e-05
26 *756:45 *984:ODET_TH[2] 2.78856e-05
27 *756:45 *984:BUF_CHOP_EN 0
28 *756:45 *757:39 0.000300131
29 *756:45 *757:41 0.000599735
30 *756:45 *785:47 0
31 *756:47 *757:41 1.53472e-05
32 *756:47 *785:49 0.0124363
33 *756:51 *785:49 0.00235479
34 *756:75 *761:27 0.0210295
35 *756:75 *771:37 0.00280298
36 *756:75 *775:21 0.00191238
37 *756:75 *784:29 0.00165172
38 *756:75 *787:21 6.06291e-06
39 *756:75 *788:31 0.000128707
40 *984:FCAP2[0] *984:DACCAP[4] 3.4795e-05
41 *984:DACCAP[3] *984:DACCAP[4] 0.000136006
42 *984:DACCAP[0] *984:DACCAP[4] 2.45053e-05
43 *984:IPCAP1[0] *756:75 0.000221034
44 *984:FCAP1[4] *984:DACCAP[4] 0.000508167
45 *984:FCAP1[4] *756:75 3.22862e-06
46 *984:FCAP1[6] *984:DACCAP[4] 1.59935e-05
47 *984:FCAP1[2] *756:75 4.32918e-05
48 *984:IPCAP1OFFSET *756:75 0.000201965
49 *984:vgnde_vnb *756:47 0.000895818
50 *984:enable_hv *756:47 2.21649e-05
51 *15:27 *756:45 0.000543693
52 *15:27 *756:47 0.000436374
53 *15:31 *756:47 0.000840236
54 *15:35 *756:47 0.00351201
55 *15:37 *756:47 0.00253532
56 *18:71 *756:75 0.00417482
57 *18:75 *756:61 0.00337387
58 *19:53 *756:47 0.000369163
59 *19:53 *756:51 0.00425485
60 *19:53 *756:61 0.00311502
61 *20:45 *756:35 0.00106229
62 *108:13 *756:15 1.30843e-05
63 *649:10 *756:25 0.0228314
64 *649:14 *756:21 0
65 *650:17 *756:21 0.00775084
66 *655:57 *756:21 8.92305e-05
67 *657:14 *756:75 0
68 *658:15 *756:35 0.000926632
69 *668:17 *756:75 0.00255374
70 *671:29 *756:15 2.61244e-05
71 *714:21 *756:75 3.70515e-05
72 *715:45 *756:25 0.00474946
73 *747:31 *756:75 0.000450061
74 *752:21 *756:21 0
75 *754:17 *756:25 0.0228314
76 *755:33 *756:47 0.00270303
77 *755:33 *756:51 0.000624756
78 *755:33 *756:61 0.000579282
*RES
1 *988:analog_ctrl[177] *756:15 12.4305 
2 *756:15 *756:17 47.1347 
3 *756:17 *756:19 3.41 
4 *756:19 *756:21 110.273 
5 *756:21 *756:23 3.41 
6 *756:23 *756:25 280.17 
7 *756:25 *756:35 43.9821 
8 *756:35 *756:45 19.6161 
9 *756:45 *756:47 153.179 
10 *756:47 *756:49 0.535714 
11 *756:49 *756:51 52.4375 
12 *756:51 *756:57 10.0357 
13 *756:57 *756:61 45.5796 
14 *756:61 *756:75 46.0095 
15 *756:75 *984:DACCAP[4] 18.1161 
*END

*D_NET *757 0.336232
*CONN
*I *984:DACCAP[5] I *D CF_ADC_DSM20
*I *988:analog_ctrl[178] O *D soc_sys
*CAP
1 *984:DACCAP[5] 0.000600004
2 *988:analog_ctrl[178] 0.000377981
3 *757:45 0.00694072
4 *757:43 0.00634071
5 *757:41 0.00521425
6 *757:39 0.00619417
7 *757:25 0.00458214
8 *757:23 0.00360221
9 *757:21 0.00816596
10 *757:19 0.00816596
11 *757:17 0.0156825
12 *757:15 0.0160604
13 *984:DACCAP[5] *984:DACCAPEN 9.52998e-05
14 *757:21 *764:21 0.0617834
15 *757:25 *877:17 0.004951
16 *757:39 *984:ODET_TH[4] 9.94194e-05
17 *757:39 *984:ODET_TH[2] 9.41642e-05
18 *757:39 *804:17 0.000164129
19 *757:41 *780:17 0
20 *757:41 *785:49 0.0206722
21 *757:45 *759:13 0
22 *757:45 *760:25 0.0203087
23 *757:45 *785:53 0
24 *984:IPCAP2[0] *984:DACCAP[5] 0
25 *984:FCAP3[0] *984:DACCAP[5] 0
26 *984:FCAP2[2] *984:DACCAP[5] 9.65999e-06
27 *984:FCAP2[1] *984:DACCAP[5] 4.66861e-05
28 *984:FCAP2[0] *984:DACCAP[5] 0.000649158
29 *984:DACCAP[4] *984:DACCAP[5] 8.45222e-05
30 *984:DACCAP[3] *984:DACCAP[5] 0.000204848
31 *984:DACCAP[1] *984:DACCAP[5] 7.06358e-06
32 *984:IPCAP1[6] *984:DACCAP[5] 0
33 *108:13 *757:15 5.00695e-06
34 *651:10 *757:41 0.000273274
35 *652:13 *757:39 0.00141901
36 *653:15 *757:41 0.0144488
37 *654:13 *757:39 0.00142072
38 *655:57 *757:21 0.00246672
39 *660:14 *757:25 0.0227972
40 *667:19 *757:25 0
41 *671:29 *757:15 1.25167e-05
42 *721:21 *757:45 0.00125411
43 *736:17 *757:45 0.00040105
44 *754:21 *757:45 0.000377944
45 *755:25 *757:25 0.0225789
46 *755:33 *757:41 0.00392311
47 *755:39 *757:45 0.001939
48 *756:17 *757:17 0
49 *756:21 *757:21 0.070312
50 *756:35 *757:39 0.00059044
51 *756:45 *757:39 0.000300131
52 *756:45 *757:41 0.000599735
53 *756:47 *757:41 1.53472e-05
*RES
1 *988:analog_ctrl[178] *757:15 12.3584 
2 *757:15 *757:17 47.2413 
3 *757:17 *757:19 3.41 
4 *757:19 *757:21 108.399 
5 *757:21 *757:23 3.41 
6 *757:23 *757:25 279.866 
7 *757:25 *757:39 47.7857 
8 *757:39 *757:41 263.625 
9 *757:41 *757:43 4.5 
10 *757:43 *757:45 203.018 
11 *757:45 *984:DACCAP[5] 22.5 
*END

*D_NET *758 0.320334
*CONN
*I *984:DACCAPEN I *D CF_ADC_DSM20
*I *988:analog_ctrl[179] O *D soc_sys
*CAP
1 *984:DACCAPEN 0.000372079
2 *988:analog_ctrl[179] 6.68165e-05
3 *758:17 0.0042004
4 *758:15 0.00382832
5 *758:13 0.0298376
6 *758:11 0.0298376
7 *758:9 0.0090328
8 *758:7 0.00909962
9 *758:9 *760:13 9.77274e-05
10 *758:9 *762:13 1.74352e-05
11 *758:9 *790:29 0.000352481
12 *758:13 *764:25 0
13 *758:13 *770:47 0.00359194
14 *758:13 *775:17 0
15 *758:13 *809:17 0
16 *758:13 *872:25 0.000555003
17 *758:17 *761:27 0.00425019
18 *758:17 *763:21 0.0228967
19 *758:17 *767:21 0.000240335
20 *758:17 *769:21 0.0241909
21 *758:17 *775:21 0
22 *758:17 *784:29 0
23 *984:FCAP3[0] *984:DACCAPEN 0
24 *984:FCAP2[0] *984:DACCAPEN 6.11802e-05
25 *984:DACCAP[5] *984:DACCAPEN 9.52998e-05
26 *984:DACCAP[3] *984:DACCAPEN 0.000318245
27 *984:DACCAP[1] *984:DACCAPEN 0.000194692
28 *984:FCAP1[5] *758:17 0.000383166
29 *18:71 *758:17 0.000197345
30 *20:15 *758:13 0.0261075
31 *20:59 *984:DACCAPEN 9.95694e-05
32 *669:15 *758:13 0.0104922
33 *740:9 *758:9 0.0091381
34 *744:25 *984:DACCAPEN 0.000190739
35 *747:31 *984:DACCAPEN 0
36 *750:9 *758:9 0.0647051
37 *754:13 *758:9 0.0658832
*RES
1 *988:analog_ctrl[179] *758:7 5.5 
2 *758:7 *758:9 638.893 
3 *758:9 *758:11 4.5 
4 *758:11 *758:13 826.446 
5 *758:13 *758:15 4.5 
6 *758:15 *758:17 238.339 
7 *758:17 *984:DACCAPEN 20.4445 
*END

*D_NET *759 0.287228
*CONN
*I *984:EN_DWA I *D CF_ADC_DSM20
*I *988:analog_ctrl[17] O *D soc_sys
*CAP
1 *984:EN_DWA 0.000872503
2 *988:analog_ctrl[17] 5.45768e-05
3 *759:13 0.0457296
4 *759:11 0.0448571
5 *759:9 0.0407728
6 *759:7 0.0408273
7 *984:EN_DWA *984:SCANEN 7.84279e-05
8 *759:13 *785:53 0.0181495
9 *759:13 *796:13 0.0618925
10 *984:EN_ADWA *984:EN_DWA 0.000550694
11 *72:24 *759:9 0.0330651
12 *662:11 *984:EN_DWA 5.75691e-05
13 *720:37 *759:13 0.000320382
14 *721:21 *759:13 0
15 *737:13 *759:13 0
16 *757:45 *759:13 0
*RES
1 *988:analog_ctrl[17] *759:7 1.08036 
2 *759:7 *759:9 836.616 
3 *759:9 *759:11 4.5 
4 *759:11 *759:13 1283.61 
5 *759:13 *984:EN_DWA 25.3214 
*END

*D_NET *760 0.342045
*CONN
*I *984:RESCAP[0] I *D CF_ADC_DSM20
*I *988:analog_ctrl[180] O *D soc_sys
*CAP
1 *984:RESCAP[0] 0.000543905
2 *988:analog_ctrl[180] 0.000128655
3 *760:25 0.00372263
4 *760:23 0.00317873
5 *760:21 0.014875
6 *760:19 0.0150086
7 *760:13 0.00815525
8 *760:11 0.00815035
9 *984:RESCAP[0] *984:RESCAP[1] 0.000132173
10 *984:RESCAP[0] *787:21 5.9438e-05
11 *760:13 *762:13 0.0646076
12 *760:13 *790:29 0.000528424
13 *760:19 *762:19 0.000213831
14 *760:19 *805:35 9.36141e-05
15 *760:21 *762:19 0.00169215
16 *760:21 *762:21 0.0643253
17 *760:21 *791:23 0.0065534
18 *760:21 *805:37 0.00343938
19 *760:25 *762:25 6.75952e-05
20 *984:IPCAP1OFFSET *984:RESCAP[0] 0.000131981
21 *984:IPCAP3EN *984:RESCAP[0] 0.000407287
22 *984:FCAP2EN *984:RESCAP[0] 0.000699272
23 *647:17 *760:13 0.00104161
24 *746:27 *984:RESCAP[0] 4.00349e-05
25 *753:23 *760:25 0.000141354
26 *754:13 *760:13 0.0653942
27 *754:17 *760:19 0
28 *754:17 *760:21 0.0259872
29 *754:21 *760:25 0.0222589
30 *755:13 *760:13 0.00807011
31 *755:39 *760:25 0.00199049
32 *757:45 *760:25 0.0203087
33 *758:9 *760:13 9.77274e-05
*RES
1 *988:analog_ctrl[180] *760:11 6.46429 
2 *760:11 *760:13 617.429 
3 *760:13 *760:19 8.04464 
4 *760:19 *760:21 830.545 
5 *760:21 *760:23 4.5 
6 *760:23 *760:25 212.054 
7 *760:25 *984:RESCAP[0] 22.9375 
*END

*D_NET *761 0.364269
*CONN
*I *984:RESCAP[1] I *D CF_ADC_DSM20
*I *988:analog_ctrl[181] O *D soc_sys
*CAP
1 *984:RESCAP[1] 0.000278188
2 *988:analog_ctrl[181] 5.92556e-05
3 *761:27 0.00470803
4 *761:17 0.012156
5 *761:15 0.00772614
6 *761:13 0.00811423
7 *761:11 0.00811423
8 *761:9 0.0120567
9 *761:7 0.012116
10 *984:RESCAP[1] *787:21 0.000320908
11 *761:13 *763:13 0.000529894
12 *761:13 *765:13 0.0633158
13 *761:13 *809:13 0.00550343
14 *761:17 *763:17 9.18125e-05
15 *761:17 *787:17 0.0472449
16 *761:17 *791:23 0.0012221
17 *761:17 *805:37 0.00590916
18 *761:27 *763:21 0.00459146
19 *761:27 *769:21 0.000150767
20 *761:27 *771:37 0.00129437
21 *761:27 *773:21 0.000162575
22 *984:RESCAP[0] *984:RESCAP[1] 0.000132173
23 *984:IPCAP3EN *984:RESCAP[1] 2.73554e-05
24 *984:IPCAP2EN *984:RESCAP[1] 5.65143e-05
25 *984:IPCAP1EN *984:RESCAP[1] 0.000113263
26 *984:FCAP2EN *984:RESCAP[1] 9.4688e-05
27 *984:FCAP1EN *761:27 0
28 *984:FCAP1OFFSET *984:RESCAP[1] 7.02611e-05
29 *31:13 *761:13 0.0072998
30 *657:14 *761:27 0
31 *746:27 *761:27 0.000782404
32 *747:31 *761:27 0.0220643
33 *751:13 *761:13 0.0651922
34 *751:17 *761:17 0.0474906
35 *756:75 *761:27 0.0210295
36 *758:17 *761:27 0.00425019
*RES
1 *988:analog_ctrl[181] *761:7 1.08036 
2 *761:7 *761:9 242.223 
3 *761:9 *761:11 4.5 
4 *761:11 *761:13 614.143 
5 *761:13 *761:15 4.5 
6 *761:15 *761:17 584.348 
7 *761:17 *761:27 49.9309 
8 *761:27 *984:RESCAP[1] 8.45536 
*END

*D_NET *762 0.368857
*CONN
*I *984:RESCAP[2] I *D CF_ADC_DSM20
*I *988:analog_ctrl[182] O *D soc_sys
*CAP
1 *984:RESCAP[2] 0.000492463
2 *988:analog_ctrl[182] 0.000151009
3 *762:25 0.00336079
4 *762:23 0.00286833
5 *762:21 0.0139993
6 *762:19 0.0154463
7 *762:13 0.00933213
8 *762:11 0.00803607
9 *984:RESCAP[2] *984:RESCAPEN 0.000349231
10 *762:13 *790:29 0.0646477
11 *762:19 *805:37 0.000419936
12 *762:21 *788:17 0.0482355
13 *762:21 *791:23 0.0065534
14 *984:FCAP1[2] *984:RESCAP[2] 5.66471e-06
15 *984:FCAP1[1] *984:RESCAP[2] 0.00025738
16 *984:FCAP1[0] *984:RESCAP[2] 4.21204e-05
17 *984:IPCAP1OFFSET *984:RESCAP[2] 0.000318014
18 *984:IPCAP3EN *984:RESCAP[2] 0.0002304
19 *647:17 *762:13 0.00096596
20 *750:17 *762:25 4.35597e-05
21 *751:17 *762:21 0.000307517
22 *751:21 *762:25 0.0225119
23 *753:23 *762:25 0.000145107
24 *754:21 *762:25 0.0224301
25 *755:13 *762:13 0.0132742
26 *755:39 *762:25 0.00350908
27 *758:9 *762:13 1.74352e-05
28 *760:13 *762:13 0.0646076
29 *760:19 *762:19 0.000213831
30 *760:21 *762:19 0.00169215
31 *760:21 *762:21 0.0643253
32 *760:25 *762:25 6.75952e-05
*RES
1 *988:analog_ctrl[182] *762:11 6.76786 
2 *762:11 *762:13 608.804 
3 *762:13 *762:19 45.7589 
4 *762:19 *762:21 791.92 
5 *762:21 *762:23 4.5 
6 *762:23 *762:25 214.107 
7 *762:25 *984:RESCAP[2] 21.5536 
*END

*D_NET *763 0.353635
*CONN
*I *984:RESCAPEN I *D CF_ADC_DSM20
*I *988:analog_ctrl[183] O *D soc_sys
*CAP
1 *984:RESCAPEN 0.000297201
2 *988:analog_ctrl[183] 6.08224e-05
3 *763:21 0.00339119
4 *763:19 0.00309399
5 *763:17 0.00784461
6 *763:15 0.00784461
7 *763:13 0.00817582
8 *763:11 0.00817582
9 *763:9 0.0124855
10 *763:7 0.0125463
11 *763:13 *765:13 0.0634025
12 *763:13 *767:13 0.0624434
13 *763:13 *809:13 0.0141657
14 *763:17 *772:17 0
15 *763:17 *784:25 0
16 *763:17 *787:17 0.0472449
17 *763:17 *810:17 0.00582403
18 *763:17 *818:17 0.000321845
19 *763:21 *771:37 0.000269696
20 *763:21 *784:29 0.000151102
21 *984:FCAP1[0] *984:RESCAPEN 5.65143e-05
22 *984:RESCAP[2] *984:RESCAPEN 0.000349231
23 *984:IPCAP3EN *984:RESCAPEN 0.000276486
24 *18:71 *763:21 0.020492
25 *668:17 *763:21 0.000178199
26 *746:17 *763:17 0.0464031
27 *746:27 *984:RESCAPEN 2.2355e-05
28 *751:17 *763:17 8.51637e-06
29 *758:17 *763:21 0.0228967
30 *761:13 *763:13 0.000529894
31 *761:17 *763:17 9.18125e-05
32 *761:27 *763:21 0.00459146
*RES
1 *988:analog_ctrl[183] *763:7 1.08036 
2 *763:7 *763:9 242.83 
3 *763:9 *763:11 4.5 
4 *763:11 *763:13 605.929 
5 *763:13 *763:15 4.5 
6 *763:15 *763:17 584.196 
7 *763:17 *763:19 4.5 
8 *763:19 *763:21 215.75 
9 *763:21 *984:RESCAPEN 15.3304 
*END

*D_NET *764 0.357423
*CONN
*I *984:SUMCAP1[0] I *D CF_ADC_DSM20
*I *988:analog_ctrl[184] O *D soc_sys
*CAP
1 *984:SUMCAP1[0] 0.000752873
2 *988:analog_ctrl[184] 0.00161616
3 *764:29 0.00447007
4 *764:27 0.0037172
5 *764:25 0.0116608
6 *764:23 0.0116608
7 *764:21 0.00875142
8 *764:19 0.00875142
9 *764:17 0.0184468
10 *764:15 0.020063
11 *984:SUMCAP1[0] *984:SUMCAP1_EN 1.53472e-05
12 *984:SUMCAP1[0] *984:SUMCAP1[1] 0.000166322
13 *984:SUMCAP1[0] *984:SUMCAP1[2] 0.000324323
14 *984:SUMCAP1[0] *771:37 0.000467748
15 *984:SUMCAP1[0] *784:29 0.00121774
16 *984:SUMCAP1[0] *788:31 9.82592e-05
17 *764:17 *776:9 0.00426759
18 *764:21 *770:43 0.0526367
19 *764:25 *765:17 0.000225885
20 *764:25 *767:17 0.0450001
21 *764:25 *768:17 0
22 *764:25 *770:47 0.00584737
23 *764:25 *809:17 0.024714
24 *764:29 *765:21 5.80921e-05
25 *764:29 *772:21 0.000813671
26 *764:29 *774:21 1.21258e-05
27 *764:29 *776:21 3.93084e-05
28 *764:29 *786:21 0.0209013
29 *764:29 *789:29 0.0218953
30 *984:IPCAP3[2] *984:SUMCAP1[0] 0.000173893
31 *984:FCAP3[1] *984:SUMCAP1[0] 0.000310506
32 *984:IPCAP1[0] *984:SUMCAP1[0] 0.000321509
33 *984:FCAP1[4] *984:SUMCAP1[0] 4.12921e-06
34 *984:FCAP1[1] *984:SUMCAP1[0] 6.30035e-05
35 *14:35 *764:29 0
36 *40:17 *764:25 0.00312
37 *655:57 *764:21 0.00443387
38 *671:29 *764:15 0.00535887
39 *693:39 *764:15 0.00058325
40 *715:33 *764:15 0.0010244
41 *730:21 *984:SUMCAP1[0] 0.000298483
42 *747:31 *984:SUMCAP1[0] 1.94945e-05
43 *750:17 *764:29 0.000306096
44 *751:21 *764:29 0.000516565
45 *753:23 *764:29 0.00483027
46 *755:13 *764:15 0.0053637
47 *756:21 *764:21 0.000319442
48 *757:21 *764:21 0.0617834
49 *758:13 *764:25 0
*RES
1 *988:analog_ctrl[184] *764:15 17.6824 
2 *764:15 *764:17 47.8805 
3 *764:17 *764:19 3.41 
4 *764:19 *764:21 99.3188 
5 *764:21 *764:23 3.41 
6 *764:23 *764:25 558.545 
7 *764:25 *764:27 4.5 
8 *764:27 *764:29 230.536 
9 *764:29 *984:SUMCAP1[0] 41.4107 
*END

*D_NET *765 0.364292
*CONN
*I *984:SUMCAP1[1] I *D CF_ADC_DSM20
*I *988:analog_ctrl[185] O *D soc_sys
*CAP
1 *984:SUMCAP1[1] 0.000294481
2 *988:analog_ctrl[185] 5.92556e-05
3 *765:21 0.00378452
4 *765:19 0.00349004
5 *765:17 0.00755133
6 *765:15 0.00755133
7 *765:13 0.00817555
8 *765:11 0.00817555
9 *765:9 0.0120956
10 *765:7 0.0121549
11 *984:SUMCAP1[1] *984:SUMCAP2[1] 7.058e-06
12 *984:SUMCAP1[1] *984:SUMCAP2[0] 0.000539257
13 *765:13 *767:13 0.000640115
14 *765:13 *809:13 0.011893
15 *765:17 *767:17 0.0474648
16 *765:17 *768:17 8.81132e-05
17 *765:17 *770:47 0.000179894
18 *765:17 *775:17 0.0477518
19 *765:17 *794:49 0.00595516
20 *765:17 *809:17 1.53212e-05
21 *765:21 *776:21 0.0251552
22 *984:SUMCAP1[0] *984:SUMCAP1[1] 0.000166322
23 *984:IPCAP3[1] *984:SUMCAP1[1] 0.000647241
24 *984:FCAP1[4] *984:SUMCAP1[1] 1.56192e-05
25 *14:35 *765:21 0.0257501
26 *40:17 *765:17 0.00310861
27 *657:14 *765:21 0.00458
28 *761:13 *765:13 0.0633158
29 *763:13 *765:13 0.0634025
30 *764:25 *765:17 0.000225885
31 *764:29 *765:21 5.80921e-05
*RES
1 *988:analog_ctrl[185] *765:7 1.08036 
2 *765:7 *765:9 242.527 
3 *765:9 *765:11 4.5 
4 *765:11 *765:13 608.393 
5 *765:13 *765:15 4.5 
6 *765:15 *765:17 588.446 
7 *765:17 *765:19 4.5 
8 *765:19 *765:21 243.268 
9 *765:21 *984:SUMCAP1[1] 18.7679 
*END

*D_NET *766 0.34902
*CONN
*I *984:SUMCAP1[2] I *D CF_ADC_DSM20
*I *988:analog_ctrl[186] O *D soc_sys
*CAP
1 *984:SUMCAP1[2] 0.000726131
2 *988:analog_ctrl[186] 0.00768451
3 *766:29 0.00436695
4 *766:27 0.00364082
5 *766:25 0.0185975
6 *766:23 0.0185975
7 *766:21 0.00958376
8 *766:19 0.0228715
9 *766:15 0.0209723
10 *766:15 *771:19 0.00399605
11 *766:15 *792:31 0.00216415
12 *766:15 *794:39 0.000314721
13 *766:15 *808:25 0.000207312
14 *766:21 *772:13 0.00130645
15 *766:21 *815:13 0
16 *766:21 *877:13 0.0444677
17 *766:25 *768:17 0.0484786
18 *766:25 *775:17 0.000537329
19 *766:25 *779:17 0
20 *766:25 *783:29 0
21 *766:25 *790:41 0.00549247
22 *766:25 *794:59 0.00195794
23 *766:25 *808:29 0
24 *766:25 *820:17 0
25 *766:29 *768:21 0.0255148
26 *766:29 *780:21 0.0222402
27 *984:SUMCAP1[0] *984:SUMCAP1[2] 0.000324323
28 *984:IPCAP3[1] *984:SUMCAP1[2] 0
29 *984:IPCAP3[2] *984:SUMCAP1[2] 0.000128265
30 *984:IPCAP3[0] *984:SUMCAP1[2] 5.80348e-05
31 *984:IPCAP2[2] *984:SUMCAP1[2] 4.35667e-05
32 *984:IPCAP2[0] *984:SUMCAP1[2] 0.00116439
33 *984:FCAP3[1] *984:SUMCAP1[2] 0.000183289
34 *988:adc_dout[6] *766:15 0.00271261
35 *40:17 *766:25 0.00491211
36 *40:21 *766:21 0.0374004
37 *108:13 *766:15 0.00391446
38 *111:37 *766:21 0.0155446
39 *112:21 *766:21 0.00120603
40 *646:18 *766:15 0.00413588
41 *648:17 *766:15 2.11537e-05
42 *653:27 *766:15 0.000153696
43 *668:29 *766:19 0.0078303
44 *671:29 *766:15 0.000534447
45 *671:37 *766:15 0.000998863
46 *693:39 *766:15 0.00401277
47 *747:31 *984:SUMCAP1[2] 2.15178e-05
*RES
1 *988:analog_ctrl[186] *766:15 44.9325 
2 *766:15 *766:19 42.8743 
3 *766:19 *766:21 73.1586 
4 *766:21 *766:23 3.41 
5 *766:23 *766:25 610.152 
6 *766:25 *766:27 4.5 
7 *766:27 *766:29 239.982 
8 *766:29 *984:SUMCAP1[2] 26.6875 
*END

*D_NET *767 0.358845
*CONN
*I *984:SUMCAP1_EN I *D CF_ADC_DSM20
*I *988:analog_ctrl[187] O *D soc_sys
*CAP
1 *984:SUMCAP1_EN 0.000201865
2 *988:analog_ctrl[187] 6.08224e-05
3 *767:21 0.00414315
4 *767:19 0.00394128
5 *767:17 0.00751115
6 *767:15 0.00751115
7 *767:13 0.00795553
8 *767:11 0.00795553
9 *767:9 0.0125299
10 *767:7 0.0125907
11 *984:SUMCAP1_EN *984:SUMCAP2[0] 5.93721e-05
12 *767:13 *768:13 0.063077
13 *767:13 *792:39 0
14 *767:13 *803:13 0.0115538
15 *767:13 *872:21 0.000254013
16 *767:17 *770:47 0.00522728
17 *767:17 *809:17 0.00133178
18 *767:21 *984:SUMCAPIN[3] 0.000587062
19 *767:21 *769:21 1.98839e-05
20 *767:21 *773:21 0.0248889
21 *767:21 *787:21 0.000431323
22 *767:21 *788:21 0.0229262
23 *984:SUMCAP1[0] *984:SUMCAP1_EN 1.53472e-05
24 *984:IPCAP3[1] *984:SUMCAP1_EN 0.000262634
25 *984:FCAP3[1] *984:SUMCAP1_EN 0.000103253
26 *40:17 *767:17 0.00321492
27 *746:27 *767:21 0.00458307
28 *747:31 *984:SUMCAP1_EN 0.000118866
29 *758:17 *767:21 0.000240335
30 *763:13 *767:13 0.0624434
31 *764:25 *767:17 0.0450001
32 *765:13 *767:13 0.000640115
33 *765:17 *767:17 0.0474648
*RES
1 *988:analog_ctrl[187] *767:7 1.08036 
2 *767:7 *767:9 243.134 
3 *767:9 *767:11 4.5 
4 *767:11 *767:13 599.768 
5 *767:13 *767:15 4.5 
6 *767:15 *767:17 582.679 
7 *767:17 *767:19 4.5 
8 *767:19 *767:21 242.857 
9 *767:21 *984:SUMCAP1_EN 13.8929 
*END

*D_NET *768 0.359999
*CONN
*I *984:SUMCAP2[0] I *D CF_ADC_DSM20
*I *988:analog_ctrl[188] O *D soc_sys
*CAP
1 *984:SUMCAP2[0] 0.000758609
2 *988:analog_ctrl[188] 5.92556e-05
3 *768:21 0.00395282
4 *768:19 0.00319421
5 *768:17 0.00777438
6 *768:15 0.00777438
7 *768:13 0.00840125
8 *768:11 0.00840125
9 *768:9 0.012179
10 *768:7 0.0122382
11 *984:SUMCAP2[0] *984:SUMCAP2_EN 9.36735e-05
12 *984:SUMCAP2[0] *984:SUMCAP2[2] 6.94259e-05
13 *984:SUMCAP2[0] *984:SUMCAP2[1] 0.000308198
14 *768:13 *776:13 0.0591956
15 *768:13 *792:39 5.38537e-05
16 *768:13 *803:13 0.0127024
17 *768:13 *872:21 0.000857562
18 *768:17 *775:17 0.0476811
19 *768:17 *790:41 0.00614401
20 *768:21 *778:21 0.0252469
21 *768:21 *779:21 6.87574e-05
22 *768:21 *780:21 0.000136749
23 *768:21 *783:33 1.99271e-05
24 *984:SUMCAP1_EN *984:SUMCAP2[0] 5.93721e-05
25 *984:SUMCAP1[1] *984:SUMCAP2[0] 0.000539257
26 *984:IPCAP3[1] *984:SUMCAP2[0] 0.000305883
27 *40:17 *768:17 0.00462411
28 *764:25 *768:17 0
29 *765:17 *768:17 8.81132e-05
30 *766:25 *768:17 0.0484786
31 *766:29 *768:21 0.0255148
32 *767:13 *768:13 0.063077
*RES
1 *988:analog_ctrl[188] *768:7 1.08036 
2 *768:7 *768:9 243.438 
3 *768:9 *768:11 4.5 
4 *768:11 *768:13 594.018 
5 *768:13 *768:15 4.5 
6 *768:15 *768:17 595.429 
7 *768:17 *768:19 4.5 
8 *768:19 *768:21 242.857 
9 *768:21 *984:SUMCAP2[0] 26.0982 
*END

*D_NET *769 0.334024
*CONN
*I *984:SUMCAP2[1] I *D CF_ADC_DSM20
*I *988:analog_ctrl[189] O *D soc_sys
*CAP
1 *984:SUMCAP2[1] 0.000122452
2 *988:analog_ctrl[189] 5.92556e-05
3 *769:21 0.00361465
4 *769:19 0.0034922
5 *769:17 0.00978302
6 *769:15 0.00978302
7 *769:13 0.0128764
8 *769:11 0.0128764
9 *769:9 0.0114432
10 *769:7 0.0115025
11 *984:SUMCAP2[1] *984:SUMCAP3_EN 2.33982e-06
12 *984:SUMCAP2[1] *984:SUMCAP2_EN 2.65992e-05
13 *984:SUMCAP2[1] *984:SUMCAP2[2] 0.000257391
14 *769:13 *772:13 0.060894
15 *769:13 *877:13 0.013071
16 *769:17 *772:17 9.20464e-06
17 *769:17 *773:17 0.0476633
18 *769:17 *774:17 1.0033e-05
19 *769:17 *776:17 8.44271e-06
20 *769:17 *778:17 0.0466455
21 *769:17 *808:29 0
22 *769:21 *773:21 0.0250554
23 *984:SUMCAP2[0] *984:SUMCAP2[1] 0.000308198
24 *984:SUMCAP1[1] *984:SUMCAP2[1] 7.058e-06
25 *984:FCAP1[4] *984:SUMCAP2[1] 1.93403e-06
26 *984:FCAP1[5] *769:21 0.000454901
27 *111:37 *769:13 0.0350667
28 *112:21 *769:13 0.000138738
29 *113:37 *769:13 6.8529e-05
30 *747:31 *769:21 0.00442049
31 *758:17 *769:21 0.0241909
32 *761:27 *769:21 0.000150767
33 *767:21 *769:21 1.98839e-05
*RES
1 *988:analog_ctrl[189] *769:7 1.08036 
2 *769:7 *769:9 229.777 
3 *769:9 *769:11 4.5 
4 *769:11 *769:13 583.75 
5 *769:13 *769:15 4.5 
6 *769:15 *769:17 596.643 
7 *769:17 *769:19 4.5 
8 *769:19 *769:21 237.518 
9 *769:21 *984:SUMCAP2[1] 13.75 
*END

*D_NET *770 0.433633
*CONN
*I *984:MODINPUT I *D CF_ADC_DSM20
*I *988:analog_ctrl[18] O *D soc_sys
*CAP
1 *984:MODINPUT 0.00173649
2 *988:analog_ctrl[18] 0.000195509
3 *770:47 0.0126722
4 *770:45 0.0109357
5 *770:43 0.00789274
6 *770:41 0.00789274
7 *770:39 0.0167352
8 *770:37 0.0168794
9 *770:27 0.00713036
10 *770:25 0.00732004
11 *770:15 0.0190439
12 *770:13 0.0189055
13 *984:MODINPUT *984:MODBIT 0.00311339
14 *984:MODINPUT *984:SIGN 0.00353716
15 *984:MODINPUT *984:itrim_comp[3] 8.00576e-05
16 *984:MODINPUT *984:BUF_CHOP_EN 0
17 *984:MODINPUT *984:BUF_FCHOP[1] 4.43299e-05
18 *770:15 *790:15 0.000234461
19 *770:15 *790:27 5.1342e-05
20 *770:15 *791:11 0.000151215
21 *770:15 *792:13 1.22363e-05
22 *770:15 *792:15 0.0469831
23 *770:25 *790:27 0.000669485
24 *770:27 *771:19 0.000199547
25 *770:27 *792:31 0.000173275
26 *770:27 *794:29 0.0415213
27 *770:27 *805:23 0.000182899
28 *770:27 *805:25 0.0450902
29 *770:27 *808:25 0
30 *770:47 *790:41 0.000607892
31 *770:47 *792:43 0.0049953
32 *770:47 *794:49 0.0233693
33 *770:47 *809:17 0.00540518
34 *770:47 *872:25 0.0035035
35 *770:47 *875:17 0.00359194
36 *988:adc_dout[6] *770:37 0.000605663
37 *20:15 *770:47 0.0035035
38 *49:21 *770:15 0
39 *51:17 *770:15 0.000389362
40 *648:17 *770:27 0.000609606
41 *655:57 *770:43 0.0277866
42 *658:13 *984:MODINPUT 0.000101105
43 *659:22 *770:37 0.000610492
44 *660:22 *770:39 0.00724451
45 *669:13 *984:MODINPUT 9.6221e-05
46 *671:15 *770:13 1.25167e-05
47 *671:15 *770:15 0
48 *671:29 *770:27 0.00812848
49 *688:11 *770:15 4.89453e-05
50 *691:9 *770:25 0.000183782
51 *693:39 *770:37 0.000141521
52 *711:27 *770:27 0.000162575
53 *715:33 *770:27 0.000871086
54 *723:31 *770:25 0.000269125
55 *728:25 *770:25 2.94869e-05
56 *728:25 *770:27 0.000160191
57 *755:23 *770:43 0.00433807
58 *758:13 *770:47 0.00359194
59 *764:21 *770:43 0.0526367
60 *764:25 *770:47 0.00584737
61 *765:17 *770:47 0.000179894
62 *767:17 *770:47 0.00522728
*RES
1 *988:analog_ctrl[18] *770:13 4.83346 
2 *770:13 *770:15 78.4555 
3 *770:15 *770:25 11.5197 
4 *770:25 *770:27 440.821 
5 *770:27 *770:37 13.1518 
6 *770:37 *770:39 47.6674 
7 *770:39 *770:41 3.41 
8 *770:41 *770:43 81.6265 
9 *770:43 *770:45 3.41 
10 *770:45 *770:47 51.183 
11 *770:47 *984:MODINPUT 14.9037 
*END

*D_NET *771 0.262448
*CONN
*I *984:SUMCAP2[2] I *D CF_ADC_DSM20
*I *988:analog_ctrl[190] O *D soc_sys
*CAP
1 *984:SUMCAP2[2] 0.000214365
2 *988:analog_ctrl[190] 0.00468773
3 *771:37 0.00368545
4 *771:35 0.00347108
5 *771:33 0.0127166
6 *771:31 0.013397
7 *771:25 0.0170378
8 *771:23 0.0163574
9 *771:21 0.0251052
10 *771:19 0.0297929
11 *984:SUMCAP2[2] *984:SUMCAP3[2] 9.99444e-06
12 *984:SUMCAP2[2] *984:SUMCAP2_EN 0.00039975
13 *771:19 *794:39 0.000566465
14 *771:19 *805:25 0.000314987
15 *771:25 *783:27 2.33124e-05
16 *771:25 *785:23 0.0037236
17 *771:31 *783:27 0.00261697
18 *771:31 *785:23 0.00271078
19 *771:33 *786:17 0
20 *771:33 *812:17 0.00623949
21 *771:33 *813:17 0.0239177
22 *771:33 *816:17 0.0238832
23 *771:37 *784:29 0.00314356
24 *984:refsel[0] *984:SUMCAP2[2] 1.01912e-05
25 *984:SUMCAP2[1] *984:SUMCAP2[2] 0.000257391
26 *984:SUMCAP2[0] *984:SUMCAP2[2] 6.94259e-05
27 *984:SUMCAP1[0] *771:37 0.000467748
28 *984:FCAP1[5] *771:37 0.000268165
29 *18:71 *771:37 0.0216973
30 *20:45 *771:33 0
31 *20:47 *771:33 0.00194491
32 *647:17 *771:19 0.000238494
33 *648:17 *771:19 0.00243529
34 *652:13 *771:33 0.00847687
35 *655:57 *771:31 2.30233e-05
36 *668:17 *771:37 0.0131938
37 *671:29 *771:19 0.00748376
38 *693:39 *771:19 0.00228151
39 *730:21 *771:37 0.000590017
40 *750:13 *771:33 0
41 *755:13 *771:19 0.000432068
42 *755:17 *771:25 0
43 *756:75 *771:37 0.00280298
44 *761:27 *771:37 0.00129437
45 *763:21 *771:37 0.000269696
46 *766:15 *771:19 0.00399605
47 *770:27 *771:19 0.000199547
*RES
1 *988:analog_ctrl[190] *771:19 33.8217 
2 *771:19 *771:21 75.1405 
3 *771:21 *771:23 3.41 
4 *771:23 *771:25 50.3307 
5 *771:25 *771:31 11.2991 
6 *771:31 *771:33 548.83 
7 *771:33 *771:35 4.5 
8 *771:35 *771:37 214.929 
9 *771:37 *984:SUMCAP2[2] 14.8125 
*END

*D_NET *772 0.31096
*CONN
*I *984:SUMCAP2_EN I *D CF_ADC_DSM20
*I *988:analog_ctrl[191] O *D soc_sys
*CAP
1 *984:SUMCAP2_EN 0.000313125
2 *988:analog_ctrl[191] 5.92556e-05
3 *772:21 0.0036747
4 *772:19 0.00336157
5 *772:17 0.0201738
6 *772:15 0.0201738
7 *772:13 0.00818165
8 *772:11 0.00818165
9 *772:9 0.011473
10 *772:7 0.0115322
11 *984:SUMCAP2_EN *984:SUMCAP3[1] 5.25192e-06
12 *984:SUMCAP2_EN *984:SUMCAP3[2] 1.03403e-05
13 *984:SUMCAP2_EN *984:SUMCAP3_EN 0.000614928
14 *772:13 *773:13 0.0133133
15 *772:13 *783:13 0.000798277
16 *772:13 *877:13 0.00780789
17 *772:17 *773:17 1.73698e-05
18 *772:17 *774:17 0.0480391
19 *772:17 *784:25 0
20 *772:17 *785:25 0
21 *772:17 *789:17 0
22 *772:17 *818:17 0
23 *772:21 *774:21 0.0251173
24 *772:21 *789:29 0.0234485
25 *984:refsel[0] *984:SUMCAP2_EN 5.52387e-05
26 *984:SUMCAP2[2] *984:SUMCAP2_EN 0.00039975
27 *984:SUMCAP2[1] *984:SUMCAP2_EN 2.65992e-05
28 *984:SUMCAP2[0] *984:SUMCAP2_EN 9.36735e-05
29 *112:21 *772:13 0.000122494
30 *113:37 *772:13 0.0362779
31 *752:31 *772:21 0.00466436
32 *763:17 *772:17 0
33 *764:29 *772:21 0.000813671
34 *766:21 *772:13 0.00130645
35 *769:13 *772:13 0.060894
36 *769:17 *772:17 9.20464e-06
*RES
1 *988:analog_ctrl[191] *772:7 1.08036 
2 *772:7 *772:9 230.08 
3 *772:9 *772:11 4.5 
4 *772:11 *772:13 573.482 
5 *772:13 *772:15 4.5 
6 *772:15 *772:17 601.804 
7 *772:17 *772:19 4.5 
8 *772:19 *772:21 237.107 
9 *772:21 *984:SUMCAP2_EN 18.9018 
*END

*D_NET *773 0.335965
*CONN
*I *984:SUMCAP3[0] I *D CF_ADC_DSM20
*I *988:analog_ctrl[192] O *D soc_sys
*CAP
1 *984:SUMCAP3[0] 0.000152105
2 *988:analog_ctrl[192] 5.92556e-05
3 *773:21 0.00371778
4 *773:19 0.00356567
5 *773:17 0.00948501
6 *773:15 0.00948501
7 *773:13 0.00814486
8 *773:11 0.00814486
9 *773:9 0.0115091
10 *773:7 0.0115683
11 *984:SUMCAP3[0] *984:SUMCAP3[1] 0.000320531
12 *773:13 *774:13 0.000261144
13 *773:13 *775:13 0.0595472
14 *773:13 *877:13 0.0021247
15 *773:17 *774:17 0.0476188
16 *773:21 *984:SUMCAPIN[3] 0.000198839
17 *984:refsel[2] *984:SUMCAP3[0] 8.64841e-05
18 *984:refsel[1] *984:SUMCAP3[0] 8.77885e-05
19 *984:FCAP1[4] *984:SUMCAP3[0] 0
20 *984:FCAP1[5] *773:21 7.27549e-05
21 *112:21 *773:13 0.00799585
22 *113:37 *773:13 0.0363638
23 *114:21 *773:13 0.000254433
24 *747:31 *773:21 0.00409943
25 *761:27 *773:21 0.000162575
26 *767:21 *773:21 0.0248889
27 *769:17 *773:17 0.0476633
28 *769:21 *773:21 0.0250554
29 *772:13 *773:13 0.0133133
30 *772:17 *773:17 1.73698e-05
*RES
1 *988:analog_ctrl[192] *773:7 1.08036 
2 *773:7 *773:9 230.688 
3 *773:9 *773:11 4.5 
4 *773:11 *773:13 569.786 
5 *773:13 *773:15 4.5 
6 *773:15 *773:17 595.429 
7 *773:17 *773:19 4.5 
8 *773:19 *773:21 239.571 
9 *773:21 *984:SUMCAP3[0] 14.0446 
*END

*D_NET *774 0.343775
*CONN
*I *984:SUMCAP3[1] I *D CF_ADC_DSM20
*I *988:analog_ctrl[193] O *D soc_sys
*CAP
1 *984:SUMCAP3[1] 0.000378032
2 *988:analog_ctrl[193] 5.92556e-05
3 *774:21 0.00369032
4 *774:19 0.00331229
5 *774:17 0.00962742
6 *774:15 0.00962742
7 *774:13 0.00804407
8 *774:11 0.00804407
9 *774:9 0.0115452
10 *774:7 0.0116045
11 *984:SUMCAP3[1] *984:SUMCAPFB[3] 0
12 *984:SUMCAP3[1] *984:SUMCAP3[2] 0.00051387
13 *984:SUMCAP3[1] *984:SUMCAP3_EN 0.000121141
14 *774:13 *775:13 0.0595054
15 *774:13 *780:13 0.0545377
16 *774:13 *783:13 0.00248787
17 *774:13 *788:13 0.00105785
18 *774:13 *877:13 0.000100473
19 *774:17 *778:17 0.000125438
20 *774:21 *776:21 0.025199
21 *774:21 *789:29 6.87574e-05
22 *984:refsel[2] *984:SUMCAP3[1] 0
23 *984:SUMCAP3[0] *984:SUMCAP3[1] 0.000320531
24 *984:SUMCAP2_EN *984:SUMCAP3[1] 5.25192e-06
25 *984:FCAP1[4] *984:SUMCAP3[1] 0
26 *14:35 *774:21 2.95726e-05
27 *114:21 *774:13 0.00828391
28 *657:14 *774:21 0.000101825
29 *752:31 *774:21 0.00432559
30 *764:29 *774:21 1.21258e-05
31 *769:17 *774:17 1.0033e-05
32 *772:17 *774:17 0.0480391
33 *772:21 *774:21 0.0251173
34 *773:13 *774:13 0.000261144
35 *773:17 *774:17 0.0476188
*RES
1 *988:analog_ctrl[193] *774:7 1.08036 
2 *774:7 *774:9 231.295 
3 *774:9 *774:11 4.5 
4 *774:11 *774:13 564.857 
5 *774:13 *774:15 4.5 
6 *774:15 *774:17 600.286 
7 *774:17 *774:19 4.5 
8 *774:19 *774:21 238.75 
9 *774:21 *984:SUMCAP3[1] 19.1607 
*END

*D_NET *775 0.336444
*CONN
*I *984:SUMCAP3[2] I *D CF_ADC_DSM20
*I *988:analog_ctrl[194] O *D soc_sys
*CAP
1 *984:SUMCAP3[2] 0.00119616
2 *988:analog_ctrl[194] 6.08224e-05
3 *775:21 0.00860512
4 *775:19 0.00740896
5 *775:17 0.0079268
6 *775:15 0.0079268
7 *775:13 0.0075267
8 *775:11 0.0075267
9 *775:9 0.0118934
10 *775:7 0.0119542
11 *984:SUMCAP3[2] *984:SUMCAP3_EN 0.000485427
12 *984:SUMCAP3[2] *784:29 0.00115397
13 *984:SUMCAP3[2] *788:31 0.00168116
14 *775:13 *783:13 0.00410513
15 *775:17 *794:49 0.00531566
16 *775:21 *984:SCANCLK 9.60875e-05
17 *775:21 *784:29 0.0220822
18 *984:refsel[1] *984:SUMCAP3[2] 0
19 *984:refsel[0] *984:SUMCAP3[2] 2.26973e-05
20 *984:SUMCAP3[1] *984:SUMCAP3[2] 0.00051387
21 *984:SUMCAP2_EN *984:SUMCAP3[2] 1.03403e-05
22 *984:SUMCAP2[2] *984:SUMCAP3[2] 9.99444e-06
23 *14:35 *984:SUMCAP3[2] 0.000127311
24 *14:35 *775:21 0
25 *18:69 *984:SUMCAP3[2] 0.00067765
26 *20:15 *775:17 0
27 *40:17 *775:17 0.00314658
28 *113:37 *775:13 0.000373963
29 *114:21 *775:13 0.0076806
30 *756:75 *775:21 0.00191238
31 *758:13 *775:17 0
32 *758:17 *775:21 0
33 *765:17 *775:17 0.0477518
34 *766:25 *775:17 0.000537329
35 *768:17 *775:17 0.0476811
36 *773:13 *775:13 0.0595472
37 *774:13 *775:13 0.0595054
*RES
1 *988:analog_ctrl[194] *775:7 1.08036 
2 *775:7 *775:9 230.991 
3 *775:9 *775:11 4.5 
4 *775:11 *775:13 567.321 
5 *775:13 *775:15 4.5 
6 *775:15 *775:17 597.857 
7 *775:17 *775:19 4.5 
8 *775:19 *775:21 217.188 
9 *775:21 *984:SUMCAP3[2] 45.3214 
*END

*D_NET *776 0.352815
*CONN
*I *984:SUMCAP3_EN I *D CF_ADC_DSM20
*I *988:analog_ctrl[195] O *D soc_sys
*CAP
1 *984:SUMCAP3_EN 0.000289846
2 *988:analog_ctrl[195] 5.92556e-05
3 *776:21 0.00364115
4 *776:19 0.0033513
5 *776:17 0.00854597
6 *776:15 0.00854597
7 *776:13 0.0074101
8 *776:11 0.0074101
9 *776:9 0.0122357
10 *776:7 0.0122949
11 *776:13 *778:13 0.0581939
12 *776:13 *792:39 9.35114e-06
13 *776:13 *872:21 0.0109789
14 *776:17 *777:17 0.0468083
15 *776:17 *778:17 0.0470238
16 *776:17 *781:17 0.00547372
17 *776:17 *808:29 0.000342745
18 *984:refsel[0] *984:SUMCAP3_EN 6.0684e-05
19 *984:SUMCAP3[1] *984:SUMCAP3_EN 0.000121141
20 *984:SUMCAP3[2] *984:SUMCAP3_EN 0.000485427
21 *984:SUMCAP2_EN *984:SUMCAP3_EN 0.000614928
22 *984:SUMCAP2[1] *984:SUMCAP3_EN 2.33982e-06
23 *984:FCAP1[4] *984:SUMCAP3_EN 3.6692e-06
24 *14:35 *776:21 0.000107759
25 *657:14 *776:21 0.0049387
26 *764:17 *776:9 0.00426759
27 *764:29 *776:21 3.93084e-05
28 *765:21 *776:21 0.0251552
29 *768:13 *776:13 0.0591956
30 *769:17 *776:17 8.44271e-06
31 *774:21 *776:21 0.025199
*RES
1 *988:analog_ctrl[195] *776:7 1.08036 
2 *776:7 *776:9 243.741 
3 *776:9 *776:11 4.5 
4 *776:11 *776:13 557.464 
5 *776:13 *776:15 4.5 
6 *776:15 *776:17 587.536 
7 *776:17 *776:19 4.5 
8 *776:19 *776:21 239.571 
9 *776:21 *984:SUMCAP3_EN 18.7857 
*END

*D_NET *777 0.32705
*CONN
*I *984:SUMCAPFB[0] I *D CF_ADC_DSM20
*I *988:analog_ctrl[196] O *D soc_sys
*CAP
1 *984:SUMCAPFB[0] 0.00083991
2 *988:analog_ctrl[196] 5.92556e-05
3 *777:21 0.00409794
4 *777:19 0.00325803
5 *777:17 0.00748236
6 *777:15 0.00748236
7 *777:13 0.0110289
8 *777:11 0.0110289
9 *777:9 0.0129799
10 *777:7 0.0130391
11 *984:SUMCAPFB[0] *984:SUMCAPFB_EN 2.8038e-06
12 *984:SUMCAPFB[0] *984:SUMCAPFB[2] 0.000811474
13 *984:SUMCAPFB[0] *984:SUMCAPFB[3] 9.97398e-05
14 *777:13 *816:13 0.00895289
15 *777:17 *778:17 0.000278092
16 *777:17 *779:17 0.0470256
17 *777:17 *781:17 0.00592152
18 *777:17 *808:29 0.000174238
19 *777:21 *779:21 0.0263616
20 *777:21 *783:33 0.0261941
21 *984:refsel[15] *984:SUMCAPFB[0] 0.000719549
22 *984:refsel[14] *984:SUMCAPFB[0] 1.24049e-05
23 *984:refsel[8] *984:SUMCAPFB[0] 5.13156e-05
24 *20:59 *984:SUMCAPFB[0] 4.65519e-05
25 *37:21 *777:13 0.0352233
26 *38:17 *777:13 0.000722278
27 *665:31 *777:13 0.0439715
28 *697:17 *984:SUMCAPFB[0] 9.23226e-05
29 *698:21 *984:SUMCAPFB[0] 5.30882e-05
30 *700:21 *984:SUMCAPFB[0] 9.23226e-05
31 *735:25 *777:21 0.000345474
32 *741:13 *777:13 0.00311956
33 *747:13 *777:13 0.00867377
34 *776:17 *777:17 0.0468083
*RES
1 *988:analog_ctrl[196] *777:7 1.08036 
2 *777:7 *777:9 256.491 
3 *777:9 *777:11 4.5 
4 *777:11 *777:13 553.357 
5 *777:13 *777:15 4.5 
6 *777:15 *777:17 581.464 
7 *777:17 *777:19 4.5 
8 *777:19 *777:21 248.196 
9 *777:21 *984:SUMCAPFB[0] 35.7869 
*END

*D_NET *778 0.340952
*CONN
*I *984:SUMCAPFB[1] I *D CF_ADC_DSM20
*I *988:analog_ctrl[197] O *D soc_sys
*CAP
1 *984:SUMCAPFB[1] 0.000866574
2 *988:analog_ctrl[197] 5.92556e-05
3 *778:21 0.00405033
4 *778:19 0.00318375
5 *778:17 0.00964619
6 *778:15 0.00964619
7 *778:13 0.00753506
8 *778:11 0.00753506
9 *778:9 0.0122606
10 *778:7 0.0123199
11 *984:SUMCAPFB[1] *984:SUMCAPIN[0] 0.000101651
12 *984:SUMCAPFB[1] *984:SUMCAPFB_EN 6.11802e-05
13 *984:SUMCAPFB[1] *984:SUMCAPFB[2] 7.98799e-05
14 *984:SUMCAPFB[1] *984:SUMCAPFB[3] 0.000142173
15 *778:13 *784:13 0.000801713
16 *778:13 *787:13 0.0542371
17 *778:13 *792:39 0.000203613
18 *778:13 *872:21 0.0126516
19 *778:17 *779:17 5.79582e-06
20 *778:21 *779:21 0.0261105
21 *778:21 *780:21 0.000260191
22 *984:refsel[15] *984:SUMCAPFB[1] 5.5409e-05
23 *984:refsel[14] *984:SUMCAPFB[1] 8.19176e-05
24 *984:refsel[13] *984:SUMCAPFB[1] 0.00106108
25 *984:refsel[9] *984:SUMCAPFB[1] 0.000240143
26 *984:refsel[2] *984:SUMCAPFB[1] 0
27 *732:33 *778:21 0.000193062
28 *737:13 *778:21 4.8035e-05
29 *768:21 *778:21 0.0252469
30 *769:17 *778:17 0.0466455
31 *774:17 *778:17 0.000125438
32 *776:13 *778:13 0.0581939
33 *776:17 *778:17 0.0470238
34 *777:17 *778:17 0.000278092
*RES
1 *988:analog_ctrl[197] *778:7 1.08036 
2 *778:7 *778:9 244.045 
3 *778:9 *778:11 4.5 
4 *778:11 *778:13 548.018 
5 *778:13 *778:15 4.5 
6 *778:15 *778:17 594.518 
7 *778:17 *778:19 4.5 
8 *778:19 *778:21 245.732 
9 *778:21 *984:SUMCAPFB[1] 27.9643 
*END

*D_NET *779 0.300956
*CONN
*I *984:SUMCAPFB[2] I *D CF_ADC_DSM20
*I *988:analog_ctrl[198] O *D soc_sys
*CAP
1 *984:SUMCAPFB[2] 0.000602023
2 *988:analog_ctrl[198] 5.92556e-05
3 *779:21 0.00386671
4 *779:19 0.00326469
5 *779:17 0.008029
6 *779:15 0.008029
7 *779:13 0.0188435
8 *779:11 0.0188435
9 *779:9 0.0131972
10 *779:7 0.0132565
11 *984:SUMCAPFB[2] *984:SUMCAPFB_EN 0.00106989
12 *984:SUMCAPFB[2] *984:SUMCAPFB[3] 0.000182324
13 *779:13 *789:13 0.0534685
14 *779:13 *801:13 0.00617761
15 *779:17 *781:17 0.00529358
16 *779:17 *783:29 0.0119262
17 *779:17 *808:29 0.0257082
18 *779:21 *783:33 3.97677e-05
19 *984:SUMCAPFB[1] *984:SUMCAPFB[2] 7.98799e-05
20 *984:SUMCAPFB[0] *984:SUMCAPFB[2] 0.000811474
21 *984:refsel[15] *984:SUMCAPFB[2] 1.60939e-05
22 *984:refsel[14] *984:SUMCAPFB[2] 8.8929e-06
23 *104:29 *779:13 0.00827024
24 *668:25 *779:13 0
25 *732:33 *779:21 0.000320382
26 *737:13 *779:21 1.96125e-05
27 *766:25 *779:17 0
28 *768:21 *779:21 6.87574e-05
29 *777:17 *779:17 0.0470256
30 *777:21 *779:21 0.0263616
31 *778:17 *779:17 5.79582e-06
32 *778:21 *779:21 0.0261105
*RES
1 *988:analog_ctrl[198] *779:7 1.08036 
2 *779:7 *779:9 260.438 
3 *779:9 *779:11 4.5 
4 *779:11 *779:13 544.732 
5 *779:13 *779:15 4.5 
6 *779:15 *779:17 577.821 
7 *779:17 *779:19 4.5 
8 *779:19 *779:21 249.018 
9 *779:21 *984:SUMCAPFB[2] 25.7321 
*END

*D_NET *780 0.321691
*CONN
*I *984:SUMCAPFB[3] I *D CF_ADC_DSM20
*I *988:analog_ctrl[199] O *D soc_sys
*CAP
1 *984:SUMCAPFB[3] 0.00115804
2 *988:analog_ctrl[199] 5.92556e-05
3 *780:21 0.00640887
4 *780:19 0.00525083
5 *780:17 0.0103561
6 *780:15 0.0103561
7 *780:13 0.00705731
8 *780:11 0.00705731
9 *780:9 0.0115656
10 *780:7 0.0116248
11 *780:13 *783:13 0.00952133
12 *780:13 *788:13 0.0516621
13 *780:17 *786:17 0.0478106
14 *984:SUMCAPFB[1] *984:SUMCAPFB[3] 0.000142173
15 *984:SUMCAPFB[2] *984:SUMCAPFB[3] 0.000182324
16 *984:SUMCAPFB[0] *984:SUMCAPFB[3] 9.97398e-05
17 *984:refsel[15] *984:SUMCAPFB[3] 0.000294897
18 *984:refsel[13] *984:SUMCAPFB[3] 0
19 *984:SUMCAP3[1] *984:SUMCAPFB[3] 0
20 *651:10 *780:17 0.0426079
21 *654:13 *780:17 0.000428897
22 *699:25 *984:SUMCAPFB[3] 0.00030926
23 *704:17 *780:17 0.00808142
24 *730:21 *984:SUMCAPFB[3] 0.000307336
25 *737:13 *780:21 0.0103156
26 *755:33 *780:17 0.00185864
27 *757:41 *780:17 0
28 *766:29 *780:21 0.0222402
29 *768:21 *780:21 0.000136749
30 *774:13 *780:13 0.0545377
31 *778:21 *780:21 0.000260191
*RES
1 *988:analog_ctrl[199] *780:7 1.08036 
2 *780:7 *780:9 231.598 
3 *780:9 *780:11 4.5 
4 *780:11 *780:13 513.107 
5 *780:13 *780:15 4.5 
6 *780:15 *780:17 607.875 
7 *780:17 *780:19 4.5 
8 *780:19 *780:21 218.214 
9 *780:21 *984:SUMCAPFB[3] 39.9821 
*END

*D_NET *781 0.488022
*CONN
*I *984:MODBIT I *D CF_ADC_DSM20
*I *988:analog_ctrl[19] O *D soc_sys
*CAP
1 *984:MODBIT 0.00171348
2 *988:analog_ctrl[19] 5.45768e-05
3 *781:17 0.0162062
4 *781:15 0.0144927
5 *781:13 0.0295181
6 *781:11 0.0295181
7 *781:9 0.0121797
8 *781:7 0.0122343
9 *984:MODBIT *984:SIGN 2.72228e-05
10 *984:MODBIT *984:itrim_comp[3] 5.56602e-05
11 *781:13 *791:21 0.0278656
12 *781:13 *797:13 0.147337
13 *781:13 *803:13 0
14 *781:13 *818:13 0.137148
15 *781:13 *820:13 0.000305252
16 *781:17 *984:RESET1 0.0020895
17 *781:17 *783:29 0.00577463
18 *781:17 *797:17 0.0131025
19 *781:17 *808:29 0.00517203
20 *984:MODINPUT *984:MODBIT 0.00311339
21 *40:17 *781:17 1.49122e-05
22 *659:16 *984:MODBIT 0.00181598
23 *669:13 *984:MODBIT 0.000394919
24 *742:13 *781:13 0.00598398
25 *745:13 *781:13 0.00521616
26 *776:17 *781:17 0.00547372
27 *777:17 *781:17 0.00592152
28 *779:17 *781:17 0.00529358
*RES
1 *988:analog_ctrl[19] *781:7 1.08036 
2 *781:7 *781:9 247.839 
3 *781:9 *781:11 3.41 
4 *781:11 *781:13 237.543 
5 *781:13 *781:15 3.41 
6 *781:15 *781:17 55.7639 
7 *781:17 *984:MODBIT 12.6362 
*END

*D_NET *782 0.259396
*CONN
*I *986:enable_hv I *D CF_BUF_HIZ
*I *988:analog_ctrl[1] O *D soc_sys
*CAP
1 *986:enable_hv 0.0107097
2 *988:analog_ctrl[1] 0.00144048
3 *782:19 0.0107097
4 *782:17 0.109881
5 *782:15 0.109881
6 *782:13 0.00250036
7 *782:11 0.00394084
8 *986:enable_hv *986:disable_n 0
9 *986:enable_hv *800:25 0
10 *782:13 *844:15 0.000104346
11 *782:13 *855:9 0
12 *73:37 *782:13 0.00123769
13 *671:15 *782:11 0.000660918
14 *673:15 *782:17 0.00659162
15 *681:15 *782:17 0.00173768
*RES
1 *988:analog_ctrl[1] *782:11 11.9139 
2 *782:11 *782:13 50.5179 
3 *782:13 *782:15 3.41 
4 *782:15 *782:17 326.797 
5 *782:17 *782:19 3.41 
6 *782:19 *986:enable_hv 217.42 
*END

*D_NET *783 0.334784
*CONN
*I *984:SUMCAPFB_EN I *D CF_ADC_DSM20
*I *988:analog_ctrl[200] O *D soc_sys
*CAP
1 *984:SUMCAPFB_EN 0.000726074
2 *988:analog_ctrl[200] 5.92556e-05
3 *783:33 0.00507387
4 *783:31 0.0043478
5 *783:29 0.0124388
6 *783:27 0.0174059
7 *783:13 0.0161373
8 *783:11 0.0111701
9 *783:9 0.0115593
10 *783:7 0.0116186
11 *984:SUMCAPFB_EN *984:SUMCAPIN[2] 0.000126203
12 *984:SUMCAPFB_EN *984:SUMCAPIN[1] 0
13 *984:SUMCAPFB_EN *984:SUMCAPIN[0] 0.000209477
14 *783:13 *785:13 0.0536259
15 *783:13 *788:13 0.0111814
16 *783:13 *877:13 0.00740575
17 *783:27 *785:23 0.00559549
18 *783:29 *794:59 0
19 *783:29 *808:29 0.0242376
20 *783:29 *814:17 0.0240127
21 *783:29 *820:17 7.6262e-05
22 *783:33 *785:53 0.00737304
23 *783:33 *796:13 0.00974561
24 *984:SUMCAPFB[1] *984:SUMCAPFB_EN 6.11802e-05
25 *984:SUMCAPFB[2] *984:SUMCAPFB_EN 0.00106989
26 *984:SUMCAPFB[0] *984:SUMCAPFB_EN 2.8038e-06
27 *20:11 *783:13 0
28 *114:21 *783:13 0.0346451
29 *655:57 *783:27 0.00100387
30 *669:19 *783:13 4.6988e-05
31 *735:25 *783:33 0.000320382
32 *766:25 *783:29 0
33 *768:21 *783:33 1.99271e-05
34 *771:25 *783:27 2.33124e-05
35 *771:31 *783:27 0.00261697
36 *772:13 *783:13 0.000798277
37 *774:13 *783:13 0.00248787
38 *775:13 *783:13 0.00410513
39 *777:21 *783:33 0.0261941
40 *779:17 *783:29 0.0119262
41 *779:21 *783:33 3.97677e-05
42 *780:13 *783:13 0.00952133
43 *781:17 *783:29 0.00577463
*RES
1 *988:analog_ctrl[200] *783:7 1.08036 
2 *783:7 *783:9 231.446 
3 *783:9 *783:11 3.41 
4 *783:11 *783:13 85.5541 
5 *783:13 *783:27 27.3396 
6 *783:27 *783:29 558.848 
7 *783:29 *783:31 4.5 
8 *783:31 *783:33 250.25 
9 *783:33 *984:SUMCAPFB_EN 25.0804 
*END

*D_NET *784 0.285939
*CONN
*I *984:SUMCAPIN[0] I *D CF_ADC_DSM20
*I *988:analog_ctrl[201] O *D soc_sys
*CAP
1 *984:SUMCAPIN[0] 0.000293766
2 *988:analog_ctrl[201] 5.92556e-05
3 *784:29 0.00491185
4 *784:27 0.00461808
5 *784:25 0.0102414
6 *784:23 0.0115358
7 *784:17 0.0106653
8 *784:15 0.00937088
9 *784:13 0.0071217
10 *784:11 0.0071217
11 *784:9 0.0123182
12 *784:7 0.0123775
13 *984:SUMCAPIN[0] *984:SUMCAPIN[2] 0.000340934
14 *984:SUMCAPIN[0] *984:SUMCAPIN[1] 0.000114405
15 *784:13 *787:13 0.0525701
16 *784:13 *792:39 0.0506068
17 *784:13 *875:13 0.0120826
18 *784:17 *801:17 0.00438123
19 *784:17 *813:17 0
20 *784:17 *816:17 0.000140405
21 *784:25 *785:25 0.00168801
22 *784:25 *789:17 0.00225947
23 *784:25 *818:17 0.000782399
24 *984:SUMCAPFB_EN *984:SUMCAPIN[0] 0.000209477
25 *984:SUMCAPFB[1] *984:SUMCAPIN[0] 0.000101651
26 *984:refsel[9] *984:SUMCAPIN[0] 4.25966e-05
27 *984:SUMCAP3[2] *784:29 0.00115397
28 *984:SUMCAP1[0] *784:29 0.00121774
29 *18:69 *784:29 0.00165883
30 *658:15 *784:17 0.0219426
31 *668:17 *784:29 0.00756744
32 *730:21 *784:29 0.000732777
33 *746:17 *784:25 0.00788017
34 *750:13 *784:17 0
35 *751:17 *784:25 0
36 *756:75 *784:29 0.00165172
37 *758:17 *784:29 0
38 *763:17 *784:25 0
39 *763:21 *784:29 0.000151102
40 *771:37 *784:29 0.00314356
41 *772:17 *784:25 0
42 *775:21 *784:29 0.0220822
43 *778:13 *784:13 0.000801713
*RES
1 *988:analog_ctrl[201] *784:7 1.08036 
2 *784:7 *784:9 244.652 
3 *784:9 *784:11 4.5 
4 *784:11 *784:13 508.179 
5 *784:13 *784:15 4.5 
6 *784:15 *784:17 287 
7 *784:17 *784:23 27.1964 
8 *784:23 *784:25 297.018 
9 *784:25 *784:27 4.5 
10 *784:27 *784:29 245.321 
11 *784:29 *984:SUMCAPIN[0] 16.9821 
*END

*D_NET *785 0.300509
*CONN
*I *984:SUMCAPIN[1] I *D CF_ADC_DSM20
*I *988:analog_ctrl[202] O *D soc_sys
*CAP
1 *984:SUMCAPIN[1] 0.00062527
2 *988:analog_ctrl[202] 5.92556e-05
3 *785:53 0.004936
4 *785:51 0.00431073
5 *785:49 0.00398699
6 *785:47 0.00460641
7 *785:33 0.00211814
8 *785:25 0.0106886
9 *785:23 0.0131994
10 *785:13 0.0135801
11 *785:11 0.00957059
12 *785:9 0.0116019
13 *785:7 0.0116612
14 *984:SUMCAPIN[1] *984:bw[2] 0.000109352
15 *984:SUMCAPIN[1] *984:SUMCAPIN[4] 0.000428998
16 *984:SUMCAPIN[1] *984:SUMCAPIN[3] 4.40781e-05
17 *984:SUMCAPIN[1] *984:SUMCAPIN[2] 0.00073686
18 *984:SUMCAPIN[1] *984:SUMCAPIN_EN 0.000102254
19 *785:25 *789:17 0.0115319
20 *785:47 *984:ODET_TH[3] 3.01616e-05
21 *785:47 *984:ODET_TH[1] 6.05161e-06
22 *785:47 *984:dig_test_sel[2] 0
23 *785:47 *984:qlev[0] 0
24 *785:53 *796:13 0.00991689
25 *984:SUMCAPIN[0] *984:SUMCAPIN[1] 0.000114405
26 *984:SUMCAPFB_EN *984:SUMCAPIN[1] 0
27 *984:refsel[9] *984:SUMCAPIN[1] 2.61099e-05
28 *18:75 *785:49 0.00341951
29 *19:53 *785:49 8.09004e-06
30 *20:11 *785:13 0
31 *20:45 *785:33 0.00130534
32 *651:10 *785:47 0.000432012
33 *653:15 *785:47 0.000430987
34 *658:15 *785:33 1.00375e-05
35 *669:19 *785:13 0.0455213
36 *720:37 *785:53 0.000320382
37 *750:13 *785:33 0.000902581
38 *755:33 *785:49 0.00446082
39 *756:35 *785:33 0.00137723
40 *756:45 *785:47 0
41 *756:47 *785:49 0.0124363
42 *756:51 *785:49 0.00235479
43 *757:41 *785:49 0.0206722
44 *757:45 *785:53 0
45 *759:13 *785:53 0.0181495
46 *771:25 *785:23 0.0037236
47 *771:31 *785:23 0.00271078
48 *772:17 *785:25 0
49 *783:13 *785:13 0.0536259
50 *783:27 *785:23 0.00559549
51 *783:33 *785:53 0.00737304
52 *784:25 *785:25 0.00168801
*RES
1 *988:analog_ctrl[202] *785:7 1.08036 
2 *785:7 *785:9 232.054 
3 *785:9 *785:11 3.41 
4 *785:11 *785:13 83.8245 
5 *785:13 *785:23 26.4528 
6 *785:23 *785:25 273.188 
7 *785:25 *785:33 48.1607 
8 *785:33 *785:47 30.8214 
9 *785:47 *785:49 257.857 
10 *785:49 *785:51 4.5 
11 *785:51 *785:53 221.911 
12 *785:53 *984:SUMCAPIN[1] 24.9018 
*END

*D_NET *786 0.30994
*CONN
*I *984:SUMCAPIN[2] I *D CF_ADC_DSM20
*I *988:analog_ctrl[203] O *D soc_sys
*CAP
1 *984:SUMCAPIN[2] 0.000404279
2 *988:analog_ctrl[203] 5.92556e-05
3 *786:21 0.00369641
4 *786:19 0.00329213
5 *786:17 0.00871158
6 *786:15 0.00871158
7 *786:13 0.0161856
8 *786:11 0.0161856
9 *786:9 0.0120938
10 *786:7 0.0121531
11 *984:SUMCAPIN[2] *984:SUMCAPIN[4] 3.57632e-05
12 *984:SUMCAPIN[2] *984:SUMCAPIN[3] 5.85357e-05
13 *786:13 *794:45 0.0230677
14 *786:13 *809:13 0.000364308
15 *786:17 *799:17 0.00511675
16 *786:21 *789:29 0.000518092
17 *984:SUMCAPIN[1] *984:SUMCAPIN[2] 0.00073686
18 *984:SUMCAPIN[0] *984:SUMCAPIN[2] 0.000340934
19 *984:SUMCAPFB_EN *984:SUMCAPIN[2] 0.000126203
20 *20:47 *786:17 0.00240804
21 *654:13 *786:17 0.0427003
22 *704:17 *786:17 0.00173375
23 *719:21 *786:21 8.43535e-06
24 *731:21 *786:21 0.00166789
25 *745:21 *786:21 0.000835169
26 *750:17 *786:21 0.0219643
27 *751:13 *786:13 0.0526697
28 *755:33 *786:17 0.00116944
29 *755:39 *786:21 0.00421252
30 *764:29 *786:21 0.0209013
31 *771:33 *786:17 0
32 *780:17 *786:17 0.0478106
*RES
1 *988:analog_ctrl[203] *786:7 1.08036 
2 *786:7 *786:9 241.616 
3 *786:9 *786:11 4.5 
4 *786:11 *786:13 495.446 
5 *786:13 *786:15 4.5 
6 *786:15 *786:17 591.179 
7 *786:17 *786:19 4.5 
8 *786:19 *786:21 223.964 
9 *786:21 *984:SUMCAPIN[2] 20.0179 
*END

*D_NET *787 0.332295
*CONN
*I *984:SUMCAPIN[3] I *D CF_ADC_DSM20
*I *988:analog_ctrl[204] O *D soc_sys
*CAP
1 *984:SUMCAPIN[3] 0.000940601
2 *988:analog_ctrl[204] 5.92556e-05
3 *787:21 0.00568947
4 *787:19 0.00474887
5 *787:17 0.00755689
6 *787:15 0.00755689
7 *787:13 0.00664008
8 *787:11 0.00664008
9 *787:9 0.012314
10 *787:7 0.0123732
11 *984:SUMCAPIN[3] *984:bw[1] 7.84094e-06
12 *984:SUMCAPIN[3] *984:bw[2] 0.000115446
13 *984:SUMCAPIN[3] *984:SUMCAPIN[4] 6.22816e-05
14 *984:SUMCAPIN[3] *984:SUMCAPIN_EN 3.29342e-05
15 *984:SUMCAPIN[3] *823:21 1.90491e-05
16 *787:13 *792:39 0.000883831
17 *787:13 *875:13 0.0103758
18 *787:17 *810:17 0.0065149
19 *787:21 *984:TESTMODE 0
20 *787:21 *788:21 0.0229281
21 *984:SUMCAPIN[2] *984:SUMCAPIN[3] 5.85357e-05
22 *984:SUMCAPIN[1] *984:SUMCAPIN[3] 4.40781e-05
23 *984:refsel[12] *984:SUMCAPIN[3] 0.000672167
24 *984:refsel[9] *984:SUMCAPIN[3] 7.31971e-05
25 *984:DACCAP[4] *787:21 0.000303483
26 *984:FCAP1[4] *984:SUMCAPIN[3] 0.00129479
27 *984:FCAP1[4] *787:21 3.91935e-05
28 *984:FCAP1[5] *984:SUMCAPIN[3] 1.94146e-05
29 *984:FCAP1[1] *787:21 7.93932e-06
30 *984:RESCAP[0] *787:21 5.9438e-05
31 *984:RESCAP[1] *787:21 0.000320908
32 *984:IPCAP1OFFSET *984:SUMCAPIN[3] 3.10151e-05
33 *984:IPCAP1OFFSET *787:21 1.07719e-05
34 *662:9 *787:21 3.72312e-06
35 *663:17 *787:21 4.12921e-06
36 *663:19 *787:21 2.43061e-05
37 *663:25 *787:21 1.6539e-05
38 *665:23 *787:21 0.0145196
39 *671:35 *787:9 0
40 *701:25 *984:SUMCAPIN[3] 2.77258e-05
41 *702:27 *984:SUMCAPIN[3] 6.42095e-05
42 *706:25 *984:SUMCAPIN[3] 0.000715986
43 *744:25 *787:21 0.00585335
44 *746:27 *787:21 0.000150767
45 *756:75 *787:21 6.06291e-06
46 *761:17 *787:17 0.0472449
47 *763:17 *787:17 0.0472449
48 *767:21 *984:SUMCAPIN[3] 0.000587062
49 *767:21 *787:21 0.000431323
50 *773:21 *984:SUMCAPIN[3] 0.000198839
51 *778:13 *787:13 0.0542371
52 *784:13 *787:13 0.0525701
*RES
1 *988:analog_ctrl[204] *787:7 1.08036 
2 *787:7 *787:9 244.348 
3 *787:9 *787:11 4.5 
4 *787:11 *787:13 510.643 
5 *787:13 *787:15 4.5 
6 *787:15 *787:17 580.857 
7 *787:17 *787:19 4.5 
8 *787:19 *787:21 224.786 
9 *787:21 *984:SUMCAPIN[3] 35.9911 
*END

*D_NET *788 0.3044
*CONN
*I *984:SUMCAPIN[4] I *D CF_ADC_DSM20
*I *988:analog_ctrl[205] O *D soc_sys
*CAP
1 *984:SUMCAPIN[4] 0.000308117
2 *988:analog_ctrl[205] 5.92556e-05
3 *788:31 0.00116776
4 *788:21 0.00375205
5 *788:19 0.00289241
6 *788:17 0.00802431
7 *788:15 0.00802431
8 *788:13 0.0166764
9 *788:11 0.0166764
10 *788:9 0.0115759
11 *788:7 0.0116352
12 *984:SUMCAPIN[4] *984:SUMCAPIN_EN 0.000508467
13 *788:9 *794:39 1.94135e-05
14 *788:17 *791:23 0.00733972
15 *984:SUMCAPIN[3] *984:SUMCAPIN[4] 6.22816e-05
16 *984:SUMCAPIN[2] *984:SUMCAPIN[4] 3.57632e-05
17 *984:SUMCAPIN[1] *984:SUMCAPIN[4] 0.000428998
18 *984:SUMCAP3[2] *788:31 0.00168116
19 *984:SUMCAP1[0] *788:31 9.82592e-05
20 *984:IPCAP1[0] *788:31 3.67405e-05
21 *984:FCAP1[2] *788:31 0.000265803
22 *984:FCAP1[1] *788:31 1.437e-05
23 *14:35 *788:31 6.78134e-05
24 *18:69 *788:31 0.00058524
25 *114:21 *788:13 0.00012071
26 *671:35 *788:9 4.14919e-05
27 *738:35 *788:31 0.00249888
28 *746:27 *788:21 0.00425019
29 *751:17 *788:17 0.047433
30 *756:75 *788:31 0.000128707
31 *762:21 *788:17 0.0482355
32 *767:21 *788:21 0.0229262
33 *774:13 *788:13 0.00105785
34 *780:13 *788:13 0.0516621
35 *783:13 *788:13 0.0111814
36 *787:21 *788:21 0.0229281
*RES
1 *988:analog_ctrl[205] *788:7 1.08036 
2 *788:7 *788:9 231.902 
3 *788:9 *788:11 4.5 
4 *788:11 *788:13 504.893 
5 *788:13 *788:15 4.5 
6 *788:15 *788:17 593.607 
7 *788:17 *788:19 4.5 
8 *788:19 *788:21 216.161 
9 *788:21 *788:31 44.8036 
10 *788:31 *984:SUMCAPIN[4] 11.9732 
*END

*D_NET *789 0.281404
*CONN
*I *984:SUMCAPIN_EN I *D CF_ADC_DSM20
*I *988:analog_ctrl[206] O *D soc_sys
*CAP
1 *984:SUMCAPIN_EN 0.000321711
2 *988:analog_ctrl[206] 5.92556e-05
3 *789:29 0.00391385
4 *789:27 0.00359214
5 *789:25 0.00954942
6 *789:23 0.010392
7 *789:17 0.00558234
8 *789:15 0.00473973
9 *789:13 0.0165909
10 *789:11 0.0165909
11 *789:9 0.0132695
12 *789:7 0.0133287
13 *984:SUMCAPIN_EN *984:bw[2] 0.000768074
14 *789:9 *794:43 0.00808442
15 *789:13 *801:13 0.0103948
16 *789:17 *818:17 0.0243131
17 *984:SUMCAPIN[4] *984:SUMCAPIN_EN 0.000508467
18 *984:SUMCAPIN[3] *984:SUMCAPIN_EN 3.29342e-05
19 *984:SUMCAPIN[1] *984:SUMCAPIN_EN 0.000102254
20 *984:phi2_buffer *789:25 0
21 *14:35 *789:29 0.000113886
22 *20:23 *789:23 0
23 *660:14 *789:25 0.000269578
24 *662:19 *789:25 0.0117892
25 *665:27 *789:25 0
26 *667:19 *789:25 0
27 *668:21 *789:25 0
28 *693:41 *789:17 0.00520908
29 *725:21 *789:29 0.000141343
30 *731:21 *789:29 0.00179309
31 *740:13 *789:25 0.00243762
32 *744:17 *789:25 0
33 *750:13 *789:25 0
34 *753:23 *789:29 0.00432559
35 *764:29 *789:29 0.0218953
36 *772:17 *789:17 0
37 *772:21 *789:29 0.0234485
38 *774:21 *789:29 6.87574e-05
39 *779:13 *789:13 0.0534685
40 *784:25 *789:17 0.00225947
41 *785:25 *789:17 0.0115319
42 *786:21 *789:29 0.000518092
*RES
1 *988:analog_ctrl[206] *789:7 1.08036 
2 *789:7 *789:9 260.741 
3 *789:9 *789:11 4.5 
4 *789:11 *789:13 503.25 
5 *789:13 *789:15 4.5 
6 *789:15 *789:17 298.536 
7 *789:17 *789:23 21.0357 
8 *789:23 *789:25 273.036 
9 *789:25 *789:27 4.5 
10 *789:27 *789:29 234.643 
11 *789:29 *984:SUMCAPIN_EN 19.2054 
*END

*D_NET *790 0.457691
*CONN
*I *984:SIGN I *D CF_ADC_DSM20
*I *988:analog_ctrl[20] O *D soc_sys
*CAP
1 *984:SIGN 0.00157879
2 *988:analog_ctrl[20] 0.000464542
3 *790:41 0.0209568
4 *790:39 0.019465
5 *790:29 0.0167043
6 *790:27 0.0170812
7 *790:17 0.0100301
8 *790:15 0.0100307
9 *984:SIGN *984:itrim_comp[3] 0.00350181
10 *984:SIGN *984:BUF_FCHOP[1] 2.46781e-05
11 *790:15 *791:11 0.000285192
12 *790:15 *792:13 7.15126e-05
13 *790:15 *792:15 3.29849e-05
14 *790:15 *866:13 0.000232875
15 *790:17 *792:15 0.0457986
16 *790:17 *794:13 0.0457383
17 *790:17 *805:13 2.30802e-05
18 *790:17 *867:15 0.000822992
19 *790:27 *792:15 3.8837e-05
20 *790:27 *805:13 0.00156729
21 *790:27 *805:23 8.58071e-05
22 *790:29 *805:25 0.000357136
23 *790:29 *808:25 0
24 *790:41 *794:49 0.0261143
25 *984:MODBIT *984:SIGN 2.72228e-05
26 *984:phi2_buffer *984:SIGN 3.28552e-05
27 *984:MODINPUT *984:SIGN 0.00353716
28 *40:17 *790:41 0.0283299
29 *647:17 *790:29 0.00900616
30 *671:15 *790:15 0.000422073
31 *671:15 *790:17 0.00023221
32 *671:29 *790:29 0.00712959
33 *671:37 *790:29 0
34 *688:11 *790:27 0.000815389
35 *711:27 *790:29 0.000810441
36 *715:31 *790:15 0.000115959
37 *715:31 *790:17 0.00918941
38 *715:33 *790:29 0.0944642
39 *723:31 *790:27 1.53359e-05
40 *728:25 *790:27 2.05629e-05
41 *728:25 *790:29 0.000621915
42 *736:9 *790:29 0.00205767
43 *750:9 *790:29 0.000214301
44 *754:13 *790:29 0.000913786
45 *758:9 *790:29 0.000352481
46 *760:13 *790:29 0.000528424
47 *762:13 *790:29 0.0646477
48 *766:25 *790:41 0.00549247
49 *768:17 *790:41 0.00614401
50 *770:15 *790:15 0.000234461
51 *770:15 *790:27 5.1342e-05
52 *770:25 *790:27 0.000669485
53 *770:47 *790:41 0.000607892
*RES
1 *988:analog_ctrl[20] *790:15 7.18867 
2 *790:15 *790:17 73.4109 
3 *790:17 *790:27 11.697 
4 *790:27 *790:29 908.625 
5 *790:29 *790:39 11.9834 
6 *790:39 *790:41 99.123 
7 *790:41 *984:SIGN 14.4688 
*END

*D_NET *791 0.588496
*CONN
*I *984:CHOP_EN I *D CF_ADC_DSM20
*I *988:analog_ctrl[21] O *D soc_sys
*CAP
1 *984:CHOP_EN 0.00183193
2 *988:analog_ctrl[21] 0.000181769
3 *791:23 0.0173592
4 *791:21 0.126724
5 *791:15 0.121355
6 *791:11 0.0103409
7 *791:21 *794:45 0.00251218
8 *791:21 *797:13 0.0276702
9 *791:21 *798:13 0.0259337
10 *791:21 *803:13 0.00851355
11 *791:21 *807:13 0.011269
12 *791:21 *809:13 0.00963831
13 *791:21 *810:13 0.0152876
14 *791:21 *814:13 0.0129633
15 *791:21 *818:13 0.0252342
16 *791:21 *820:13 0.0250275
17 *791:21 *872:21 0.00895471
18 *791:21 *875:13 0.0103468
19 *791:23 *805:37 0.02705
20 *791:23 *810:17 0.00110613
21 *31:13 *791:21 0.00251218
22 *33:13 *791:21 0.00251218
23 *35:13 *791:21 0.00251218
24 *36:9 *791:21 0.00251218
25 *39:9 *791:21 0.00251218
26 *66:17 *791:21 0.00251218
27 *110:18 *791:15 0.0110475
28 *121:14 *791:15 0
29 *652:17 *791:21 0.00373751
30 *693:41 *791:23 0.000392182
31 *715:45 *791:23 0.00294676
32 *741:17 *791:23 0
33 *751:17 *791:23 0.00132238
34 *753:13 *791:21 0.00855982
35 *754:17 *791:23 0.00614641
36 *760:21 *791:23 0.0065534
37 *761:17 *791:23 0.0012221
38 *762:21 *791:23 0.0065534
39 *770:15 *791:11 0.000151215
40 *781:13 *791:21 0.0278656
41 *788:17 *791:23 0.00733972
42 *790:15 *791:11 0.000285192
*RES
1 *988:analog_ctrl[21] *791:11 8.13038 
2 *791:11 *791:15 43.7861 
3 *791:15 *791:21 27.3079 
4 *791:21 *791:23 70.4655 
5 *791:23 *984:CHOP_EN 10.9419 
*END

*D_NET *792 0.400352
*CONN
*I *984:BUF_CHOP_EN I *D CF_ADC_DSM20
*I *988:analog_ctrl[22] O *D soc_sys
*CAP
1 *984:BUF_CHOP_EN 0.00245854
2 *988:analog_ctrl[22] 0.000149578
3 *792:43 0.00661222
4 *792:41 0.00415368
5 *792:39 0.0170295
6 *792:37 0.0170295
7 *792:35 0.0121174
8 *792:33 0.0121174
9 *792:31 0.00852695
10 *792:29 0.00930369
11 *792:15 0.00993963
12 *792:13 0.00931248
13 *984:BUF_CHOP_EN *984:BUF_FCHOP[2] 0.000170571
14 *984:BUF_CHOP_EN *984:BUF_FCHOP[1] 3.22646e-05
15 *792:29 *794:27 0.00032338
16 *792:29 *808:13 1.17912e-05
17 *792:29 *808:23 9.4082e-05
18 *792:31 *794:29 0.010896
19 *792:31 *808:25 0.0414985
20 *792:43 *794:49 0.000101391
21 *792:43 *809:17 0.0263606
22 *792:43 *872:25 4.99734e-05
23 *792:43 *875:17 0.0262545
24 *984:phi2_buffer *984:BUF_CHOP_EN 0.000346733
25 *984:MODINPUT *984:BUF_CHOP_EN 0
26 *108:13 *792:29 0
27 *649:26 *792:35 0
28 *671:21 *792:31 0.00063581
29 *671:29 *792:31 0.000445919
30 *688:11 *792:15 0.000721419
31 *688:13 *792:29 0.000282121
32 *693:21 *792:29 0.000101601
33 *693:21 *792:31 0.000966931
34 *715:31 *792:29 4.73891e-05
35 *716:39 *792:29 0.000590234
36 *716:39 *792:31 0.000529872
37 *720:29 *792:29 4.98422e-05
38 *720:29 *792:31 0.000772143
39 *723:31 *792:31 0.000100235
40 *723:33 *792:29 2.69599e-06
41 *728:31 *792:29 0.000132889
42 *748:9 *792:15 0.0180849
43 *753:13 *792:39 0.00997062
44 *756:45 *984:BUF_CHOP_EN 0
45 *766:15 *792:31 0.00216415
46 *767:13 *792:39 0
47 *768:13 *792:39 5.38537e-05
48 *770:15 *792:13 1.22363e-05
49 *770:15 *792:15 0.0469831
50 *770:27 *792:31 0.000173275
51 *770:47 *792:43 0.0049953
52 *776:13 *792:39 9.35114e-06
53 *778:13 *792:39 0.000203613
54 *784:13 *792:39 0.0506068
55 *787:13 *792:39 0.000883831
56 *790:15 *792:13 7.15126e-05
57 *790:15 *792:15 3.29849e-05
58 *790:17 *792:15 0.0457986
59 *790:27 *792:15 3.8837e-05
*RES
1 *988:analog_ctrl[22] *792:13 4.72692 
2 *792:13 *792:15 74.8522 
3 *792:15 *792:29 17.468 
4 *792:29 *792:31 405.089 
5 *792:31 *792:33 4.5 
6 *792:33 *792:35 241.161 
7 *792:35 *792:37 4.5 
8 *792:37 *792:39 505.714 
9 *792:39 *792:41 4.5 
10 *792:41 *792:43 323.732 
11 *792:43 *984:BUF_CHOP_EN 47.1518 
*END

*D_NET *793 0.260667
*CONN
*I *984:bypass_p I *D CF_ADC_DSM20
*I *988:analog_ctrl[23] O *D soc_sys
*CAP
1 *984:bypass_p 0.000176108
2 *988:analog_ctrl[23] 6.5687e-05
3 *793:17 0.00911303
4 *793:15 0.00893692
5 *793:13 0.0785356
6 *793:11 0.0785356
7 *793:9 0.00797505
8 *793:7 0.00804073
9 *984:bypass_p *984:disable_mod 3.83866e-05
10 *984:bypass_p *984:dig_test_sel[0] 0.000138188
11 *793:17 *984:RESET1 7.1588e-05
12 *793:17 *984:dig_test_sel[1] 0.000117437
13 *793:17 *795:17 0.030512
14 *793:17 *798:17 3.00832e-05
15 *793:17 *802:17 0.0340719
16 *793:17 *806:17 0.000906988
17 *121:14 *793:9 0.00340196
18 *704:17 *793:17 0
19 *755:33 *793:17 0
*RES
1 *988:analog_ctrl[23] *793:7 1.08036 
2 *793:7 *793:9 161.625 
3 *793:9 *793:11 3.41 
4 *793:11 *793:13 228.606 
5 *793:13 *793:15 3.41 
6 *793:15 *793:17 72.4897 
7 *793:17 *984:bypass_p 7.50463 
*END

*D_NET *794 0.473443
*CONN
*I *984:bypass_n I *D CF_ADC_DSM20
*I *988:analog_ctrl[24] O *D soc_sys
*CAP
1 *984:bypass_n 0.001972
2 *988:analog_ctrl[24] 0.000108018
3 *794:59 0.00296975
4 *794:49 0.00786664
5 *794:47 0.00686889
6 *794:45 0.0112433
7 *794:43 0.0253781
8 *794:39 0.0142489
9 *794:29 0.00794279
10 *794:27 0.00855876
11 *794:13 0.0117776
12 *794:11 0.0111556
13 *984:bypass_n *984:qlev[0] 0.000836234
14 *794:13 *805:13 0.0407099
15 *794:13 *828:13 0.00561861
16 *794:13 *829:13 0.000301554
17 *794:13 *866:13 0.000100215
18 *794:27 *808:13 0.00147062
19 *794:27 *829:23 6.60633e-06
20 *794:29 *808:23 0.000169615
21 *794:45 *809:13 0.0119319
22 *794:45 *873:13 0
23 *794:49 *809:17 0.000101391
24 *794:49 *872:25 0.000106304
25 *794:49 *875:17 0.000106304
26 *794:59 *820:17 0
27 *15:27 *984:bypass_n 1.81782e-05
28 *20:11 *794:45 0
29 *31:13 *794:45 0.0362341
30 *40:17 *794:59 0.000358471
31 *108:13 *794:27 0
32 *652:17 *794:45 0.0511873
33 *671:15 *794:13 0.00180637
34 *671:21 *794:27 0.000504492
35 *671:21 *794:29 0.00386405
36 *671:29 *794:29 0.00186083
37 *671:35 *794:39 4.43393e-05
38 *687:11 *794:27 0
39 *693:21 *794:27 0.000137249
40 *693:39 *794:39 0.000129552
41 *715:31 *794:13 0.00860334
42 *715:31 *794:27 8.22793e-06
43 *715:33 *794:29 5.56984e-05
44 *720:29 *794:29 0.000264935
45 *728:25 *794:29 0.000958319
46 *765:17 *794:49 0.00595516
47 *766:15 *794:39 0.000314721
48 *766:25 *794:59 0.00195794
49 *770:27 *794:29 0.0415213
50 *770:47 *794:49 0.0233693
51 *771:19 *794:39 0.000566465
52 *775:17 *794:49 0.00531566
53 *783:29 *794:59 0
54 *786:13 *794:45 0.0230677
55 *788:9 *794:39 1.94135e-05
56 *789:9 *794:43 0.00808442
57 *790:17 *794:13 0.0457383
58 *790:41 *794:49 0.0261143
59 *791:21 *794:45 0.00251218
60 *792:29 *794:27 0.00032338
61 *792:31 *794:29 0.010896
62 *792:43 *794:49 0.000101391
*RES
1 *988:analog_ctrl[24] *794:11 5.2225 
2 *794:11 *794:13 71.8975 
3 *794:13 *794:27 19.3063 
4 *794:27 *794:29 394.411 
5 *794:29 *794:39 12.7761 
6 *794:39 *794:43 45.2181 
7 *794:43 *794:45 90.1303 
8 *794:45 *794:47 3.41 
9 *794:47 *794:49 54.8051 
10 *794:49 *794:59 35.8061 
11 *794:59 *984:bypass_n 39.3661 
*END

*D_NET *795 0.325592
*CONN
*I *984:ODET I *D CF_ADC_DSM20
*I *988:analog_ctrl[25] O *D soc_sys
*CAP
1 *984:ODET 3.22026e-05
2 *988:analog_ctrl[25] 6.5687e-05
3 *795:17 0.0107866
4 *795:15 0.0107544
5 *795:13 0.0598643
6 *795:11 0.0598643
7 *795:9 0.0100914
8 *795:7 0.0101571
9 *984:ODET *984:ODET_TH[0] 1.61304e-05
10 *984:ODET *984:itrim_comp[1] 5.35603e-06
11 *795:13 *804:13 0
12 *795:13 *874:13 0.105751
13 *795:17 *798:17 0.00940811
14 *795:17 *806:17 0.0100375
15 *15:27 *795:17 0.00120655
16 *129:29 *795:9 0.00690189
17 *654:17 *795:13 0
18 *660:12 *795:17 0.000137396
19 *704:17 *795:17 0
20 *793:17 *795:17 0.030512
*RES
1 *988:analog_ctrl[25] *795:7 1.08036 
2 *795:7 *795:9 204.732 
3 *795:9 *795:11 3.41 
4 *795:11 *795:13 227.165 
5 *795:13 *795:15 3.41 
6 *795:15 *795:17 64.4166 
7 *795:17 *984:ODET 6.90303 
*END

*D_NET *796 0.277756
*CONN
*I *984:TESTMODE I *D CF_ADC_DSM20
*I *988:analog_ctrl[26] O *D soc_sys
*CAP
1 *984:TESTMODE 0.00125275
2 *988:analog_ctrl[26] 6.5687e-05
3 *796:13 0.0397482
4 *796:11 0.0384954
5 *796:9 0.0408434
6 *796:7 0.0409091
7 *20:59 *984:TESTMODE 0.000210201
8 *77:16 *796:9 0.0200075
9 *720:37 *796:13 0.000345474
10 *732:33 *796:13 0.0143231
11 *737:13 *796:13 0
12 *759:13 *796:13 0.0618925
13 *783:33 *796:13 0.00974561
14 *785:53 *796:13 0.00991689
15 *787:21 *984:TESTMODE 0
*RES
1 *988:analog_ctrl[26] *796:7 1.08036 
2 *796:7 *796:9 837.223 
3 *796:9 *796:11 4.5 
4 *796:11 *796:13 1164.91 
5 *796:13 *984:TESTMODE 29.0089 
*END

*D_NET *797 0.489407
*CONN
*I *984:RESET1 I *D CF_ADC_DSM20
*I *988:analog_ctrl[27] O *D soc_sys
*CAP
1 *984:RESET1 0.00657253
2 *988:analog_ctrl[27] 6.59744e-05
3 *797:17 0.0132231
4 *797:15 0.00665054
5 *797:13 0.0249566
6 *797:11 0.0249566
7 *797:9 0.0122456
8 *797:7 0.0123115
9 *984:RESET1 *984:FCHOP[0] 5.09586e-06
10 *984:RESET1 *984:dig_test_sel[1] 0.000130439
11 *984:RESET1 *814:17 0.000403684
12 *984:RESET1 *820:17 0.000575176
13 *797:13 *798:13 0.143692
14 *797:13 *810:13 0.00126608
15 *797:13 *814:13 0.000233689
16 *797:13 *820:13 5.71943e-05
17 *797:13 *875:13 0
18 *797:17 *808:29 0.000116155
19 *797:17 *814:17 0.00545903
20 *797:17 *820:17 0.00493538
21 *39:9 *797:13 0
22 *40:17 *984:RESET1 0.00153964
23 *40:17 *797:17 0.0244884
24 *76:25 *797:9 0.00777984
25 *738:13 *797:13 0.0043251
26 *743:13 *797:13 0.00314746
27 *755:33 *984:RESET1 0
28 *781:13 *797:13 0.147337
29 *781:17 *984:RESET1 0.0020895
30 *781:17 *797:17 0.0131025
31 *791:21 *797:13 0.0276702
32 *793:17 *984:RESET1 7.1588e-05
*RES
1 *988:analog_ctrl[27] *797:7 1.08036 
2 *797:7 *797:9 248.446 
3 *797:9 *797:11 3.41 
4 *797:11 *797:13 231.489 
5 *797:13 *797:15 3.41 
6 *797:15 *797:17 51.3459 
7 *797:17 *984:RESET1 15.3242 
*END

*D_NET *798 0.453188
*CONN
*I *984:RESET2 I *D CF_ADC_DSM20
*I *988:analog_ctrl[28] O *D soc_sys
*CAP
1 *984:RESET2 8.03596e-05
2 *988:analog_ctrl[28] 6.59744e-05
3 *798:17 0.00989981
4 *798:15 0.00981945
5 *798:13 0.0240966
6 *798:11 0.0240966
7 *798:9 0.0122834
8 *798:7 0.0123494
9 *984:RESET2 *984:ODET_TH[0] 8.65817e-05
10 *984:RESET2 *984:RESET3 0.000103304
11 *984:RESET2 *984:disable_mod 6.31544e-05
12 *798:13 *807:13 0.000540738
13 *798:13 *810:13 0.138139
14 *798:17 *984:FCHOP[1] 0.000431027
15 *798:17 *807:17 0.00481568
16 *798:17 *807:21 0.000833875
17 *798:17 *815:17 0.00503941
18 *798:17 *819:17 0.00563721
19 *15:27 *798:17 0.000594087
20 *107:29 *798:9 0.00777984
21 *704:17 *798:17 0.0134476
22 *731:13 *798:13 0.00208263
23 *755:33 *798:17 0.00183765
24 *791:21 *798:13 0.0259337
25 *793:17 *798:17 3.00832e-05
26 *795:17 *798:17 0.00940811
27 *797:13 *798:13 0.143692
*RES
1 *988:analog_ctrl[28] *798:7 1.08036 
2 *798:7 *798:9 249.054 
3 *798:9 *798:11 3.41 
4 *798:11 *798:13 225.219 
5 *798:13 *798:15 3.41 
6 *798:15 *798:17 57.1113 
7 *798:17 *984:RESET2 7.1913 
*END

*D_NET *799 0.371228
*CONN
*I *984:RESET3 I *D CF_ADC_DSM20
*I *988:analog_ctrl[29] O *D soc_sys
*CAP
1 *984:RESET3 0.00028435
2 *988:analog_ctrl[29] 6.5687e-05
3 *799:17 0.0136591
4 *799:15 0.0133747
5 *799:13 0.0544532
6 *799:11 0.0544532
7 *799:9 0.00320668
8 *799:7 0.00327237
9 *984:RESET3 *984:ODET_TH[1] 3.96896e-05
10 *984:RESET3 *984:ODET_TH[0] 1.75151e-05
11 *984:RESET3 *984:disable_mod 0.000384797
12 *984:RESET3 *984:dig_test_sel[2] 3.90649e-05
13 *799:13 *813:13 0
14 *799:13 *844:21 0.140579
15 *799:17 *804:17 0.0308534
16 *799:17 *812:17 0.000191118
17 *799:17 *813:17 0.00144495
18 *984:RESET2 *984:RESET3 0.000103304
19 *15:27 *984:RESET3 2.07112e-05
20 *651:10 *799:17 0.000222486
21 *653:23 *799:17 0.00237683
22 *654:13 *799:17 0.00606804
23 *704:17 *799:17 0.0410007
24 *786:17 *799:17 0.00511675
*RES
1 *988:analog_ctrl[29] *799:7 1.08036 
2 *799:7 *799:9 63.875 
3 *799:9 *799:11 3.41 
4 *799:11 *799:13 224.859 
5 *799:13 *799:15 3.41 
6 *799:15 *799:17 89.7481 
7 *799:17 *984:RESET3 8.92599 
*END

*D_NET *800 0.278293
*CONN
*I *986:disable_p I *D CF_BUF_HIZ
*I *988:analog_ctrl[2] O *D soc_sys
*CAP
1 *986:disable_p 1.27254e-05
2 *988:analog_ctrl[2] 0.00391212
3 *800:25 0.00446906
4 *800:23 0.00445634
5 *800:21 0.118388
6 *800:19 0.1223
7 *800:19 *811:15 0.00080668
8 *800:19 *844:15 0.000314973
9 *800:25 *986:disable_n 0.00593092
10 *986:enable_hv *800:25 0
11 *51:11 *800:19 0.0111186
12 *88:12 *800:19 0.00597592
13 *108:13 *800:19 0.000411931
14 *671:15 *800:19 0.000195129
*RES
1 *988:analog_ctrl[2] *800:19 42.643 
2 *800:19 *800:21 326.905 
3 *800:21 *800:23 3.41 
4 *800:23 *800:25 131.268 
5 *800:25 *986:disable_p 0.267857 
*END

*D_NET *801 0.396057
*CONN
*I *984:RESET_DEC_INPUT I *D CF_ADC_DSM20
*I *988:analog_ctrl[30] O *D soc_sys
*CAP
1 *984:RESET_DEC_INPUT 0.000378214
2 *988:analog_ctrl[30] 6.5687e-05
3 *801:17 0.0124608
4 *801:15 0.0120826
5 *801:13 0.0412144
6 *801:11 0.0412144
7 *801:9 0.012865
8 *801:7 0.0129307
9 *984:RESET_DEC_INPUT *984:FCHOP[1] 4.60239e-05
10 *984:RESET_DEC_INPUT *984:itrim_comp[1] 0.00049099
11 *984:RESET_DEC_INPUT *984:BUF_FCHOP[1] 0.000145072
12 *984:RESET_DEC_INPUT *984:BUF_FCHOP[0] 7.01273e-05
13 *984:RESET_DEC_INPUT *984:FCHOP[2] 0.000388985
14 *801:13 *812:13 0.138369
15 *801:13 *816:13 0
16 *801:17 *804:17 2.33124e-05
17 *801:17 *812:17 0.0257177
18 *801:17 *816:17 0.00512781
19 *801:17 *817:17 0.00573609
20 *104:29 *801:13 0.0376085
21 *658:15 *801:17 0.00529492
22 *658:19 *801:13 4.24297e-05
23 *725:13 *801:13 0.00299768
24 *730:13 *801:13 0.00270462
25 *733:15 *801:13 0.0171284
26 *741:13 *801:13 0
27 *779:13 *801:13 0.00617761
28 *784:17 *801:17 0.00438123
29 *789:13 *801:13 0.0103948
*RES
1 *988:analog_ctrl[30] *801:7 1.08036 
2 *801:7 *801:9 260.589 
3 *801:9 *801:11 3.41 
4 *801:11 *801:13 224.499 
5 *801:13 *801:15 3.41 
6 *801:15 *801:17 54.2725 
7 *801:17 *984:RESET_DEC_INPUT 10.4815 
*END

*D_NET *802 0.24145
*CONN
*I *984:FCHOP[0] I *D CF_ADC_DSM20
*I *988:analog_ctrl[31] O *D soc_sys
*CAP
1 *984:FCHOP[0] 3.70044e-05
2 *988:analog_ctrl[31] 6.5687e-05
3 *802:17 0.0194068
4 *802:15 0.0193698
5 *802:13 0.0750029
6 *802:11 0.0750029
7 *802:9 0.00469139
8 *802:7 0.00475708
9 *802:17 *984:dig_test_sel[1] 0.00126166
10 *802:17 *806:17 0.00120407
11 *802:17 *874:17 0
12 *984:RESET1 *984:FCHOP[0] 5.09586e-06
13 *677:15 *802:13 0.00657406
14 *704:17 *802:17 0
15 *793:17 *802:17 0.0340719
*RES
1 *988:analog_ctrl[31] *802:7 1.08036 
2 *802:7 *802:9 93.625 
3 *802:9 *802:11 3.41 
4 *802:11 *802:13 222.12 
5 *802:13 *802:15 3.41 
6 *802:15 *802:17 83.8449 
7 *802:17 *984:FCHOP[0] 6.90303 
*END

*D_NET *803 0.430753
*CONN
*I *984:FCHOP[1] I *D CF_ADC_DSM20
*I *988:analog_ctrl[32] O *D soc_sys
*CAP
1 *984:FCHOP[1] 0.000702798
2 *988:analog_ctrl[32] 6.59744e-05
3 *803:23 0.00117951
4 *803:17 0.00512575
5 *803:15 0.00464904
6 *803:13 0.0297104
7 *803:11 0.0297104
8 *803:9 0.0119898
9 *803:7 0.0120557
10 *984:FCHOP[1] *984:ODET_TH[4] 3.33276e-05
11 *984:FCHOP[1] *984:ODET_TH[2] 0
12 *984:FCHOP[1] *984:BUF_FCHOP[1] 1.4474e-05
13 *984:FCHOP[1] *984:FCHOP[2] 7.39456e-05
14 *984:FCHOP[1] *807:21 0.00225376
15 *803:13 *809:13 0.138722
16 *803:13 *818:13 0
17 *803:13 *820:13 0
18 *803:13 *872:21 0.109886
19 *803:17 *807:17 0.021516
20 *803:17 *815:17 0.000172877
21 *803:23 *807:21 0.000788323
22 *984:RESET_DEC_INPUT *984:FCHOP[1] 4.60239e-05
23 *109:14 *803:9 0.00755878
24 *651:10 *984:FCHOP[1] 0.000364385
25 *651:10 *803:17 0.0122244
26 *651:10 *803:23 0.00202319
27 *653:15 *984:FCHOP[1] 0.0014224
28 *704:17 *803:17 0.00481313
29 *704:17 *803:23 0.000450831
30 *767:13 *803:13 0.0115538
31 *768:13 *803:13 0.0127024
32 *781:13 *803:13 0
33 *791:21 *803:13 0.00851355
34 *798:17 *984:FCHOP[1] 0.000431027
*RES
1 *988:analog_ctrl[32] *803:7 1.08036 
2 *803:7 *803:9 242.982 
3 *803:9 *803:11 3.41 
4 *803:11 *803:13 222.229 
5 *803:13 *803:15 3.41 
6 *803:15 *803:17 273.304 
7 *803:17 *803:23 26.25 
8 *803:23 *984:FCHOP[1] 32.9375 
*END

*D_NET *804 0.261725
*CONN
*I *984:FCHOP[2] I *D CF_ADC_DSM20
*I *988:analog_ctrl[33] O *D soc_sys
*CAP
1 *984:FCHOP[2] 0.000303885
2 *988:analog_ctrl[33] 6.59744e-05
3 *804:17 0.00938573
4 *804:15 0.00908185
5 *804:13 0.076251
6 *804:11 0.076251
7 *804:9 0.0101259
8 *804:7 0.0101918
9 *984:FCHOP[2] *984:itrim_comp[1] 6.63854e-05
10 *984:FCHOP[2] *984:BUF_FCHOP[0] 0.000468069
11 *804:17 *812:17 0.0257591
12 *804:17 *813:17 0.000556736
13 *984:FCHOP[1] *984:FCHOP[2] 7.39456e-05
14 *984:RESET_DEC_INPUT *984:FCHOP[2] 0.000388985
15 *651:10 *804:17 0.000496332
16 *652:13 *804:17 0.00573609
17 *653:23 *804:17 0.00548145
18 *757:39 *804:17 0.000164129
19 *795:13 *804:13 0
20 *799:17 *804:17 0.0308534
21 *801:17 *804:17 2.33124e-05
*RES
1 *988:analog_ctrl[33] *804:7 1.08036 
2 *804:7 *804:9 198.661 
3 *804:9 *804:11 3.41 
4 *804:11 *804:13 221.832 
5 *804:13 *804:15 3.41 
6 *804:15 *804:17 65.2454 
7 *804:17 *984:FCHOP[2] 8.82906 
*END

*D_NET *805 0.44374
*CONN
*I *984:BUF_FCHOP[0] I *D CF_ADC_DSM20
*I *988:analog_ctrl[34] O *D soc_sys
*CAP
1 *984:BUF_FCHOP[0] 0.00165138
2 *988:analog_ctrl[34] 0.000147059
3 *805:37 0.0202017
4 *805:35 0.0187013
5 *805:25 0.012791
6 *805:23 0.0132262
7 *805:13 0.0110081
8 *805:11 0.0105689
9 *984:BUF_FCHOP[0] *984:ODET_TH[1] 0.000368323
10 *984:BUF_FCHOP[0] *984:ODET_TH[0] 0.000122018
11 *984:BUF_FCHOP[0] *984:itrim_comp[1] 0.000304719
12 *984:BUF_FCHOP[0] *984:itrim_comp[0] 0.000174043
13 *805:13 *808:13 0.0407037
14 *805:13 *808:23 3.29139e-05
15 *805:13 *866:13 0.000603108
16 *805:23 *808:23 0.00182396
17 *805:25 *808:25 0
18 *805:37 *810:17 0.0143976
19 *984:RESET_DEC_INPUT *984:BUF_FCHOP[0] 7.01273e-05
20 *984:FCHOP[2] *984:BUF_FCHOP[0] 0.000468069
21 *15:27 *984:BUF_FCHOP[0] 0.000184552
22 *108:13 *805:35 0
23 *648:17 *805:25 0.00899999
24 *667:23 *805:25 0.0429145
25 *671:15 *805:13 0.000843897
26 *671:29 *805:25 0.00273279
27 *693:41 *805:37 0.00749914
28 *711:27 *805:23 7.69776e-06
29 *711:27 *805:25 0.000150767
30 *715:31 *805:13 0.00779357
31 *715:33 *805:25 0.0929143
32 *715:45 *805:37 0
33 *723:31 *805:23 2.39892e-06
34 *728:25 *805:23 0.00159742
35 *728:25 *805:25 0.000172737
36 *751:17 *805:37 0.00528252
37 *754:17 *805:35 3.5686e-05
38 *760:19 *805:35 9.36141e-05
39 *760:21 *805:37 0.00343938
40 *761:17 *805:37 0.00590916
41 *762:19 *805:37 0.000419936
42 *770:27 *805:23 0.000182899
43 *770:27 *805:25 0.0450902
44 *771:19 *805:25 0.000314987
45 *790:17 *805:13 2.30802e-05
46 *790:27 *805:13 0.00156729
47 *790:27 *805:23 8.58071e-05
48 *790:29 *805:25 0.000357136
49 *791:23 *805:37 0.02705
50 *794:13 *805:13 0.0407099
*RES
1 *988:analog_ctrl[34] *805:11 5.82964 
2 *805:11 *805:13 66.5285 
3 *805:13 *805:23 11.234 
4 *805:23 *805:25 881.518 
5 *805:25 *805:35 12.7347 
6 *805:35 *805:37 99.6557 
7 *805:37 *984:BUF_FCHOP[0] 11.2396 
*END

*D_NET *806 0.239926
*CONN
*I *984:BUF_FCHOP[1] I *D CF_ADC_DSM20
*I *988:analog_ctrl[35] O *D soc_sys
*CAP
1 *984:BUF_FCHOP[1] 0.00053424
2 *988:analog_ctrl[35] 6.5687e-05
3 *806:17 0.0166659
4 *806:15 0.0161316
5 *806:13 0.0753254
6 *806:11 0.0753254
7 *806:9 0.00562026
8 *806:7 0.00568595
9 *984:BUF_FCHOP[1] *984:BUF_FCHOP[2] 8.06286e-05
10 *984:BUF_FCHOP[1] *807:21 0.000884604
11 *806:17 *807:21 3.43988e-06
12 *806:17 *819:17 0.0274841
13 *984:FCHOP[1] *984:BUF_FCHOP[1] 1.4474e-05
14 *984:SIGN *984:BUF_FCHOP[1] 2.46781e-05
15 *984:vpwr_cp *984:BUF_FCHOP[1] 0.000100838
16 *984:phi2_buffer *984:BUF_FCHOP[1] 1.80913e-05
17 *984:MODINPUT *984:BUF_FCHOP[1] 4.43299e-05
18 *984:BUF_CHOP_EN *984:BUF_FCHOP[1] 3.22646e-05
19 *984:RESET_DEC_INPUT *984:BUF_FCHOP[1] 0.000145072
20 *15:27 *806:17 4.72732e-05
21 *116:35 *806:9 0.00345086
22 *651:10 *806:17 0
23 *658:13 *984:BUF_FCHOP[1] 8.18398e-05
24 *669:13 *984:BUF_FCHOP[1] 1.10131e-05
25 *793:17 *806:17 0.000906988
26 *795:17 *806:17 0.0100375
27 *802:17 *806:17 0.00120407
*RES
1 *988:analog_ctrl[35] *806:7 1.08036 
2 *806:7 *806:9 112.446 
3 *806:9 *806:11 3.41 
4 *806:11 *806:13 219.49 
5 *806:13 *806:15 3.41 
6 *806:15 *806:17 444.705 
7 *806:17 *984:BUF_FCHOP[1] 24.1518 
*END

*D_NET *807 0.330043
*CONN
*I *984:BUF_FCHOP[2] I *D CF_ADC_DSM20
*I *988:analog_ctrl[36] O *D soc_sys
*CAP
1 *984:BUF_FCHOP[2] 9.68336e-05
2 *988:analog_ctrl[36] 6.5687e-05
3 *807:21 0.000977422
4 *807:19 0.000907131
5 *807:17 0.00434934
6 *807:15 0.0043228
7 *807:13 0.0443915
8 *807:11 0.0443915
9 *807:9 0.0124306
10 *807:7 0.0124963
11 *984:BUF_FCHOP[2] *984:ODET_TH[4] 0
12 *984:BUF_FCHOP[2] *984:ODET_TH[2] 0
13 *807:13 *810:13 0.000832664
14 *807:13 *814:13 0.136707
15 *807:13 *816:13 0
16 *807:17 *815:17 0.0119313
17 *807:21 *815:17 0.00331801
18 *807:21 *819:17 5.58875e-06
19 *984:FCHOP[1] *807:21 0.00225376
20 *984:vpwr_cp *807:21 1.08359e-05
21 *984:phi2_buffer *984:BUF_FCHOP[2] 3.81416e-06
22 *984:BUF_CHOP_EN *984:BUF_FCHOP[2] 0.000170571
23 *984:BUF_FCHOP[1] *984:BUF_FCHOP[2] 8.06286e-05
24 *984:BUF_FCHOP[1] *807:21 0.000884604
25 *39:9 *807:13 0.00963978
26 *66:17 *807:13 8.7876e-06
27 *791:21 *807:13 0.011269
28 *798:13 *807:13 0.000540738
29 *798:17 *807:17 0.00481568
30 *798:17 *807:21 0.000833875
31 *803:17 *807:17 0.021516
32 *803:23 *807:21 0.000788323
33 *806:17 *807:21 3.43988e-06
*RES
1 *988:analog_ctrl[36] *807:7 1.08036 
2 *807:7 *807:9 250.875 
3 *807:9 *807:11 3.41 
4 *807:11 *807:13 218.986 
5 *807:13 *807:15 3.41 
6 *807:15 *807:17 265.411 
7 *807:17 *807:19 0.535714 
8 *807:19 *807:21 52.8304 
9 *807:21 *984:BUF_FCHOP[2] 11.3929 
*END

*D_NET *808 0.371299
*CONN
*I *984:qlev[0] I *D CF_ADC_DSM20
*I *988:analog_ctrl[37] O *D soc_sys
*CAP
1 *984:qlev[0] 0.00177683
2 *988:analog_ctrl[37] 0.000189938
3 *808:29 0.0182719
4 *808:27 0.0164951
5 *808:25 0.0292939
6 *808:23 0.030145
7 *808:13 0.00804499
8 *808:11 0.00738388
9 *984:qlev[0] *984:ODET_TH[1] 0
10 *984:qlev[0] *984:dig_test_sel[2] 0.000225125
11 *808:13 *824:13 0.0317608
12 *808:13 *829:23 0.000208084
13 *808:29 *814:17 0.0012222
14 *808:29 *820:17 0.000101522
15 *984:bypass_n *984:qlev[0] 0.000836234
16 *988:adc_dout[6] *808:25 0.000526584
17 *15:27 *984:qlev[0] 6.92804e-05
18 *646:18 *808:25 0.0105362
19 *667:23 *808:25 0
20 *671:15 *808:13 0.00614626
21 *671:21 *808:13 0.000426536
22 *671:21 *808:23 0.000182899
23 *671:29 *808:25 0.000447438
24 *671:37 *808:25 0.0546822
25 *693:13 *808:13 0.000509911
26 *711:27 *808:23 5.25884e-05
27 *715:31 *808:13 0.00761185
28 *715:31 *808:23 4.73891e-05
29 *715:33 *808:23 0.000166636
30 *720:29 *808:23 0.00153735
31 *728:25 *808:25 0.000502373
32 *728:31 *808:23 0.000134119
33 *766:15 *808:25 0.000207312
34 *766:25 *808:29 0
35 *769:17 *808:29 0
36 *770:27 *808:25 0
37 *776:17 *808:29 0.000342745
38 *777:17 *808:29 0.000174238
39 *779:17 *808:29 0.0257082
40 *781:17 *808:29 0.00517203
41 *783:29 *808:29 0.0242376
42 *785:47 *984:qlev[0] 0
43 *790:29 *808:25 0
44 *792:29 *808:13 1.17912e-05
45 *792:29 *808:23 9.4082e-05
46 *792:31 *808:25 0.0414985
47 *794:27 *808:13 0.00147062
48 *794:29 *808:23 0.000169615
49 *797:17 *808:29 0.000116155
50 *805:13 *808:13 0.0407037
51 *805:13 *808:23 3.29139e-05
52 *805:23 *808:23 0.00182396
53 *805:25 *808:25 0
*RES
1 *988:analog_ctrl[37] *808:11 6.43679 
2 *808:11 *808:13 64.0062 
3 *808:13 *808:23 12.8959 
4 *808:23 *808:25 890.964 
5 *808:25 *808:27 4.5 
6 *808:27 *808:29 572.054 
7 *808:29 *984:qlev[0] 41.7411 
*END

*D_NET *809 0.425396
*CONN
*I *984:qlev[1] I *D CF_ADC_DSM20
*I *988:analog_ctrl[38] O *D soc_sys
*CAP
1 *984:qlev[1] 0.00231153
2 *988:analog_ctrl[38] 6.5687e-05
3 *809:17 0.006919
4 *809:15 0.00460747
5 *809:13 0.041752
6 *809:11 0.041752
7 *809:9 0.0119937
8 *809:7 0.0120594
9 *984:qlev[1] *984:disable_mod 0.000812977
10 *984:qlev[1] *984:dig_test_sel[2] 0.000572743
11 *984:qlev[1] *984:dig_test_sel[0] 0.0026238
12 *809:13 *872:21 0.00193264
13 *809:13 *873:13 0
14 *809:17 *872:25 1.37595e-05
15 *809:17 *875:17 3.07772e-05
16 *20:15 *809:17 0
17 *31:13 *809:13 0.0364381
18 *751:13 *809:13 0.0113641
19 *758:13 *809:17 0
20 *761:13 *809:13 0.00550343
21 *763:13 *809:13 0.0141657
22 *764:25 *809:17 0.024714
23 *765:13 *809:13 0.011893
24 *765:17 *809:17 1.53212e-05
25 *767:17 *809:17 0.00133178
26 *770:47 *809:17 0.00540518
27 *786:13 *809:13 0.000364308
28 *791:21 *809:13 0.00963831
29 *792:43 *809:17 0.0263606
30 *794:45 *809:13 0.0119319
31 *794:49 *809:17 0.000101391
32 *803:13 *809:13 0.138722
*RES
1 *988:analog_ctrl[38] *809:7 1.08036 
2 *809:7 *809:9 242.375 
3 *809:9 *809:11 3.41 
4 *809:11 *809:13 223.526 
5 *809:13 *809:15 3.41 
6 *809:15 *809:17 334.661 
7 *809:17 *984:qlev[1] 13.5786 
*END

*D_NET *810 0.456274
*CONN
*I *984:NONOV[0] I *D CF_ADC_DSM20
*I *988:analog_ctrl[39] O *D soc_sys
*CAP
1 *984:NONOV[0] 0.00214912
2 *988:analog_ctrl[39] 6.5687e-05
3 *810:17 0.0109461
4 *810:15 0.00879698
5 *810:13 0.022715
6 *810:11 0.022715
7 *810:9 0.0123883
8 *810:7 0.012454
9 *984:NONOV[0] *984:NONOV[1] 0
10 *810:13 *814:13 0.139084
11 *810:17 *818:17 0.00582701
12 *693:41 *810:17 0.0299414
13 *746:17 *810:17 0.00582403
14 *763:17 *810:17 0.00582403
15 *787:17 *810:17 0.0065149
16 *791:21 *810:13 0.0152876
17 *791:23 *810:17 0.00110613
18 *797:13 *810:13 0.00126608
19 *798:13 *810:13 0.138139
20 *805:37 *810:17 0.0143976
21 *807:13 *810:13 0.000832664
*RES
1 *988:analog_ctrl[39] *810:7 1.08036 
2 *810:7 *810:9 249.661 
3 *810:9 *810:11 3.41 
4 *810:11 *810:13 220.535 
5 *810:13 *810:15 3.41 
6 *810:15 *810:17 62.9017 
7 *810:17 *984:NONOV[0] 11.3868 
*END

*D_NET *811 0.353265
*CONN
*I *986:disable_n I *D CF_BUF_HIZ
*I *988:analog_ctrl[3] O *D soc_sys
*CAP
1 *986:disable_n 0.00567771
2 *988:analog_ctrl[3] 0.000808294
3 *811:23 0.00567771
4 *811:21 0.0826211
5 *811:19 0.0826211
6 *811:17 0.00389422
7 *811:15 0.00470252
8 *986:disable_n *986:gain[0] 0
9 *986:disable_n *986:gain[1] 0.00424764
10 *811:15 *844:15 0.000833956
11 *811:17 *855:9 0
12 *811:21 *833:13 0
13 *986:enable_hv *986:disable_n 0
14 *81:24 *811:17 0.00129797
15 *671:15 *811:15 0.00232415
16 *704:13 *811:21 0.151821
17 *800:19 *811:15 0.00080668
18 *800:25 *986:disable_n 0.00593092
*RES
1 *988:analog_ctrl[3] *811:15 14.7835 
2 *811:15 *811:17 78.4464 
3 *811:17 *811:19 3.41 
4 *811:19 *811:21 326.221 
5 *811:21 *811:23 3.41 
6 *811:23 *986:disable_n 186.455 
*END

*D_NET *812 0.393109
*CONN
*I *984:NONOV[1] I *D CF_ADC_DSM20
*I *988:analog_ctrl[40] O *D soc_sys
*CAP
1 *984:NONOV[1] 0.000950846
2 *988:analog_ctrl[40] 6.5687e-05
3 *812:17 0.00856812
4 *812:15 0.00761727
5 *812:13 0.029974
6 *812:11 0.029974
7 *812:9 0.0129771
8 *812:7 0.0130428
9 *812:13 *817:13 0
10 *812:17 *813:17 0.00512781
11 *984:NONOV[0] *984:NONOV[1] 0
12 *13:14 *812:13 0.023457
13 *15:35 *984:NONOV[1] 0.00021753
14 *652:13 *812:17 0.000430987
15 *658:19 *812:13 0.0494301
16 *704:17 *812:17 0.000838055
17 *712:15 *812:13 0.00866443
18 *724:13 *812:13 0.00289608
19 *727:13 *812:13 0.00260096
20 *771:33 *812:17 0.00623949
21 *799:17 *812:17 0.000191118
22 *801:13 *812:13 0.138369
23 *801:17 *812:17 0.0257177
24 *804:17 *812:17 0.0257591
*RES
1 *988:analog_ctrl[40] *812:7 1.08036 
2 *812:7 *812:9 261.196 
3 *812:9 *812:11 3.41 
4 *812:11 *812:13 216.427 
5 *812:13 *812:15 3.41 
6 *812:15 *812:17 59.9187 
7 *812:17 *984:NONOV[1] 13.8987 
*END

*D_NET *813 0.249866
*CONN
*I *984:ODET_TH[0] I *D CF_ADC_DSM20
*I *988:analog_ctrl[41] O *D soc_sys
*CAP
1 *984:ODET_TH[0] 0.000559947
2 *988:analog_ctrl[41] 6.59744e-05
3 *813:17 0.011516
4 *813:15 0.0109561
5 *813:13 0.0761552
6 *813:11 0.0761552
7 *813:9 0.00360083
8 *813:7 0.0036668
9 *984:ODET_TH[0] *984:ODET_TH[1] 0.000320968
10 *984:ODET_TH[0] *984:dig_test_sel[0] 8.19008e-06
11 *813:13 *833:13 0
12 *813:17 *816:17 0.000877192
13 *984:ODET *984:ODET_TH[0] 1.61304e-05
14 *984:RESET2 *984:ODET_TH[0] 8.65817e-05
15 *984:RESET3 *984:ODET_TH[0] 1.75151e-05
16 *984:BUF_FCHOP[0] *984:ODET_TH[0] 0.000122018
17 *15:27 *984:ODET_TH[0] 9.62115e-05
18 *652:13 *813:17 0.0268466
19 *653:23 *813:17 0.00775117
20 *750:13 *813:17 0
21 *771:33 *813:17 0.0239177
22 *784:17 *813:17 0
23 *799:13 *813:13 0
24 *799:17 *813:17 0.00144495
25 *804:17 *813:17 0.000556736
26 *812:17 *813:17 0.00512781
*RES
1 *988:analog_ctrl[41] *813:7 1.08036 
2 *813:7 *813:9 69.3393 
3 *813:9 *813:11 3.41 
4 *813:11 *813:13 215.67 
5 *813:13 *813:15 3.41 
6 *813:15 *813:17 503.446 
7 *813:17 *984:ODET_TH[0] 8.3334 
*END

*D_NET *814 0.432885
*CONN
*I *984:ODET_TH[1] I *D CF_ADC_DSM20
*I *988:analog_ctrl[42] O *D soc_sys
*CAP
1 *984:ODET_TH[1] 0.00221801
2 *988:analog_ctrl[42] 6.5687e-05
3 *814:17 0.00650063
4 *814:15 0.00428262
5 *814:13 0.0231152
6 *814:11 0.0231152
7 *814:9 0.0124343
8 *814:7 0.0125
9 *984:ODET_TH[1] *984:ODET_TH[3] 6.68169e-05
10 *984:ODET_TH[1] *984:ODET_TH[2] 0.000114155
11 *984:ODET_TH[1] *984:disable_mod 1.61998e-05
12 *984:ODET_TH[1] *984:dig_test_sel[2] 0.000847937
13 *984:ODET_TH[1] *984:itrim_comp[0] 0
14 *814:17 *820:17 0.0262893
15 *984:ODET_TH[0] *984:ODET_TH[1] 0.000320968
16 *984:RESET1 *814:17 0.000403684
17 *984:RESET3 *984:ODET_TH[1] 3.96896e-05
18 *984:qlev[0] *984:ODET_TH[1] 0
19 *984:BUF_FCHOP[0] *984:ODET_TH[1] 0.000368323
20 *39:9 *814:13 0.000458938
21 *651:10 *984:ODET_TH[1] 1.94945e-05
22 *653:15 *984:ODET_TH[1] 2.09897e-05
23 *783:29 *814:17 0.0240127
24 *785:47 *984:ODET_TH[1] 6.05161e-06
25 *791:21 *814:13 0.0129633
26 *797:13 *814:13 0.000233689
27 *797:17 *814:17 0.00545903
28 *807:13 *814:13 0.136707
29 *808:29 *814:17 0.0012222
30 *810:13 *814:13 0.139084
*RES
1 *988:analog_ctrl[42] *814:7 1.08036 
2 *814:7 *814:9 250.268 
3 *814:9 *814:11 3.41 
4 *814:11 *814:13 219.49 
5 *814:13 *814:15 3.41 
6 *814:15 *814:17 323.125 
7 *814:17 *984:ODET_TH[1] 24.7337 
*END

*D_NET *815 0.247426
*CONN
*I *984:ODET_TH[2] I *D CF_ADC_DSM20
*I *988:analog_ctrl[43] O *D soc_sys
*CAP
1 *984:ODET_TH[2] 0.000601187
2 *988:analog_ctrl[43] 6.59744e-05
3 *815:17 0.00650409
4 *815:15 0.0059029
5 *815:13 0.0775675
6 *815:11 0.0775675
7 *815:9 0.0110707
8 *815:7 0.0111367
9 *984:ODET_TH[2] *984:ODET_TH[4] 0.000245298
10 *984:ODET_TH[2] *984:ODET_TH[3] 9.99431e-05
11 *815:13 *877:13 0
12 *815:17 *819:17 0.0269306
13 *984:FCHOP[1] *984:ODET_TH[2] 0
14 *984:ODET_TH[1] *984:ODET_TH[2] 0.000114155
15 *984:vpwr_cp *984:ODET_TH[2] 8.55871e-05
16 *984:BUF_FCHOP[2] *984:ODET_TH[2] 0
17 *15:27 *984:ODET_TH[2] 0.000106048
18 *40:21 *815:13 0
19 *141:14 *815:9 0.00645368
20 *651:10 *984:ODET_TH[2] 0.00114232
21 *651:10 *815:17 0
22 *653:15 *984:ODET_TH[2] 0.00113883
23 *755:33 *984:ODET_TH[2] 0.000109425
24 *756:45 *984:ODET_TH[2] 2.78856e-05
25 *757:39 *984:ODET_TH[2] 9.41642e-05
26 *766:21 *815:13 0
27 *798:17 *815:17 0.00503941
28 *803:17 *815:17 0.000172877
29 *807:17 *815:17 0.0119313
30 *807:21 *815:17 0.00331801
*RES
1 *988:analog_ctrl[43] *815:7 1.08036 
2 *815:7 *815:9 223.554 
3 *815:9 *815:11 3.41 
4 *815:11 *815:13 213.292 
5 *815:13 *815:15 3.41 
6 *815:15 *815:17 333.295 
7 *815:17 *984:ODET_TH[2] 39.5 
*END

*D_NET *816 0.354203
*CONN
*I *984:ODET_TH[3] I *D CF_ADC_DSM20
*I *988:analog_ctrl[44] O *D soc_sys
*CAP
1 *984:ODET_TH[3] 0.00034324
2 *988:analog_ctrl[44] 6.59744e-05
3 *816:17 0.00483089
4 *816:15 0.00448765
5 *816:13 0.0535622
6 *816:11 0.0535622
7 *816:9 0.0131444
8 *816:7 0.0132104
9 *984:ODET_TH[3] *984:ODET_TH[4] 0.0003727
10 *816:17 *817:17 0.0247435
11 *984:ODET_TH[2] *984:ODET_TH[3] 9.99431e-05
12 *984:ODET_TH[1] *984:ODET_TH[3] 6.68169e-05
13 *20:45 *816:17 0
14 *35:13 *816:13 4.31981e-05
15 *36:9 *816:13 0.0343337
16 *38:17 *816:13 0.000294685
17 *66:17 *816:13 0.000425088
18 *658:15 *816:17 0.000199809
19 *665:31 *816:13 0.00965408
20 *733:15 *816:13 0
21 *734:13 *816:13 0.00787256
22 *739:13 *816:13 0.00486271
23 *741:13 *816:13 0.076261
24 *746:13 *816:13 0.00593156
25 *747:13 *816:13 0.0068234
26 *771:33 *816:17 0.0238832
27 *777:13 *816:13 0.00895289
28 *784:17 *816:17 0.000140405
29 *785:47 *984:ODET_TH[3] 3.01616e-05
30 *801:13 *816:13 0
31 *801:17 *816:17 0.00512781
32 *807:13 *816:13 0
33 *813:17 *816:17 0.000877192
*RES
1 *988:analog_ctrl[44] *816:7 1.08036 
2 *816:7 *816:9 256.339 
3 *816:9 *816:11 3.41 
4 *816:11 *816:13 213.436 
5 *816:13 *816:15 3.41 
6 *816:15 *816:17 315.991 
7 *816:17 *984:ODET_TH[3] 16.4464 
*END

*D_NET *817 0.312445
*CONN
*I *984:ODET_TH[4] I *D CF_ADC_DSM20
*I *988:analog_ctrl[45] O *D soc_sys
*CAP
1 *984:ODET_TH[4] 0.000332863
2 *988:analog_ctrl[45] 6.5687e-05
3 *817:17 0.00436934
4 *817:15 0.00403648
5 *817:13 0.0517371
6 *817:11 0.0517371
7 *817:9 0.0133114
8 *817:7 0.0133771
9 *817:13 *838:15 0
10 *984:FCHOP[1] *984:ODET_TH[4] 3.33276e-05
11 *984:ODET_TH[3] *984:ODET_TH[4] 0.0003727
12 *984:ODET_TH[2] *984:ODET_TH[4] 0.000245298
13 *984:BUF_FCHOP[2] *984:ODET_TH[4] 0
14 *13:14 *817:13 0
15 *20:45 *817:17 2.31123e-05
16 *70:33 *817:13 0.0340514
17 *649:24 *817:13 9.26931e-05
18 *650:27 *817:13 4.73953e-05
19 *656:65 *817:13 0
20 *658:15 *817:17 0.0241777
21 *660:18 *817:13 0.00740021
22 *661:23 *817:13 0.00221332
23 *684:15 *817:13 0
24 *699:19 *817:13 0
25 *706:19 *817:13 0
26 *744:13 *817:13 0.0135592
27 *749:15 *817:13 0.0231941
28 *752:19 *817:13 0.000367111
29 *752:21 *817:13 0.0368099
30 *756:35 *817:17 0.000250403
31 *756:45 *984:ODET_TH[4] 6.06291e-05
32 *757:39 *984:ODET_TH[4] 9.94194e-05
33 *801:17 *817:17 0.00573609
34 *812:13 *817:13 0
35 *816:17 *817:17 0.0247435
*RES
1 *988:analog_ctrl[45] *817:7 1.08036 
2 *817:7 *817:9 267.268 
3 *817:9 *817:11 3.41 
4 *817:11 *817:13 212.716 
5 *817:13 *817:15 3.41 
6 *817:15 *817:17 304.455 
7 *817:17 *984:ODET_TH[4] 17.3571 
*END

*D_NET *818 0.44679
*CONN
*I *984:dig_test_sel[0] I *D CF_ADC_DSM20
*I *988:analog_ctrl[46] O *D soc_sys
*CAP
1 *984:dig_test_sel[0] 0.00169582
2 *988:analog_ctrl[46] 6.5687e-05
3 *818:17 0.00643826
4 *818:15 0.00474244
5 *818:13 0.0220703
6 *818:11 0.0220703
7 *818:9 0.0122631
8 *818:7 0.0123287
9 *818:13 *820:13 0.136137
10 *984:ODET_TH[0] *984:dig_test_sel[0] 8.19008e-06
11 *984:qlev[1] *984:dig_test_sel[0] 0.0026238
12 *984:bypass_p *984:dig_test_sel[0] 0.000138188
13 *103:14 *818:9 0.00637845
14 *746:17 *818:17 0.0262037
15 *763:17 *818:17 0.000321845
16 *772:17 *818:17 0
17 *781:13 *818:13 0.137148
18 *784:25 *818:17 0.000782399
19 *789:17 *818:17 0.0243131
20 *791:21 *818:13 0.0252342
21 *803:13 *818:13 0
22 *810:17 *818:17 0.00582701
*RES
1 *988:analog_ctrl[46] *818:7 1.08036 
2 *818:7 *818:9 247.232 
3 *818:9 *818:11 3.41 
4 *818:11 *818:13 215.094 
5 *818:13 *818:15 3.41 
6 *818:15 *818:17 330.411 
7 *818:17 *984:dig_test_sel[0] 11.8028 
*END

*D_NET *819 0.239524
*CONN
*I *984:dig_test_sel[1] I *D CF_ADC_DSM20
*I *988:analog_ctrl[47] O *D soc_sys
*CAP
1 *984:dig_test_sel[1] 0.00100974
2 *988:analog_ctrl[47] 6.5687e-05
3 *819:17 0.00600704
4 *819:15 0.0049973
5 *819:13 0.0720746
6 *819:11 0.0720746
7 *819:9 0.0107465
8 *819:7 0.0108122
9 *984:dig_test_sel[1] *874:17 0.000118101
10 *984:RESET1 *984:dig_test_sel[1] 0.000130439
11 *15:27 *984:dig_test_sel[1] 5.11642e-05
12 *651:10 *819:17 0
13 *654:17 *819:13 0
14 *660:12 *984:dig_test_sel[1] 0
15 *755:33 *984:dig_test_sel[1] 0
16 *793:17 *984:dig_test_sel[1] 0.000117437
17 *798:17 *819:17 0.00563721
18 *802:17 *984:dig_test_sel[1] 0.00126166
19 *806:17 *819:17 0.0274841
20 *807:21 *819:17 5.58875e-06
21 *815:17 *819:17 0.0269306
*RES
1 *988:analog_ctrl[47] *819:7 1.08036 
2 *819:7 *819:9 216.875 
3 *819:9 *819:11 3.41 
4 *819:11 *819:13 210.049 
5 *819:13 *819:15 3.41 
6 *819:15 *819:17 340.125 
7 *819:17 *984:dig_test_sel[1] 17.9671 
*END

*D_NET *820 0.350647
*CONN
*I *984:dig_test_sel[2] I *D CF_ADC_DSM20
*I *988:analog_ctrl[48] O *D soc_sys
*CAP
1 *984:dig_test_sel[2] 0.0020471
2 *988:analog_ctrl[48] 6.59744e-05
3 *820:17 0.0122901
4 *820:15 0.010243
5 *820:13 0.033651
6 *820:11 0.033651
7 *820:9 0.0126201
8 *820:7 0.0126861
9 *984:dig_test_sel[2] *984:disable_mod 0.000958557
10 *820:13 *872:21 0.000292294
11 *820:13 *875:13 0.0105539
12 *984:ODET_TH[1] *984:dig_test_sel[2] 0.000847937
13 *984:RESET1 *820:17 0.000575176
14 *984:RESET3 *984:dig_test_sel[2] 3.90649e-05
15 *984:qlev[0] *984:dig_test_sel[2] 0.000225125
16 *984:qlev[1] *984:dig_test_sel[2] 0.000572743
17 *15:27 *984:dig_test_sel[2] 1.16759e-05
18 *652:13 *984:dig_test_sel[2] 4.26759e-05
19 *654:13 *984:dig_test_sel[2] 4.43288e-05
20 *753:13 *820:13 0.026299
21 *766:25 *820:17 0
22 *781:13 *820:13 0.000305252
23 *783:29 *820:17 7.6262e-05
24 *785:47 *984:dig_test_sel[2] 0
25 *791:21 *820:13 0.0250275
26 *794:59 *820:17 0
27 *797:13 *820:13 5.71943e-05
28 *797:17 *820:17 0.00493538
29 *803:13 *820:13 0
30 *808:29 *820:17 0.000101522
31 *814:17 *820:17 0.0262893
32 *818:13 *820:13 0.136137
*RES
1 *988:analog_ctrl[48] *820:7 1.08036 
2 *820:7 *820:9 246.625 
3 *820:9 *820:11 3.41 
4 *820:11 *820:13 214.806 
5 *820:13 *820:15 3.41 
6 *820:15 *820:17 328.589 
7 *820:17 *984:dig_test_sel[2] 27.633 
*END

*D_NET *821 0.315899
*CONN
*I *984:bw[0] I *D CF_ADC_DSM20
*I *988:analog_ctrl[49] O *D soc_sys
*CAP
1 *984:bw[0] 6.26568e-05
2 *988:analog_ctrl[49] 0.000479694
3 *821:29 0.011015
4 *821:27 0.0110941
5 *821:21 0.0209548
6 *821:19 0.0208131
7 *821:17 0.0461854
8 *821:15 0.0466651
9 *984:bw[0] *984:bw[1] 5.65143e-05
10 *984:bw[0] *984:bw[3] 5.77863e-05
11 *821:17 *823:9 0.0154361
12 *821:27 *823:17 0.00035334
13 *20:59 *821:29 0.00049323
14 *46:25 *821:17 0.000281588
15 *108:13 *821:15 8.28872e-05
16 *671:19 *821:15 2.13687e-05
17 *693:13 *821:15 0.000256498
18 *698:21 *821:29 0.071097
19 *703:25 *821:29 2.70974e-05
20 *707:21 *821:29 0.0414204
21 *736:13 *821:27 0
22 *742:21 *821:29 0.0290453
*RES
1 *988:analog_ctrl[49] *821:15 13.007 
2 *821:15 *821:17 142.908 
3 *821:17 *821:19 3.41 
4 *821:19 *821:21 56.1509 
5 *821:21 *821:27 11.195 
6 *821:27 *821:29 112.543 
7 *821:29 *984:bw[0] 9.06179 
*END

*D_NET *822 0.367451
*CONN
*I *986:bypass_p I *D CF_BUF_HIZ
*I *988:analog_ctrl[4] O *D soc_sys
*CAP
1 *986:bypass_p 3.11504e-05
2 *988:analog_ctrl[4] 0.00199473
3 *822:17 0.0243384
4 *822:15 0.0243072
5 *822:13 0.122143
6 *822:11 0.124138
7 *23:34 *822:17 0.0181557
8 *126:27 *822:11 0.000817769
9 *651:14 *822:13 0.0514974
10 *657:8 *986:bypass_p 2.77414e-05
*RES
1 *988:analog_ctrl[4] *822:11 42.8654 
2 *822:11 *822:13 387.369 
3 *822:13 *822:15 3.41 
4 *822:15 *822:17 78.4743 
5 *822:17 *986:bypass_p 6.90303 
*END

*D_NET *823 0.305775
*CONN
*I *984:bw[1] I *D CF_ADC_DSM20
*I *988:analog_ctrl[50] O *D soc_sys
*CAP
1 *984:bw[1] 3.94414e-05
2 *988:analog_ctrl[50] 6.5687e-05
3 *823:21 0.00947122
4 *823:19 0.00943178
5 *823:17 0.00806454
6 *823:15 0.00806454
7 *823:13 0.0172287
8 *823:11 0.0172287
9 *823:9 0.0217145
10 *823:7 0.0217802
11 *984:bw[1] *984:bw[2] 0.000119389
12 *984:bw[1] *984:bw[3] 2.62528e-05
13 *823:21 *984:bw[3] 0.000195155
14 *984:bw[0] *984:bw[1] 5.65143e-05
15 *984:SUMCAPIN[3] *984:bw[1] 7.84094e-06
16 *984:SUMCAPIN[3] *823:21 1.90491e-05
17 *984:refsel[9] *823:21 7.65719e-05
18 *657:26 *823:17 0.000500875
19 *657:28 *823:17 0.0159965
20 *700:17 *823:17 0.00694963
21 *702:23 *823:17 0.031359
22 *705:29 *823:21 0.0680277
23 *707:21 *823:21 0.0156619
24 *717:21 *823:21 3.97677e-05
25 *736:13 *823:17 0
26 *742:21 *823:21 0.0378602
27 *821:17 *823:9 0.0154361
28 *821:27 *823:17 0.00035334
*RES
1 *988:analog_ctrl[50] *823:7 1.08036 
2 *823:7 *823:9 438.938 
3 *823:9 *823:11 4.5 
4 *823:11 *823:13 319.661 
5 *823:13 *823:15 4.5 
6 *823:15 *823:17 384.75 
7 *823:17 *823:19 4.5 
8 *823:19 *823:21 641.304 
9 *823:21 *984:bw[1] 1.58036 
*END

*D_NET *824 0.339192
*CONN
*I *984:bw[2] I *D CF_ADC_DSM20
*I *988:analog_ctrl[51] O *D soc_sys
*CAP
1 *984:bw[2] 0.00146297
2 *988:analog_ctrl[51] 0.000227498
3 *824:21 0.0220861
4 *824:19 0.0206232
5 *824:17 0.0352711
6 *824:15 0.0352711
7 *824:13 0.010612
8 *824:11 0.0108395
9 *984:bw[2] *984:bw[3] 0
10 *824:13 *828:23 1.39702e-05
11 *824:13 *829:23 9.02925e-05
12 *824:13 *837:15 3.55717e-05
13 *824:13 *839:15 0.000285091
14 *824:13 *843:15 0.000272976
15 *824:13 *848:15 0.000510291
16 *824:13 *851:15 0.000306971
17 *824:13 *856:15 0.000285798
18 *824:13 *860:15 0.000528406
19 *824:13 *863:15 0.000330379
20 *824:13 *866:23 0.000158842
21 *824:13 *872:15 3.55717e-05
22 *824:17 *828:25 0.000184613
23 *824:17 *829:25 7.46979e-06
24 *824:17 *870:17 0.0186544
25 *824:21 *828:29 0.0738952
26 *984:bw[1] *984:bw[2] 0.000119389
27 *984:SUMCAPIN[3] *984:bw[2] 0.000115446
28 *984:SUMCAPIN[1] *984:bw[2] 0.000109352
29 *984:refsel[15] *984:bw[2] 0
30 *984:SUMCAPIN_EN *984:bw[2] 0.000768074
31 *78:13 *824:21 0.0159706
32 *108:13 *824:13 0
33 *141:18 *824:21 0
34 *671:21 *824:13 0.00479561
35 *672:15 *824:13 0.000457091
36 *676:15 *824:13 0.000919626
37 *678:15 *824:13 1.74567e-05
38 *680:15 *824:13 0.000964917
39 *687:11 *824:17 0.000939501
40 *693:13 *824:13 0.00606801
41 *693:21 *824:13 0.00068508
42 *715:31 *824:13 0.00598054
43 *738:35 *984:bw[2] 0
44 *748:21 *824:17 0.037531
45 *808:13 *824:13 0.0317608
*RES
1 *988:analog_ctrl[51] *824:11 7.04393 
2 *824:11 *824:13 49.8811 
3 *824:13 *824:15 3.41 
4 *824:15 *824:17 148.661 
5 *824:17 *824:19 3.41 
6 *824:19 *824:21 118.056 
7 *824:21 *984:bw[2] 35.5707 
*END

*D_NET *825 0.317186
*CONN
*I *984:bw[3] I *D CF_ADC_DSM20
*I *988:analog_ctrl[52] O *D soc_sys
*CAP
1 *984:bw[3] 0.00204616
2 *988:analog_ctrl[52] 6.59744e-05
3 *825:13 0.0201205
4 *825:11 0.0180743
5 *825:9 0.0433663
6 *825:7 0.0434323
7 *825:13 *827:13 0.100017
8 *984:bw[0] *984:bw[3] 5.77863e-05
9 *984:bw[1] *984:bw[3] 2.62528e-05
10 *984:bw[2] *984:bw[3] 0
11 *984:IPCAP1OFFSET *984:bw[3] 2.98576e-05
12 *19:27 *825:13 0.0687999
13 *141:18 *825:13 0.0206418
14 *738:35 *984:bw[3] 0.000169422
15 *742:21 *984:bw[3] 0.00014285
16 *823:21 *984:bw[3] 0.000195155
*RES
1 *988:analog_ctrl[52] *825:7 1.08036 
2 *825:7 *825:9 855.438 
3 *825:9 *825:11 4.5 
4 *825:11 *825:13 949.286 
5 *825:13 *984:bw[3] 44.4554 
*END

*D_NET *826 0.283254
*CONN
*I *984:SCANINPUT I *D CF_ADC_DSM20
*I *988:analog_ctrl[53] O *D soc_sys
*CAP
1 *984:SCANINPUT 0.000818632
2 *988:analog_ctrl[53] 6.5687e-05
3 *826:13 0.0453106
4 *826:11 0.0444919
5 *826:9 0.0416717
6 *826:7 0.0417374
7 *984:SCANINPUT *984:SCANMODE 2.17379e-05
8 *984:SCANINPUT *984:SCANCLK 0.000473293
9 *984:SCANINPUT *984:SCANEN 0.00204981
10 *984:SCANINPUT *984:reset_b 0.00102122
11 *826:13 *828:29 0.0378724
12 *984:EN_ADWA *984:SCANINPUT 0
13 *18:45 *826:13 0.0677028
14 *662:11 *984:SCANINPUT 1.66955e-05
*RES
1 *988:analog_ctrl[53] *826:7 1.08036 
2 *826:7 *826:9 849.062 
3 *826:9 *826:11 4.5 
4 *826:11 *826:13 1118.5 
5 *826:13 *984:SCANINPUT 36.5357 
*END

*D_NET *827 0.327371
*CONN
*I *984:SCANMODE I *D CF_ADC_DSM20
*I *988:analog_ctrl[54] O *D soc_sys
*CAP
1 *984:SCANMODE 0.00175248
2 *988:analog_ctrl[54] 6.5687e-05
3 *827:13 0.0382945
4 *827:11 0.036542
5 *827:9 0.0419789
6 *827:7 0.0420446
7 *984:SCANMODE *984:SCANCLK 0.00160558
8 *984:SCANMODE *984:SCANEN 7.45146e-06
9 *984:SCANMODE *984:reset_b 0.000446662
10 *984:SCANINPUT *984:SCANMODE 2.17379e-05
11 *19:27 *827:13 0.0101787
12 *141:18 *827:13 0.0541637
13 *662:11 *984:SCANMODE 0.000242772
14 *667:17 *984:SCANMODE 8.6229e-06
15 *825:13 *827:13 0.100017
*RES
1 *988:analog_ctrl[54] *827:7 1.08036 
2 *827:7 *827:9 855.134 
3 *827:9 *827:11 4.5 
4 *827:11 *827:13 1112.34 
5 *827:13 *984:SCANMODE 46.8661 
*END

*D_NET *828 0.44747
*CONN
*I *984:SCANCLK I *D CF_ADC_DSM20
*I *988:analog_ctrl[55] O *D soc_sys
*CAP
1 *984:SCANCLK 0.00083472
2 *988:analog_ctrl[55] 0.000142698
3 *828:29 0.0372756
4 *828:27 0.0364408
5 *828:25 0.0155777
6 *828:23 0.0159191
7 *828:13 0.00433526
8 *828:11 0.00413665
9 *984:SCANCLK *984:reset_b 0.00174889
10 *828:13 *829:13 0.0275775
11 *828:13 *866:13 0.026622
12 *828:23 *829:23 0.000233831
13 *828:25 *829:25 0.0705619
14 *984:SCANINPUT *984:SCANCLK 0.000473293
15 *984:SCANMODE *984:SCANCLK 0.00160558
16 *984:EN_ADWA *984:SCANCLK 0
17 *14:35 *984:SCANCLK 7.07155e-06
18 *18:45 *828:29 0.0157922
19 *108:13 *828:23 6.21416e-05
20 *662:11 *984:SCANCLK 5.97311e-06
21 *671:21 *828:13 0
22 *686:9 *828:23 0
23 *687:11 *828:23 0
24 *696:21 *828:29 0
25 *716:45 *828:29 0
26 *733:21 *828:29 0
27 *748:9 *828:13 0.00012589
28 *748:19 *828:23 0.000249864
29 *748:21 *828:25 0.0700602
30 *748:25 *828:29 0
31 *775:21 *984:SCANCLK 9.60875e-05
32 *794:13 *828:13 0.00561861
33 *824:13 *828:23 1.39702e-05
34 *824:17 *828:25 0.000184613
35 *824:21 *828:29 0.0738952
36 *826:13 *828:29 0.0378724
*RES
1 *988:analog_ctrl[55] *828:11 6.76786 
2 *828:11 *828:13 265.036 
3 *828:13 *828:23 15.2921 
4 *828:23 *828:25 148.235 
5 *828:25 *828:27 3.41 
6 *828:27 *828:29 147.387 
7 *828:29 *984:SCANCLK 45.3207 
*END

*D_NET *829 0.352821
*CONN
*I *984:SCANEN I *D CF_ADC_DSM20
*I *988:analog_ctrl[56] O *D soc_sys
*CAP
1 *984:SCANEN 0.00133099
2 *988:analog_ctrl[56] 0.000126023
3 *829:29 0.0324537
4 *829:27 0.0311228
5 *829:25 0.0336257
6 *829:23 0.0338992
7 *829:13 0.00502056
8 *829:11 0.00487311
9 *984:SCANEN *984:reset_b 0.000297154
10 *829:13 *867:15 0.0046659
11 *829:29 *866:29 0.0945442
12 *984:EN_DWA *984:SCANEN 7.84279e-05
13 *984:SCANINPUT *984:SCANEN 0.00204981
14 *984:SCANMODE *984:SCANEN 7.45146e-06
15 *984:EN_ADWA *984:SCANEN 0.000419995
16 *108:13 *829:23 0
17 *141:18 *829:29 3.90458e-05
18 *662:11 *984:SCANEN 3.33238e-05
19 *671:21 *829:13 0
20 *748:9 *829:13 0.00881526
21 *748:19 *829:23 0.000408105
22 *748:21 *829:25 2.33124e-05
23 *794:13 *829:13 0.000301554
24 *794:27 *829:23 6.60633e-06
25 *808:13 *829:23 0.000208084
26 *824:13 *829:23 9.02925e-05
27 *824:17 *829:25 7.46979e-06
28 *828:13 *829:13 0.0275775
29 *828:23 *829:23 0.000233831
30 *828:25 *829:25 0.0705619
*RES
1 *988:analog_ctrl[56] *829:11 6.46429 
2 *829:11 *829:13 260.929 
3 *829:13 *829:23 14.4534 
4 *829:23 *829:25 149.833 
5 *829:25 *829:27 3.41 
6 *829:27 *829:29 147.531 
7 *829:29 *984:SCANEN 43.1868 
*END

*D_NET *830 0.129637
*CONN
*I *985:trimTC[0] I *D CF_BGR
*I *988:analog_ctrl[57] O *D soc_sys
*CAP
1 *985:trimTC[0] 7.71861e-05
2 *988:analog_ctrl[57] 6.5687e-05
3 *830:17 0.00476341
4 *830:15 0.0150705
5 *830:9 0.056747
6 *830:7 0.0464284
7 *985:trimTC[0] *985:trimTC[2] 0
8 *985:trimTC[0] *985:trimTC[1] 4.43248e-05
9 *830:17 *985:trimTC[1] 7.48163e-06
10 *830:17 *831:17 0.00643346
11 *830:17 *832:17 0
12 *830:17 *834:17 0
*RES
1 *988:analog_ctrl[57] *830:7 1.08036 
2 *830:7 *830:9 944.232 
3 *830:9 *830:15 35.4775 
4 *830:15 *830:17 140.982 
5 *830:17 *985:trimTC[0] 1.58036 
*END

*D_NET *831 0.12879
*CONN
*I *985:trimTC[1] I *D CF_BGR
*I *988:analog_ctrl[58] O *D soc_sys
*CAP
1 *985:trimTC[1] 7.69887e-05
2 *988:analog_ctrl[58] 6.5687e-05
3 *831:17 0.0354987
4 *831:15 0.0452253
5 *831:9 0.0243229
6 *831:7 0.0145849
7 *985:trimTC[1] *985:finetune 0
8 *831:15 *850:15 0
9 *831:17 *985:finetune 0
10 *831:17 *870:9 0.00253059
11 *985:trimTC[0] *985:trimTC[1] 4.43248e-05
12 *830:17 *985:trimTC[1] 7.48163e-06
13 *830:17 *831:17 0.00643346
*RES
1 *988:analog_ctrl[58] *831:7 1.08036 
2 *831:7 *831:9 290.946 
3 *831:9 *831:15 34.8289 
4 *831:15 *831:17 794.268 
5 *831:17 *985:trimTC[1] 1.62054 
*END

*D_NET *832 0.132814
*CONN
*I *985:trimTC[2] I *D CF_BGR
*I *988:analog_ctrl[59] O *D soc_sys
*CAP
1 *985:trimTC[2] 6.98386e-05
2 *988:analog_ctrl[59] 6.5687e-05
3 *832:17 0.00254487
4 *832:15 0.0102944
5 *832:9 0.0572088
6 *832:7 0.0494551
7 *985:trimTC[2] *985:trimTC[3] 5.64009e-05
8 *832:15 *847:15 0.00663068
9 *832:15 *856:23 0
10 *832:17 *834:17 0.00648793
11 *985:trimTC[0] *985:trimTC[2] 0
12 *830:17 *832:17 0
*RES
1 *988:analog_ctrl[59] *832:7 1.08036 
2 *832:7 *832:9 1005.55 
3 *832:9 *832:15 33.3155 
4 *832:15 *832:17 79.6607 
5 *832:17 *985:trimTC[2] 1.48214 
*END

*D_NET *833 0.246014
*CONN
*I *986:bypass_n I *D CF_BUF_HIZ
*I *988:analog_ctrl[5] O *D soc_sys
*CAP
1 *986:bypass_n 0.00131765
2 *988:analog_ctrl[5] 5.47561e-05
3 *833:17 0.0205009
4 *833:15 0.0191833
5 *833:13 0.0985497
6 *833:11 0.0985497
7 *833:9 0.00386194
8 *833:7 0.0039167
9 *13:8 *986:bypass_n 5.96243e-05
10 *22:17 *986:bypass_n 1.97779e-05
11 *811:21 *833:13 0
12 *813:13 *833:13 0
*RES
1 *988:analog_ctrl[5] *833:7 1.08036 
2 *833:7 *833:9 75.4107 
3 *833:9 *833:11 3.41 
4 *833:11 *833:13 286.44 
5 *833:13 *833:15 3.41 
6 *833:15 *833:17 391.732 
7 *833:17 *986:bypass_n 11.2745 
*END

*D_NET *834 0.131834
*CONN
*I *985:trimTC[3] I *D CF_BGR
*I *988:analog_ctrl[60] O *D soc_sys
*CAP
1 *985:trimTC[3] 7.30503e-05
2 *988:analog_ctrl[60] 6.5687e-05
3 *834:17 0.027606
4 *834:15 0.0369576
5 *834:9 0.0251704
6 *834:7 0.0158114
7 *985:trimTC[3] *985:trimTC[4] 0
8 *834:17 *985:trimTC[4] 0
9 *834:17 *869:9 0.019605
10 *834:17 *870:9 0
11 *985:trimTC[2] *985:trimTC[3] 5.64009e-05
12 *830:17 *834:17 0
13 *832:17 *834:17 0.00648793
*RES
1 *988:analog_ctrl[60] *834:7 1.08036 
2 *834:7 *834:9 315.839 
3 *834:9 *834:15 32.4507 
4 *834:15 *834:17 769.375 
5 *834:17 *985:trimTC[3] 1.53571 
*END

*D_NET *835 0.126663
*CONN
*I *985:trimTC[4] I *D CF_BGR
*I *988:analog_ctrl[61] O *D soc_sys
*CAP
1 *985:trimTC[4] 0.0022504
2 *988:analog_ctrl[61] 6.5687e-05
3 *835:15 0.00968627
4 *835:9 0.0586617
5 *835:7 0.0512915
6 *985:trimTC[4] *985:trimTC[5] 0
7 *985:trimTC[4] *837:27 0
8 *835:15 *837:23 0
9 *835:15 *840:15 0
10 *835:15 *848:23 0.00470734
11 *835:15 *854:15 0
12 *985:trimTC[3] *985:trimTC[4] 0
13 *834:17 *985:trimTC[4] 0
*RES
1 *988:analog_ctrl[61] *835:7 1.08036 
2 *835:7 *835:9 1042.59 
3 *835:9 *835:15 31.0814 
4 *835:15 *985:trimTC[4] 44.1518 
*END

*D_NET *836 0.132125
*CONN
*I *985:trimTC[5] I *D CF_BGR
*I *988:analog_ctrl[62] O *D soc_sys
*CAP
1 *985:trimTC[5] 0.00433242
2 *988:analog_ctrl[62] 6.5687e-05
3 *836:9 0.0576296
4 *836:7 0.0533629
5 *985:trimTC[5] *985:finetune 0.00107853
6 *985:trimTC[5] *985:CurrAbsTrim[0] 0.00412297
7 *985:trimTC[5] *985:trimTC[6] 1.79382e-05
8 *985:trimTC[5] *985:inl_ctrl[2] 0.00821034
9 *985:trimTC[5] *837:27 8.62111e-05
10 *985:trimTC[4] *985:trimTC[5] 0
11 *109:18 *985:trimTC[5] 0.00321834
12 *656:19 *985:trimTC[5] 0
*RES
1 *988:analog_ctrl[62] *836:7 1.08036 
2 *836:7 *836:9 1082.05 
3 *836:9 *985:trimTC[5] 35.9685 
*END

*D_NET *837 0.162774
*CONN
*I *985:trimTC[6] I *D CF_BGR
*I *988:analog_ctrl[63] O *D soc_sys
*CAP
1 *985:trimTC[6] 6.99325e-05
2 *988:analog_ctrl[63] 0.000390453
3 *837:27 0.00255242
4 *837:23 0.00979138
5 *837:17 0.0663628
6 *837:15 0.0594444
7 *837:17 *839:17 0.022523
8 *837:23 *840:15 0.00146765
9 *985:trimTC[5] *985:trimTC[6] 1.79382e-05
10 *985:trimTC[5] *837:27 8.62111e-05
11 *985:trimTC[4] *837:27 0
12 *108:13 *837:15 1.30843e-05
13 *693:19 *837:15 1.90936e-05
14 *824:13 *837:15 3.55717e-05
15 *835:15 *837:23 0
*RES
1 *988:analog_ctrl[63] *837:15 12.4305 
2 *837:15 *837:17 181.154 
3 *837:17 *837:23 28.8113 
4 *837:23 *837:27 49.0134 
5 *837:27 *985:trimTC[6] 1.27679 
*END

*D_NET *838 0.134849
*CONN
*I *985:trimCurr[0] I *D CF_BGR
*I *988:analog_ctrl[64] O *D soc_sys
*CAP
1 *985:trimCurr[0] 0.000684998
2 *988:analog_ctrl[64] 6.5687e-05
3 *838:17 0.027274
4 *838:15 0.0315658
5 *838:9 0.0186032
6 *838:7 0.0136921
7 *985:trimCurr[0] *985:trimCurr[2] 0.000593023
8 *985:trimCurr[0] *985:trimCurr[1] 0
9 *985:trimCurr[0] *985:CurrAbsTrim[1] 0
10 *985:trimCurr[0] *841:17 9.70666e-06
11 *838:9 *839:17 0
12 *838:17 *840:25 0.00279169
13 *838:17 *841:17 0.0114445
14 *838:17 *842:17 0.0267755
15 *838:17 *847:17 0
16 *103:14 *838:17 0.00134839
17 *817:13 *838:15 0
*RES
1 *988:analog_ctrl[64] *838:7 1.08036 
2 *838:7 *838:9 272.732 
3 *838:9 *838:15 21.2083 
4 *838:15 *838:17 799.125 
5 *838:17 *985:trimCurr[0] 16.4866 
*END

*D_NET *839 0.14548
*CONN
*I *985:trimCurr[1] I *D CF_BGR
*I *988:analog_ctrl[65] O *D soc_sys
*CAP
1 *985:trimCurr[1] 0.00240114
2 *988:analog_ctrl[65] 0.000583021
3 *839:17 0.0552101
4 *839:15 0.0533919
5 *985:trimCurr[1] *985:trimCurr[5] 0.00871702
6 *985:trimCurr[1] *985:CurrAbsTrim[1] 0.000627343
7 *985:trimCurr[1] *985:CurrAbsTrim[4] 0.00159367
8 *985:trimCurr[1] *861:15 0
9 *985:trimCurr[0] *985:trimCurr[1] 0
10 *108:13 *839:15 0.00014721
11 *824:13 *839:15 0.000285091
12 *837:17 *839:17 0.022523
13 *838:9 *839:17 0
*RES
1 *988:analog_ctrl[65] *839:15 13.4754 
2 *839:15 *839:17 1074.16 
3 *839:17 *985:trimCurr[1] 28.7408 
*END

*D_NET *840 0.121098
*CONN
*I *985:trimCurr[2] I *D CF_BGR
*I *988:analog_ctrl[66] O *D soc_sys
*CAP
1 *985:trimCurr[2] 0.000331746
2 *988:analog_ctrl[66] 6.5687e-05
3 *840:25 0.00151361
4 *840:15 0.00621282
5 *840:9 0.0559801
6 *840:7 0.0510148
7 *985:trimCurr[2] *985:trimCurr[3] 8.72251e-05
8 *985:trimCurr[2] *841:17 0.0010395
9 *840:15 *848:23 0
10 *840:25 *847:17 0
11 *985:trimCurr[0] *985:trimCurr[2] 0.000593023
12 *835:15 *840:15 0
13 *837:23 *840:15 0.00146765
14 *838:17 *840:25 0.00279169
*RES
1 *988:analog_ctrl[66] *840:7 1.08036 
2 *840:7 *840:9 1037.12 
3 *840:9 *840:15 22.7217 
4 *840:15 *840:25 44.8482 
5 *840:25 *985:trimCurr[2] 14.7188 
*END

*D_NET *841 0.152415
*CONN
*I *985:trimCurr[3] I *D CF_BGR
*I *988:analog_ctrl[67] O *D soc_sys
*CAP
1 *985:trimCurr[3] 5.33225e-05
2 *988:analog_ctrl[67] 6.5687e-05
3 *841:17 0.0021297
4 *841:15 0.00803809
5 *841:9 0.0517045
6 *841:7 0.0458085
7 *985:trimCurr[3] *985:trimCurr[4] 6.52253e-05
8 *841:9 *843:17 0.0204424
9 *841:17 *985:trimCurr[4] 0.00117003
10 *841:17 *842:17 0.0103561
11 *985:trimCurr[2] *985:trimCurr[3] 8.72251e-05
12 *985:trimCurr[2] *841:17 0.0010395
13 *985:trimCurr[0] *841:17 9.70666e-06
14 *838:17 *841:17 0.0114445
*RES
1 *988:analog_ctrl[67] *841:7 1.08036 
2 *841:7 *841:9 931.482 
3 *841:9 *841:15 23.6585 
4 *841:15 *841:17 153.732 
5 *841:17 *985:trimCurr[3] 1.61161 
*END

*D_NET *842 0.149422
*CONN
*I *985:trimCurr[4] I *D CF_BGR
*I *988:analog_ctrl[68] O *D soc_sys
*CAP
1 *985:trimCurr[4] 0.00108106
2 *988:analog_ctrl[68] 6.5687e-05
3 *842:17 0.0242618
4 *842:15 0.0291467
5 *842:9 0.0231957
6 *842:7 0.0172954
7 *985:trimCurr[4] *985:trimCurr[5] 0
8 *985:trimCurr[4] *985:CurrAbsTrim[0] 0
9 *842:9 *843:17 0.00602928
10 *985:trimCurr[3] *985:trimCurr[4] 6.52253e-05
11 *103:14 *842:17 0.00997928
12 *838:17 *842:17 0.0267755
13 *841:17 *985:trimCurr[4] 0.00117003
14 *841:17 *842:17 0.0103561
*RES
1 *988:analog_ctrl[68] *842:7 1.08036 
2 *842:7 *842:9 346.196 
3 *842:9 *842:15 24.5233 
4 *842:15 *842:17 712.232 
5 *842:17 *985:trimCurr[4] 29.0045 
*END

*D_NET *843 0.177873
*CONN
*I *985:trimCurr[5] I *D CF_BGR
*I *988:analog_ctrl[69] O *D soc_sys
*CAP
1 *985:trimCurr[5] 0.00242687
2 *988:analog_ctrl[69] 0.000657459
3 *843:17 0.0645947
4 *843:15 0.0628253
5 *985:trimCurr[5] *985:CurrAbsTrim[0] 0.000267279
6 *985:trimCurr[5] *985:CurrAbsTrim[4] 0
7 *985:trimCurr[5] *985:inl_ctrl[0] 0
8 *985:trimCurr[4] *985:trimCurr[5] 0
9 *985:trimCurr[1] *985:trimCurr[5] 0.00871702
10 *108:13 *843:15 0.000133568
11 *110:22 *985:trimCurr[5] 0.011506
12 *824:13 *843:15 0.000272976
13 *841:9 *843:17 0.0204424
14 *842:9 *843:17 0.00602928
*RES
1 *988:analog_ctrl[69] *843:15 13.5115 
2 *843:15 *843:17 188.611 
3 *843:17 *985:trimCurr[5] 32.5026 
*END

*D_NET *844 0.353829
*CONN
*I *986:gain[0] I *D CF_BUF_HIZ
*I *988:analog_ctrl[6] O *D soc_sys
*CAP
1 *986:gain[0] 0.0080107
2 *988:analog_ctrl[6] 0.00102952
3 *844:23 0.0080107
4 *844:21 0.0899158
5 *844:19 0.0899158
6 *844:17 0.0029701
7 *844:15 0.00399962
8 *986:gain[0] *986:gain[1] 0.00424764
9 *986:disable_n *986:gain[0] 0
10 *986:rc *986:gain[0] 0.0016751
11 *47:21 *844:15 0.000546446
12 *82:24 *844:17 0.000939483
13 *108:13 *844:15 0
14 *671:15 *844:15 0.000735741
15 *682:9 *844:17 0
16 *782:13 *844:15 0.000104346
17 *799:13 *844:21 0.140579
18 *800:19 *844:15 0.000314973
19 *811:15 *844:15 0.000833956
*RES
1 *988:analog_ctrl[6] *844:15 15.1744 
2 *844:15 *844:17 59.625 
3 *844:17 *844:19 3.41 
4 *844:19 *844:21 324.347 
5 *844:21 *844:23 3.41 
6 *844:23 *986:gain[0] 204.67 
*END

*D_NET *845 0.161592
*CONN
*I *985:CurrAbsTrim[0] I *D CF_BGR
*I *988:analog_ctrl[70] O *D soc_sys
*CAP
1 *985:CurrAbsTrim[0] 0.00317784
2 *988:analog_ctrl[70] 6.5687e-05
3 *845:9 0.0564701
4 *845:7 0.053358
5 *985:CurrAbsTrim[0] *985:inl_ctrl[2] 0.00493059
6 *845:9 *848:17 0.036658
7 *985:trimCurr[5] *985:CurrAbsTrim[0] 0.000267279
8 *985:trimCurr[4] *985:CurrAbsTrim[0] 0
9 *985:trimTC[5] *985:CurrAbsTrim[0] 0.00412297
10 *656:19 *985:CurrAbsTrim[0] 0.00254161
*RES
1 *988:analog_ctrl[70] *845:7 1.08036 
2 *845:7 *845:9 1082.66 
3 *845:9 *985:CurrAbsTrim[0] 30.7249 
*END

*D_NET *846 0.129365
*CONN
*I *985:CurrAbsTrim[1] I *D CF_BGR
*I *988:analog_ctrl[71] O *D soc_sys
*CAP
1 *985:CurrAbsTrim[1] 0.00485836
2 *988:analog_ctrl[71] 6.5687e-05
3 *846:9 0.0573921
4 *846:7 0.0525994
5 *985:CurrAbsTrim[1] *985:CurrAbsTrim[2] 0.000108377
6 *985:CurrAbsTrim[1] *985:inl_ctrl[0] 0.0123942
7 *985:CurrAbsTrim[1] *847:17 0.00131939
8 *985:trimCurr[0] *985:CurrAbsTrim[1] 0
9 *985:trimCurr[1] *985:CurrAbsTrim[1] 0.000627343
10 *75:18 *985:CurrAbsTrim[1] 0
*RES
1 *988:analog_ctrl[71] *846:7 1.08036 
2 *846:7 *846:9 1068.7 
3 *846:9 *985:CurrAbsTrim[1] 44.2121 
*END

*D_NET *847 0.127385
*CONN
*I *985:CurrAbsTrim[2] I *D CF_BGR
*I *988:analog_ctrl[72] O *D soc_sys
*CAP
1 *985:CurrAbsTrim[2] 3.76109e-05
2 *988:analog_ctrl[72] 6.5687e-05
3 *847:17 0.00293111
4 *847:15 0.00839824
5 *847:9 0.0549227
6 *847:7 0.0494837
7 *985:CurrAbsTrim[2] *985:CurrAbsTrim[3] 0.000105632
8 *847:17 *985:CurrAbsTrim[3] 0.00338212
9 *847:17 *850:17 0
10 *985:CurrAbsTrim[1] *985:CurrAbsTrim[2] 0.000108377
11 *985:CurrAbsTrim[1] *847:17 0.00131939
12 *832:15 *847:15 0.00663068
13 *838:17 *847:17 0
14 *840:25 *847:17 0
*RES
1 *988:analog_ctrl[72] *847:7 1.08036 
2 *847:7 *847:9 1006.16 
3 *847:9 *847:15 26.9015 
4 *847:15 *847:17 79.0536 
5 *847:17 *985:CurrAbsTrim[2] 1.43304 
*END

*D_NET *848 0.178467
*CONN
*I *985:CurrAbsTrim[3] I *D CF_BGR
*I *988:analog_ctrl[73] O *D soc_sys
*CAP
1 *985:CurrAbsTrim[3] 0.00144744
2 *988:analog_ctrl[73] 0.000850535
3 *848:23 0.00679356
4 *848:17 0.0640592
5 *848:15 0.0595636
6 *985:CurrAbsTrim[3] *985:mux2sel 0
7 *985:CurrAbsTrim[3] *850:17 0
8 *848:23 *854:15 0
9 *985:CurrAbsTrim[2] *985:CurrAbsTrim[3] 0.000105632
10 *108:13 *848:15 0.000256899
11 *715:31 *848:15 0.000132815
12 *824:13 *848:15 0.000510291
13 *835:15 *848:23 0.00470734
14 *840:15 *848:23 0
15 *845:9 *848:17 0.036658
16 *847:17 *985:CurrAbsTrim[3] 0.00338212
*RES
1 *988:analog_ctrl[73] *848:15 14.5204 
2 *848:15 *848:17 182.326 
3 *848:17 *848:23 25.4242 
4 *848:23 *985:CurrAbsTrim[3] 43.2321 
*END

*D_NET *849 0.153427
*CONN
*I *985:CurrAbsTrim[4] I *D CF_BGR
*I *988:analog_ctrl[74] O *D soc_sys
*CAP
1 *985:CurrAbsTrim[4] 0.00401867
2 *988:analog_ctrl[74] 6.5687e-05
3 *849:9 0.0568804
4 *849:7 0.0529274
5 *985:CurrAbsTrim[4] *985:CurrAbsTrim[5] 8.20314e-05
6 *985:CurrAbsTrim[4] *985:mux2sel 0.000874778
7 *985:CurrAbsTrim[4] *850:17 0.000780928
8 *985:CurrAbsTrim[4] *861:15 0.0134977
9 *849:9 *851:17 0.0227053
10 *985:trimCurr[5] *985:CurrAbsTrim[4] 0
11 *985:trimCurr[1] *985:CurrAbsTrim[4] 0.00159367
12 *110:22 *985:CurrAbsTrim[4] 0
*RES
1 *988:analog_ctrl[74] *849:7 1.08036 
2 *849:7 *849:9 1075.38 
3 *849:9 *985:CurrAbsTrim[4] 39.1292 
*END

*D_NET *850 0.129327
*CONN
*I *985:CurrAbsTrim[5] I *D CF_BGR
*I *988:analog_ctrl[75] O *D soc_sys
*CAP
1 *985:CurrAbsTrim[5] 4.7643e-05
2 *988:analog_ctrl[75] 6.5687e-05
3 *850:17 0.0375899
4 *850:15 0.0454894
5 *850:9 0.0221642
6 *850:7 0.0142828
7 *985:CurrAbsTrim[5] *985:mux1sel[0] 4.5271e-05
8 *850:9 *851:17 0.00470801
9 *850:17 *985:mux2sel 2.46867e-05
10 *850:17 *985:mux1sel[0] 0.00188848
11 *850:17 *860:25 0.00215781
12 *850:17 *864:17 0
13 *985:CurrAbsTrim[3] *850:17 0
14 *985:CurrAbsTrim[4] *985:CurrAbsTrim[5] 8.20314e-05
15 *985:CurrAbsTrim[4] *850:17 0.000780928
16 *831:15 *850:15 0
17 *847:17 *850:17 0
*RES
1 *988:analog_ctrl[75] *850:7 1.08036 
2 *850:7 *850:9 284.875 
3 *850:9 *850:15 28.6311 
4 *850:15 *850:17 800.339 
5 *850:17 *985:CurrAbsTrim[5] 1.42411 
*END

*D_NET *851 0.188109
*CONN
*I *985:inl_ctrl[0] I *D CF_BGR
*I *988:analog_ctrl[76] O *D soc_sys
*CAP
1 *985:inl_ctrl[0] 0.00354359
2 *988:analog_ctrl[76] 0.000619752
3 *851:17 0.0653218
4 *851:15 0.0623979
5 *985:inl_ctrl[0] *985:inl_ctrl[1] 0.000783503
6 *985:inl_ctrl[0] *857:15 0.0151731
7 *985:trimCurr[5] *985:inl_ctrl[0] 0
8 *985:CurrAbsTrim[1] *985:inl_ctrl[0] 0.0123942
9 *75:18 *985:inl_ctrl[0] 0
10 *108:13 *851:15 0.000155156
11 *824:13 *851:15 0.000306971
12 *849:9 *851:17 0.0227053
13 *850:9 *851:17 0.00470801
*RES
1 *988:analog_ctrl[76] *851:15 13.5835 
2 *851:15 *851:17 186.693 
3 *851:17 *985:inl_ctrl[0] 49.3043 
*END

*D_NET *852 0.125445
*CONN
*I *985:inl_ctrl[1] I *D CF_BGR
*I *988:analog_ctrl[77] O *D soc_sys
*CAP
1 *985:inl_ctrl[1] 0.000941404
2 *988:analog_ctrl[77] 6.5687e-05
3 *852:15 0.00972691
4 *852:9 0.0605781
5 *852:7 0.0518583
6 *985:inl_ctrl[1] *985:inl_ctrl[3] 0.00112668
7 *985:inl_ctrl[1] *985:inl_ctrl[2] 0.000364229
8 *852:15 *854:15 0
9 *985:inl_ctrl[0] *985:inl_ctrl[1] 0.000783503
*RES
1 *988:analog_ctrl[77] *852:7 1.08036 
2 *852:7 *852:9 1054.73 
3 *852:9 *852:15 32.7389 
4 *852:15 *985:inl_ctrl[1] 31.933 
*END

*D_NET *853 0.165071
*CONN
*I *985:inl_ctrl[2] I *D CF_BGR
*I *988:analog_ctrl[78] O *D soc_sys
*CAP
1 *985:inl_ctrl[2] 0.00269889
2 *988:analog_ctrl[78] 6.5687e-05
3 *853:9 0.0558568
4 *853:7 0.0532236
5 *985:inl_ctrl[2] *985:inl_ctrl[3] 0.000371575
6 *853:9 *856:17 0.0221131
7 *985:CurrAbsTrim[0] *985:inl_ctrl[2] 0.00493059
8 *985:trimTC[5] *985:inl_ctrl[2] 0.00821034
9 *985:inl_ctrl[1] *985:inl_ctrl[2] 0.000364229
10 *109:18 *985:inl_ctrl[2] 0.0172361
11 *656:19 *985:inl_ctrl[2] 0
*RES
1 *988:analog_ctrl[78] *853:7 1.08036 
2 *853:7 *853:9 1081.45 
3 *853:9 *985:inl_ctrl[2] 38.8761 
*END

*D_NET *854 0.126896
*CONN
*I *985:inl_ctrl[3] I *D CF_BGR
*I *988:analog_ctrl[79] O *D soc_sys
*CAP
1 *985:inl_ctrl[3] 0.000972589
2 *988:analog_ctrl[79] 6.5687e-05
3 *854:15 0.0103368
4 *854:9 0.0608517
5 *854:7 0.0515531
6 *985:inl_ctrl[3] *985:inl_ctrl[4] 7.31981e-05
7 *985:inl_ctrl[3] *856:25 0.00154458
8 *985:inl_ctrl[1] *985:inl_ctrl[3] 0.00112668
9 *985:inl_ctrl[2] *985:inl_ctrl[3] 0.000371575
10 *835:15 *854:15 0
11 *848:23 *854:15 0
12 *852:15 *854:15 0
*RES
1 *988:analog_ctrl[79] *854:7 1.08036 
2 *854:7 *854:9 1048.66 
3 *854:9 *854:15 34.4685 
4 *854:15 *985:inl_ctrl[3] 38.1875 
*END

*D_NET *855 0.271026
*CONN
*I *986:gain[1] I *D CF_BUF_HIZ
*I *988:analog_ctrl[7] O *D soc_sys
*CAP
1 *986:gain[1] 0.00176258
2 *988:analog_ctrl[7] 5.02443e-05
3 *855:15 0.00176258
4 *855:13 0.118389
5 *855:11 0.118389
6 *855:9 0.00854397
7 *855:7 0.00859421
8 *986:disable_n *986:gain[1] 0.00424764
9 *986:gain[0] *986:gain[1] 0.00424764
10 *88:12 *855:9 0.0050393
11 *782:13 *855:9 0
12 *811:17 *855:9 0
*RES
1 *988:analog_ctrl[7] *855:7 1.08036 
2 *855:7 *855:9 173.768 
3 *855:9 *855:11 3.41 
4 *855:11 *855:13 326.869 
5 *855:13 *855:15 3.41 
6 *855:15 *986:gain[1] 94.1696 
*END

*D_NET *856 0.166787
*CONN
*I *985:inl_ctrl[4] I *D CF_BGR
*I *988:analog_ctrl[80] O *D soc_sys
*CAP
1 *985:inl_ctrl[4] 4.62386e-05
2 *988:analog_ctrl[80] 0.000683889
3 *856:25 0.00252244
4 *856:23 0.0120643
5 *856:17 0.0662596
6 *856:15 0.0573554
7 *985:inl_ctrl[4] *985:inl_ctrl[5] 6.67829e-05
8 *856:23 *860:23 0
9 *856:25 *985:inl_ctrl[5] 0.00142871
10 *856:25 *858:17 0.0022037
11 *985:inl_ctrl[3] *985:inl_ctrl[4] 7.31981e-05
12 *985:inl_ctrl[3] *856:25 0.00154458
13 *108:13 *856:15 0.000139324
14 *824:13 *856:15 0.000285798
15 *832:15 *856:23 0
16 *853:9 *856:17 0.0221131
*RES
1 *988:analog_ctrl[80] *856:15 13.5835 
2 *856:15 *856:17 174.655 
3 *856:17 *856:23 34.1442 
4 *856:23 *856:25 85.7321 
5 *856:25 *985:inl_ctrl[4] 1.44196 
*END

*D_NET *857 0.175456
*CONN
*I *985:inl_ctrl[5] I *D CF_BGR
*I *988:analog_ctrl[81] O *D soc_sys
*CAP
1 *985:inl_ctrl[5] 0.000357976
2 *988:analog_ctrl[81] 6.5687e-05
3 *857:15 0.00757952
4 *857:9 0.0596299
5 *857:7 0.052474
6 *985:inl_ctrl[5] *985:inl_ctrl[6] 7.40357e-05
7 *985:inl_ctrl[5] *858:17 0.000778672
8 *857:9 *860:17 0.0378275
9 *857:15 *859:15 0
10 *985:inl_ctrl[0] *857:15 0.0151731
11 *985:inl_ctrl[4] *985:inl_ctrl[5] 6.67829e-05
12 *75:18 *857:15 0
13 *856:25 *985:inl_ctrl[5] 0.00142871
*RES
1 *988:analog_ctrl[81] *857:7 1.08036 
2 *857:7 *857:9 1067.48 
3 *857:9 *857:15 36.2702 
4 *857:15 *985:inl_ctrl[5] 19.2232 
*END

*D_NET *858 0.128283
*CONN
*I *985:inl_ctrl[6] I *D CF_BGR
*I *988:analog_ctrl[82] O *D soc_sys
*CAP
1 *985:inl_ctrl[6] 7.14507e-05
2 *988:analog_ctrl[82] 6.5687e-05
3 *858:17 0.0357008
4 *858:15 0.0461459
5 *858:9 0.0268466
6 *858:7 0.0163957
7 *985:inl_ctrl[5] *985:inl_ctrl[6] 7.40357e-05
8 *985:inl_ctrl[5] *858:17 0.000778672
9 *856:25 *858:17 0.0022037
*RES
1 *988:analog_ctrl[82] *858:7 1.08036 
2 *858:7 *858:9 327.982 
3 *858:9 *858:15 37.2071 
4 *858:15 *858:17 757.232 
5 *858:17 *985:inl_ctrl[6] 1.58482 
*END

*D_NET *859 0.12745
*CONN
*I *985:mux1sel[0] I *D CF_BGR
*I *988:analog_ctrl[83] O *D soc_sys
*CAP
1 *985:mux1sel[0] 0.000590966
2 *988:analog_ctrl[83] 6.5687e-05
3 *859:15 0.0100498
4 *859:9 0.061553
5 *859:7 0.0521599
6 *985:mux1sel[0] *985:mux1sel[1] 0.000141257
7 *985:mux1sel[0] *860:25 0.000955964
8 *985:CurrAbsTrim[5] *985:mux1sel[0] 4.5271e-05
9 *850:17 *985:mux1sel[0] 0.00188848
10 *857:15 *859:15 0
*RES
1 *988:analog_ctrl[83] *859:7 1.08036 
2 *859:7 *859:9 1061.41 
3 *859:9 *859:15 34.9009 
4 *859:15 *985:mux1sel[0] 25.8036 
*END

*D_NET *860 0.185166
*CONN
*I *985:mux1sel[1] I *D CF_BGR
*I *988:analog_ctrl[84] O *D soc_sys
*CAP
1 *985:mux1sel[1] 4.80957e-05
2 *988:analog_ctrl[84] 0.00086093
3 *860:25 0.00192017
4 *860:23 0.0114901
5 *860:17 0.0655187
6 *860:15 0.0567616
7 *985:mux1sel[1] *985:dft_sel 0.000108377
8 *985:mux1sel[1] *862:17 7.7111e-05
9 *860:25 *862:17 0.00532222
10 *860:25 *864:17 0.00103499
11 *985:mux1sel[0] *985:mux1sel[1] 0.000141257
12 *985:mux1sel[0] *860:25 0.000955964
13 *108:13 *860:15 0.000266613
14 *715:31 *860:15 0.000146098
15 *824:13 *860:15 0.000528406
16 *850:17 *860:25 0.00215781
17 *856:23 *860:23 0
18 *857:9 *860:17 0.0378275
*RES
1 *988:analog_ctrl[84] *860:15 14.5925 
2 *860:15 *860:17 173.59 
3 *860:17 *860:23 33.2794 
4 *860:23 *860:25 91.1964 
5 *860:25 *985:mux1sel[1] 2.11607 
*END

*D_NET *861 0.179217
*CONN
*I *985:mux2sel I *D CF_BGR
*I *988:analog_ctrl[85] O *D soc_sys
*CAP
1 *985:mux2sel 0.000617079
2 *988:analog_ctrl[85] 6.5687e-05
3 *861:15 0.00485142
4 *861:9 0.0569833
5 *861:7 0.0528147
6 *861:9 *863:17 0.0305625
7 *985:trimCurr[1] *861:15 0
8 *985:CurrAbsTrim[3] *985:mux2sel 0
9 *985:CurrAbsTrim[4] *985:mux2sel 0.000874778
10 *985:CurrAbsTrim[4] *861:15 0.0134977
11 *110:22 *861:15 0
12 *116:39 *861:15 0.018731
13 *119:22 *985:mux2sel 0.000194366
14 *850:17 *985:mux2sel 2.46867e-05
*RES
1 *988:analog_ctrl[85] *861:7 1.08036 
2 *861:7 *861:9 1074.77 
3 *861:9 *861:15 36.7026 
4 *861:15 *985:mux2sel 20.6123 
*END

*D_NET *862 0.155526
*CONN
*I *985:dft_sel I *D CF_BGR
*I *988:analog_ctrl[86] O *D soc_sys
*CAP
1 *985:dft_sel 3.64478e-05
2 *988:analog_ctrl[86] 6.5687e-05
3 *862:17 0.00117268
4 *862:15 0.0113906
5 *862:9 0.0601849
6 *862:7 0.0499962
7 *985:dft_sel *985:pd_ibg 0.00011756
8 *862:9 *863:17 0.0216836
9 *862:17 *864:17 0.00537059
10 *985:mux1sel[1] *985:dft_sel 0.000108377
11 *985:mux1sel[1] *862:17 7.7111e-05
12 *860:25 *862:17 0.00532222
*RES
1 *988:analog_ctrl[86] *862:7 1.08036 
2 *862:7 *862:9 1017.7 
3 *862:9 *862:15 37.0629 
4 *862:15 *862:17 67.5179 
5 *862:17 *985:dft_sel 1.42857 
*END

*D_NET *863 0.204416
*CONN
*I *985:pd I *D CF_BGR
*I *988:analog_ctrl[87] O *D soc_sys
*CAP
1 *985:pd 0.00382423
2 *988:analog_ctrl[87] 0.000614113
3 *863:23 0.0145154
4 *863:17 0.0668886
5 *863:15 0.0568115
6 *985:pd *985:pd_ibg 7.82319e-05
7 *985:pd *864:17 0.00883287
8 *108:13 *863:15 0.000168828
9 *715:31 *863:15 0.000106249
10 *824:13 *863:15 0.000330379
11 *861:9 *863:17 0.0305625
12 *862:9 *863:17 0.0216836
*RES
1 *988:analog_ctrl[87] *863:15 13.6556 
2 *863:15 *863:17 170.287 
3 *863:17 *863:23 36.3783 
4 *863:23 *985:pd 111.839 
*END

*D_NET *864 0.138777
*CONN
*I *985:pd_ibg I *D CF_BGR
*I *988:analog_ctrl[88] O *D soc_sys
*CAP
1 *985:pd_ibg 3.99733e-05
2 *988:analog_ctrl[88] 6.5687e-05
3 *864:17 0.0028505
4 *864:15 0.014338
5 *864:9 0.0587553
6 *864:7 0.0472935
7 *985:dft_sel *985:pd_ibg 0.00011756
8 *985:pd *985:pd_ibg 7.82319e-05
9 *985:pd *864:17 0.00883287
10 *850:17 *864:17 0
11 *860:25 *864:17 0.00103499
12 *862:17 *864:17 0.00537059
*RES
1 *988:analog_ctrl[88] *864:7 1.08036 
2 *864:7 *864:9 962.446 
3 *864:9 *864:15 38.5763 
4 *864:15 *864:17 122.768 
5 *864:17 *985:pd_ibg 1.44643 
*END

*D_NET *865 0.111933
*CONN
*I *985:finetune I *D CF_BGR
*I *988:analog_ctrl[89] O *D soc_sys
*CAP
1 *985:finetune 0.00103212
2 *988:analog_ctrl[89] 6.5687e-05
3 *865:9 0.0541062
4 *865:7 0.0531397
5 *985:trimTC[5] *985:finetune 0.00107853
6 *985:trimTC[1] *985:finetune 0
7 *109:18 *985:finetune 0.00251078
8 *656:19 *985:finetune 0
9 *831:17 *985:finetune 0
*RES
1 *988:analog_ctrl[89] *865:7 1.08036 
2 *865:7 *865:9 1081.45 
3 *865:9 *985:finetune 17.1425 
*END

*D_NET *866 0.412134
*CONN
*I *984:reset_b I *D CF_ADC_DSM20
*I *988:analog_ctrl[8] O *D soc_sys
*CAP
1 *984:reset_b 0.00114485
2 *988:analog_ctrl[8] 0.000123566
3 *866:29 0.0152186
4 *866:27 0.0140737
5 *866:25 0.0544503
6 *866:23 0.0547444
7 *866:13 0.0179064
8 *866:11 0.0177359
9 *984:SCANINPUT *984:reset_b 0.00102122
10 *984:SCANMODE *984:reset_b 0.000446662
11 *984:SCANCLK *984:reset_b 0.00174889
12 *984:SCANEN *984:reset_b 0.000297154
13 *108:13 *866:23 0
14 *141:18 *866:29 0.09628
15 *671:15 *866:13 0.000676005
16 *671:21 *866:13 0.00327645
17 *680:17 *866:25 0
18 *683:9 *866:23 0
19 *684:9 *866:23 0
20 *684:9 *866:25 0.00867771
21 *748:9 *866:13 0.00205079
22 *790:15 *866:13 0.000232875
23 *794:13 *866:13 0.000100215
24 *805:13 *866:13 0.000603108
25 *824:13 *866:23 0.000158842
26 *828:13 *866:13 0.026622
27 *829:29 *866:29 0.0945442
*RES
1 *988:analog_ctrl[8] *866:11 7.07143 
2 *866:11 *866:13 463.821 
3 *866:13 *866:23 14.1652 
4 *866:23 *866:25 149.62 
5 *866:25 *866:27 3.41 
6 *866:27 *866:29 150.126 
7 *866:29 *984:reset_b 43.4457 
*END

*D_NET *867 0.207481
*CONN
*I *985:en_startb I *D CF_BGR
*I *988:analog_ctrl[90] O *D soc_sys
*CAP
1 *985:en_startb 5.08336e-05
2 *988:analog_ctrl[90] 0.000110194
3 *867:21 0.00696954
4 *867:19 0.0069187
5 *867:17 0.0668424
6 *867:15 0.0675323
7 *867:11 0.000800096
8 *867:15 *868:11 0.00189443
9 *867:17 *871:17 0
10 *867:17 *876:11 0
11 *867:17 *876:13 0
12 *1:13 *867:21 0.0221067
13 *42:17 *867:17 0.0271723
14 *672:15 *867:17 7.0413e-05
15 *748:9 *867:15 0.00152432
16 *790:17 *867:15 0.000822992
17 *829:13 *867:15 0.0046659
*RES
1 *988:analog_ctrl[90] *867:11 6.16071 
2 *867:11 *867:15 48.5714 
3 *867:15 *867:17 1364.38 
4 *867:17 *867:19 4.5 
5 *867:19 *867:21 212.375 
6 *867:21 *985:en_startb 0.973214 
*END

*D_NET *868 0.172144
*CONN
*I *987:pd I *D CF_REFBUF
*I *988:analog_ctrl[91] O *D soc_sys
*CAP
1 *987:pd 0.00245385
2 *988:analog_ctrl[91] 0.000319157
3 *868:17 0.0129692
4 *868:15 0.0105153
5 *868:13 0.0529724
6 *868:11 0.0532915
7 *987:pd *869:17 0
8 *868:13 *871:9 0
9 *868:13 *872:15 0.000315986
10 *868:13 *872:19 0.00396505
11 *76:29 *868:17 0
12 *109:18 *868:17 0.031536
13 *656:19 *868:17 0
14 *656:40 *868:17 0
15 *670:29 *868:17 1.47728e-05
16 *748:9 *868:11 0.00189636
17 *867:15 *868:11 0.00189443
*RES
1 *988:analog_ctrl[91] *868:11 27.8929 
2 *868:11 *868:13 1081.29 
3 *868:13 *868:15 3.41 
4 *868:15 *868:17 49.2325 
5 *868:17 *987:pd 29.7021 
*END

*D_NET *869 0.171179
*CONN
*I *987:switchon I *D CF_REFBUF
*I *988:analog_ctrl[92] O *D soc_sys
*CAP
1 *987:switchon 0.001716
2 *988:analog_ctrl[92] 6.63482e-05
3 *869:17 0.0170143
4 *869:15 0.0152983
5 *869:13 0.0180471
6 *869:11 0.0180471
7 *869:9 0.0371833
8 *869:7 0.0372496
9 *987:switchon *870:21 0.0061248
10 *987:pd *869:17 0
11 *987:ch1 *987:switchon 0.000827422
12 *834:17 *869:9 0.019605
*RES
1 *988:analog_ctrl[92] *869:7 1.08036 
2 *869:7 *869:9 931.482 
3 *869:9 *869:11 3.41 
4 *869:11 *869:13 50.9981 
5 *869:13 *869:15 3.41 
6 *869:15 *869:17 312.804 
7 *869:17 *987:switchon 16.2357 
*END

*D_NET *870 0.187017
*CONN
*I *987:boost I *D CF_REFBUF
*I *988:analog_ctrl[93] O *D soc_sys
*CAP
1 *987:boost 0
2 *988:analog_ctrl[93] 6.63482e-05
3 *870:21 0.0132401
4 *870:17 0.0552492
5 *870:15 0.0477404
6 *870:9 0.0230395
7 *870:7 0.0173746
8 *984:itrim_1[2] *870:15 7.62033e-05
9 *987:switchon *870:21 0.0061248
10 *673:17 *870:17 0.00292078
11 *678:23 *870:15 0
12 *824:17 *870:17 0.0186544
13 *831:17 *870:9 0.00253059
14 *834:17 *870:9 0
*RES
1 *988:analog_ctrl[93] *870:7 1.08036 
2 *870:7 *870:9 371.089 
3 *870:9 *870:15 23.5144 
4 *870:15 *870:17 872.589 
5 *870:17 *870:21 47.2735 
6 *870:21 *987:boost 3.41 
*END

*D_NET *871 0.174386
*CONN
*I *987:ch_cont I *D CF_REFBUF
*I *988:analog_ctrl[94] O *D soc_sys
*CAP
1 *987:ch_cont 0.0139143
2 *988:analog_ctrl[94] 6.63482e-05
3 *871:19 0.0139143
4 *871:17 0.0440937
5 *871:15 0.0453024
6 *871:9 0.0148308
7 *871:7 0.0136885
8 *871:17 *876:13 0.00601127
9 *42:17 *871:17 0.0225645
10 *867:17 *871:17 0
11 *868:13 *871:9 0
*RES
1 *988:analog_ctrl[94] *871:7 1.08036 
2 *871:7 *871:9 272.58 
3 *871:9 *871:15 31.7143 
4 *871:15 *871:17 931.179 
5 *871:17 *871:19 4.5 
6 *871:19 *987:ch_cont 265.384 
*END

*D_NET *872 0.40363
*CONN
*I *984:itrim_comp[0] I *D CF_ADC_DSM20
*I *988:analog_ctrl[95] O *D soc_sys
*CAP
1 *984:itrim_comp[0] 0.00264426
2 *988:analog_ctrl[95] 0.000320808
3 *872:25 0.00684991
4 *872:23 0.00420565
5 *872:21 0.0198699
6 *872:19 0.0336345
7 *872:15 0.0140854
8 *984:itrim_comp[0] *984:itrim_comp[3] 0.00196899
9 *984:itrim_comp[0] *984:itrim_comp[1] 0.0014745
10 *872:21 *875:13 0.112205
11 *872:25 *875:17 0.0263164
12 *984:ODET_TH[1] *984:itrim_comp[0] 0
13 *984:BUF_FCHOP[0] *984:itrim_comp[0] 0.000174043
14 *20:15 *872:25 0.0254603
15 *31:13 *872:21 5.4345e-05
16 *108:13 *872:15 1.30843e-05
17 *758:13 *872:25 0.000555003
18 *767:13 *872:21 0.000254013
19 *768:13 *872:21 0.000857562
20 *770:47 *872:25 0.0035035
21 *776:13 *872:21 0.0109789
22 *778:13 *872:21 0.0126516
23 *791:21 *872:21 0.00895471
24 *792:43 *872:25 4.99734e-05
25 *794:49 *872:25 0.000106304
26 *803:13 *872:21 0.109886
27 *809:13 *872:21 0.00193264
28 *809:17 *872:25 1.37595e-05
29 *820:13 *872:21 0.000292294
30 *824:13 *872:15 3.55717e-05
31 *868:13 *872:15 0.000315986
32 *868:13 *872:19 0.00396505
*RES
1 *988:analog_ctrl[95] *872:15 12.4305 
2 *872:15 *872:19 45.4311 
3 *872:19 *872:21 178.448 
4 *872:21 *872:23 3.41 
5 *872:23 *872:25 324.946 
6 *872:25 *984:itrim_comp[0] 13.7885 
*END

*D_NET *873 0.284163
*CONN
*I *984:itrim_comp[1] I *D CF_ADC_DSM20
*I *988:analog_ctrl[96] O *D soc_sys
*CAP
1 *984:itrim_comp[1] 0.00108676
2 *988:analog_ctrl[96] 6.5687e-05
3 *873:17 0.00743693
4 *873:15 0.00635017
5 *873:13 0.0385853
6 *873:11 0.0385853
7 *873:9 0.0117367
8 *873:7 0.0118024
9 *873:17 *877:17 0.0277176
10 *984:ODET *984:itrim_comp[1] 5.35603e-06
11 *984:itrim_comp[0] *984:itrim_comp[1] 0.0014745
12 *984:BUF_FCHOP[0] *984:itrim_comp[1] 0.000304719
13 *984:RESET_DEC_INPUT *984:itrim_comp[1] 0.00049099
14 *984:FCHOP[2] *984:itrim_comp[1] 6.63854e-05
15 *20:11 *873:13 0.110718
16 *652:17 *873:13 0
17 *740:13 *873:17 0.0277365
18 *794:45 *873:13 0
19 *809:13 *873:13 0
*RES
1 *988:analog_ctrl[96] *873:7 1.08036 
2 *873:7 *873:9 236.304 
3 *873:9 *873:11 3.41 
4 *873:11 *873:13 173.62 
5 *873:13 *873:15 3.41 
6 *873:15 *873:17 58.4273 
7 *873:17 *984:itrim_comp[1] 9.9596 
*END

*D_NET *874 0.257062
*CONN
*I *984:itrim_comp[2] I *D CF_ADC_DSM20
*I *988:analog_ctrl[97] O *D soc_sys
*CAP
1 *984:itrim_comp[2] 6.29935e-05
2 *988:analog_ctrl[97] 6.5687e-05
3 *874:17 0.0209266
4 *874:15 0.0208636
5 *874:13 0.0408162
6 *874:11 0.0408162
7 *874:9 0.0102029
8 *874:7 0.0102686
9 *984:dig_test_sel[1] *874:17 0.000118101
10 *44:13 *874:9 0.00716972
11 *654:17 *874:13 0
12 *795:13 *874:13 0.105751
13 *802:17 *874:17 0
*RES
1 *988:analog_ctrl[97] *874:7 1.08036 
2 *874:7 *874:9 205.339 
3 *874:9 *874:11 3.41 
4 *874:11 *874:13 169.079 
5 *874:13 *874:15 3.41 
6 *874:15 *874:17 63.5691 
7 *874:17 *984:itrim_comp[2] 6.9751 
*END

*D_NET *875 0.370129
*CONN
*I *984:itrim_comp[3] I *D CF_ADC_DSM20
*I *988:analog_ctrl[98] O *D soc_sys
*CAP
1 *984:itrim_comp[3] 0.00213082
2 *988:analog_ctrl[98] 6.5687e-05
3 *875:17 0.00626219
4 *875:15 0.00413137
5 *875:13 0.0220237
6 *875:11 0.0220237
7 *875:9 0.0121645
8 *875:7 0.0122301
9 *984:MODBIT *984:itrim_comp[3] 5.56602e-05
10 *984:SIGN *984:itrim_comp[3] 0.00350181
11 *984:MODINPUT *984:itrim_comp[3] 8.00576e-05
12 *984:itrim_comp[0] *984:itrim_comp[3] 0.00196899
13 *669:13 *984:itrim_comp[3] 0
14 *753:13 *875:13 0.0716259
15 *770:47 *875:17 0.00359194
16 *784:13 *875:13 0.0120826
17 *787:13 *875:13 0.0103758
18 *791:21 *875:13 0.0103468
19 *792:43 *875:17 0.0262545
20 *794:49 *875:17 0.000106304
21 *797:13 *875:13 0
22 *809:17 *875:17 3.07772e-05
23 *820:13 *875:13 0.0105539
24 *872:21 *875:13 0.112205
25 *872:25 *875:17 0.0263164
*RES
1 *988:analog_ctrl[98] *875:7 1.08036 
2 *875:7 *875:9 244.196 
3 *875:9 *875:11 3.41 
4 *875:11 *875:13 176.106 
5 *875:13 *875:15 3.41 
6 *875:15 *875:17 323.125 
7 *875:17 *984:itrim_comp[3] 13.6977 
*END

*D_NET *876 0.0671625
*CONN
*I *984:itrim_2_3[0] I *D CF_ADC_DSM20
*I *988:analog_ctrl[99] O *D soc_sys
*CAP
1 *984:itrim_2_3[0] 0.00110548
2 *988:analog_ctrl[99] 0.00223856
3 *876:21 0.00351632
4 *876:19 0.00743936
5 *876:13 0.0187782
6 *876:11 0.0159882
7 *984:itrim_1[1] *876:19 0.00266403
8 *984:itrim_1[1] *876:21 0
9 *984:iin *984:itrim_2_3[0] 0
10 *984:itrim_sum[2] *984:itrim_2_3[0] 7.78784e-05
11 *984:itrim_sum[4] *984:itrim_2_3[0] 0.00033119
12 *984:itrim_2_3[1] *984:itrim_2_3[0] 0.00102703
13 *984:itrim_2_3[2] *984:itrim_2_3[0] 0
14 *984:itrim_sum[5] *984:itrim_2_3[0] 0.000223267
15 *42:17 *876:11 0.000577119
16 *42:17 *876:13 0.00458475
17 *677:17 *876:21 0.00202859
18 *719:17 *876:21 0
19 *728:33 *876:21 0.000571306
20 *867:17 *876:11 0
21 *867:17 *876:13 0
22 *871:17 *876:13 0.00601127
*RES
1 *988:analog_ctrl[99] *876:11 43.4018 
2 *876:11 *876:13 304.536 
3 *876:13 *876:19 21.7127 
4 *876:19 *876:21 65.6964 
5 *876:21 *984:itrim_2_3[0] 10.6373 
*END

*D_NET *877 0.364835
*CONN
*I *984:disable_mod I *D CF_ADC_DSM20
*I *988:analog_ctrl[9] O *D soc_sys
*CAP
1 *984:disable_mod 0.00076936
2 *988:analog_ctrl[9] 5.10627e-05
3 *877:17 0.018114
4 *877:15 0.0173446
5 *877:13 0.0706864
6 *877:11 0.0706864
7 *877:9 0.0116307
8 *877:7 0.0116817
9 *984:ODET_TH[1] *984:disable_mod 1.61998e-05
10 *984:RESET2 *984:disable_mod 6.31544e-05
11 *984:RESET3 *984:disable_mod 0.000384797
12 *984:dig_test_sel[2] *984:disable_mod 0.000958557
13 *984:qlev[1] *984:disable_mod 0.000812977
14 *984:bypass_p *984:disable_mod 3.83866e-05
15 *20:11 *877:13 0
16 *112:21 *877:13 0.0366558
17 *114:21 *877:13 0.000813716
18 *660:14 *877:17 0.00565939
19 *662:19 *877:17 0.00530231
20 *740:13 *877:17 0.000568296
21 *755:25 *877:17 0.004951
22 *757:25 *877:17 0.004951
23 *766:21 *877:13 0.0444677
24 *769:13 *877:13 0.013071
25 *772:13 *877:13 0.00780789
26 *773:13 *877:13 0.0021247
27 *774:13 *877:13 0.000100473
28 *783:13 *877:13 0.00740575
29 *815:13 *877:13 0
30 *873:17 *877:17 0.0277176
*RES
1 *988:analog_ctrl[9] *877:7 1.08036 
2 *877:7 *877:9 229.625 
3 *877:9 *877:11 3.41 
4 *877:11 *877:13 242.443 
5 *877:13 *877:15 3.41 
6 *877:15 *877:17 60.771 
7 *877:17 *984:disable_mod 9.56323 
*END

*D_NET *880 0.0345711
*CONN
*I *988:sram_ack_i I *D soc_sys
*I *989:wbs_ack_o O *D CF_SRAM_1024x32_wb_wrapper
*CAP
1 *988:sram_ack_i 0.0126096
2 *989:wbs_ack_o 0.0126096
3 *988:sram_ack_i *989:wbs_adr_i[0] 0.00274427
4 *988:sram_ack_i *989:wbs_cyc_i 8.48675e-05
5 *988:sram_ack_i *989:wbs_dat_i[5] 5.85882e-05
6 *988:sram_ack_i *886:9 0.000429362
7 *988:sram_ack_i *916:25 0.0006023
8 *988:sram_ack_i *919:21 0.000482113
9 *988:sram_ack_i *921:19 0.000186301
10 *988:sram_ack_i *946:29 0.000125565
11 *988:sram_ack_i *950:13 0.00131388
12 *988:sram_ack_i *954:9 0.000429362
13 *988:sram_ack_i *982:19 0.00289535
*RES
1 *989:wbs_ack_o *988:sram_ack_i 33.0458 
*END

*D_NET *881 0.0375548
*CONN
*I *989:wbs_adr_i[0] I *D CF_SRAM_1024x32_wb_wrapper
*I *988:sram_adr_o[0] O *D soc_sys
*CAP
1 *989:wbs_adr_i[0] 0.0065359
2 *988:sram_adr_o[0] 0.00357008
3 *881:11 0.00797083
4 *881:7 0.00500501
5 *989:wbs_adr_i[0] *989:wbs_cyc_i 2.48858e-05
6 *989:wbs_adr_i[0] *989:wbs_dat_i[5] 0.00119913
7 *989:wbs_adr_i[0] *921:19 0.000572388
8 *989:wbs_adr_i[0] *946:29 0.00335419
9 *989:wbs_adr_i[0] *958:25 0.00238214
10 *881:7 *988:sram_dat_i[0] 0
11 *881:7 *983:7 0
12 *881:11 *988:sram_dat_i[10] 0.000541485
13 *881:11 *949:9 0
14 *881:11 *973:9 0.00365449
15 *988:sram_ack_i *989:wbs_adr_i[0] 0.00274427
*RES
1 *988:sram_adr_o[0] *881:7 12.6157 
2 *881:7 *881:11 48.4636 
3 *881:11 *989:wbs_adr_i[0] 28.2291 
*END

*D_NET *882 0.0993114
*CONN
*I *989:wbs_adr_i[10] I *D CF_SRAM_1024x32_wb_wrapper
*I *988:sram_adr_o[10] O *D soc_sys
*CAP
1 *989:wbs_adr_i[10] 0.00165751
2 *988:sram_adr_o[10] 9.40174e-05
3 *882:15 0.00738873
4 *882:9 0.00891779
5 *882:7 0.00328059
6 *989:wbs_adr_i[10] *989:wbs_adr_i[22] 0.000471738
7 *989:wbs_adr_i[10] *989:wbs_adr_i[24] 0.00152678
8 *989:wbs_adr_i[10] *989:wbs_adr_i[5] 0
9 *989:wbs_adr_i[10] *989:wbs_dat_i[10] 0
10 *989:wbs_adr_i[10] *989:wbs_dat_i[7] 0.00122593
11 *989:wbs_adr_i[10] *927:11 9.84862e-05
12 *989:wbs_adr_i[10] *928:8 0.000107395
13 *989:wbs_adr_i[10] *941:7 0.000646081
14 *989:wbs_adr_i[10] *942:48 4.98422e-05
15 *989:wbs_adr_i[10] *945:7 0
16 *989:wbs_adr_i[10] *982:19 0.000973958
17 *882:9 *921:21 0.0137413
18 *882:9 *958:9 0.0136929
19 *882:15 *989:wbs_adr_i[11] 0.00468759
20 *882:15 *989:wbs_adr_i[2] 9.40219e-05
21 *882:15 *989:wbs_adr_i[3] 0.0209451
22 *882:15 *989:wbs_dat_i[6] 0
23 *882:15 *989:wbs_we_i 0.00677019
24 *882:15 *884:19 0.00853697
25 *882:15 *909:19 0.000541152
26 *882:15 *925:11 0.000621617
27 *32:37 *882:15 0.00105114
28 *37:37 *882:15 0.000468349
29 *115:17 *882:15 0.0017221
*RES
1 *988:sram_adr_o[10] *882:7 3.61367 
2 *882:7 *882:9 182.821 
3 *882:9 *882:15 47.7288 
4 *882:15 *989:wbs_adr_i[10] 20.918 
*END

*D_NET *883 0.0937429
*CONN
*I *989:wbs_adr_i[11] I *D CF_SRAM_1024x32_wb_wrapper
*I *988:sram_adr_o[11] O *D soc_sys
*CAP
1 *989:wbs_adr_i[11] 0.0138472
2 *988:sram_adr_o[11] 0.0129165
3 *883:15 0.0267638
4 *989:wbs_adr_i[11] *989:wbs_adr_i[22] 0.000118418
5 *989:wbs_adr_i[11] *989:wbs_adr_i[24] 0.000327141
6 *989:wbs_adr_i[11] *989:wbs_adr_i[3] 0.00369767
7 *989:wbs_adr_i[11] *989:wbs_dat_i[10] 0.000106852
8 *989:wbs_adr_i[11] *989:wbs_dat_i[20] 0
9 *989:wbs_adr_i[11] *899:17 0
10 *989:wbs_adr_i[11] *915:19 0.0157562
11 *989:wbs_adr_i[11] *969:17 0
12 *883:15 *988:sram_dat_i[10] 0.00192539
13 *883:15 *988:sram_dat_i[11] 0
14 *883:15 *988:sram_dat_i[6] 0.00928648
15 *883:15 *885:9 0.00184863
16 *883:15 *910:9 0.00104793
17 *883:15 *949:9 0.00124108
18 *883:15 *952:7 0
19 *35:17 *883:15 0
20 *115:17 *989:wbs_adr_i[11] 0.000171959
21 *882:15 *989:wbs_adr_i[11] 0.00468759
*RES
1 *988:sram_adr_o[11] *883:15 47.8024 
2 *883:15 *989:wbs_adr_i[11] 13.7808 
*END

*D_NET *884 0.0774002
*CONN
*I *989:wbs_adr_i[12] I *D CF_SRAM_1024x32_wb_wrapper
*I *988:sram_adr_o[12] O *D soc_sys
*CAP
1 *989:wbs_adr_i[12] 0.000531201
2 *988:sram_adr_o[12] 0.000609062
3 *884:21 0.00681863
4 *884:19 0.00843256
5 *884:9 0.0125862
6 *884:7 0.0110502
7 *989:wbs_adr_i[12] *989:wbs_dat_i[12] 0
8 *989:wbs_adr_i[12] *916:7 0
9 *884:7 *988:sram_dat_i[12] 0
10 *884:7 *953:7 0
11 *884:19 *989:wbs_we_i 0.00030178
12 *884:19 *885:19 0.000112686
13 *884:19 *887:19 0.00035421
14 *884:19 *890:19 0.000213352
15 *884:19 *925:11 2.44726e-05
16 *884:21 *989:wbs_we_i 0.00236545
17 *884:21 *885:21 0.0198041
18 *884:21 *925:11 0.00014225
19 *32:37 *884:19 0.00293658
20 *33:37 *884:19 0.000466973
21 *37:37 *884:19 0.00209814
22 *38:33 *884:19 1.53359e-05
23 *105:52 *884:21 0
24 *882:15 *884:19 0.00853697
*RES
1 *988:sram_adr_o[12] *884:7 4.97667 
2 *884:7 *884:9 204.125 
3 *884:9 *884:19 25.7274 
4 *884:19 *884:21 187.821 
5 *884:21 *989:wbs_adr_i[12] 12.3036 
*END

*D_NET *885 0.10043
*CONN
*I *989:wbs_adr_i[13] I *D CF_SRAM_1024x32_wb_wrapper
*I *988:sram_adr_o[13] O *D soc_sys
*CAP
1 *989:wbs_adr_i[13] 0.000515172
2 *988:sram_adr_o[13] 0.00353341
3 *885:21 0.00330482
4 *885:19 0.00398209
5 *885:9 0.00615197
6 *885:7 0.00849293
7 *989:wbs_adr_i[13] *989:wbs_dat_i[13] 0
8 *989:wbs_adr_i[13] *917:7 0
9 *885:7 *988:sram_dat_i[13] 0
10 *885:7 *954:7 0
11 *885:9 *887:9 0.00296428
12 *885:9 *910:9 0.0119492
13 *885:9 *949:9 0.00898234
14 *885:19 *989:wbs_adr_i[1] 4.82357e-05
15 *885:19 *989:wbs_adr_i[2] 0.00101226
16 *885:19 *989:wbs_dat_i[6] 3.92231e-05
17 *885:19 *887:19 0.00237147
18 *885:19 *890:19 0.00179007
19 *885:19 *925:11 0.000298588
20 *885:21 *989:wbs_we_i 0.00256088
21 *885:21 *886:13 0.0204912
22 *885:21 *925:11 0.000131918
23 *32:37 *885:19 4.47593e-05
24 *883:15 *885:9 0.00184863
25 *884:19 *885:19 0.000112686
26 *884:21 *885:21 0.0198041
*RES
1 *988:sram_adr_o[13] *885:7 13.4085 
2 *885:7 *885:9 213.232 
3 *885:9 *885:19 17.2235 
4 *885:19 *885:21 194.393 
5 *885:21 *989:wbs_adr_i[13] 12 
*END

*D_NET *886 0.104515
*CONN
*I *989:wbs_adr_i[14] I *D CF_SRAM_1024x32_wb_wrapper
*I *988:sram_adr_o[14] O *D soc_sys
*CAP
1 *989:wbs_adr_i[14] 0.000489134
2 *988:sram_adr_o[14] 0.00511878
3 *886:13 0.00362575
4 *886:11 0.00313662
5 *886:9 0.00329182
6 *886:7 0.0084106
7 *989:wbs_adr_i[14] *989:wbs_dat_i[14] 0
8 *989:wbs_adr_i[14] *918:7 0
9 *886:7 *988:sram_dat_i[14] 0
10 *886:7 *955:7 0
11 *886:9 *888:9 2.04866e-05
12 *886:9 *916:23 0.000408857
13 *886:9 *916:25 1.19409e-05
14 *886:9 *919:21 0.0174864
15 *886:9 *923:19 0.000985137
16 *886:9 *954:9 0.0156171
17 *886:9 *957:19 0.000712161
18 *886:13 *887:21 0.0217336
19 *886:13 *888:13 3.97677e-05
20 *886:13 *925:11 0.0025068
21 *988:sram_ack_i *886:9 0.000429362
22 *885:21 *886:13 0.0204912
*RES
1 *988:sram_adr_o[14] *886:7 17.228 
2 *886:7 *886:9 224.616 
3 *886:9 *886:11 4.5 
4 *886:11 *886:13 207.125 
5 *886:13 *989:wbs_adr_i[14] 11.6964 
*END

*D_NET *887 0.110178
*CONN
*I *989:wbs_adr_i[15] I *D CF_SRAM_1024x32_wb_wrapper
*I *988:sram_adr_o[15] O *D soc_sys
*CAP
1 *989:wbs_adr_i[15] 0.000468064
2 *988:sram_adr_o[15] 0.00354798
3 *887:21 0.00354668
4 *887:19 0.00373252
5 *887:9 0.00450376
6 *887:7 0.00739784
7 *989:wbs_adr_i[15] *989:wbs_dat_i[15] 0
8 *989:wbs_adr_i[15] *919:7 0
9 *887:7 *988:sram_dat_i[15] 0
10 *887:7 *956:7 0
11 *887:9 *910:9 0.0119966
12 *887:19 *916:23 4.19535e-05
13 *887:21 *888:13 0.0223778
14 *887:21 *925:11 0.00270313
15 *32:37 *887:19 0.00168593
16 *34:21 *887:9 0.0189414
17 *35:17 *887:9 0.00180272
18 *37:25 *887:9 8.44271e-06
19 *884:19 *887:19 0.00035421
20 *885:9 *887:9 0.00296428
21 *885:19 *887:19 0.00237147
22 *886:13 *887:21 0.0217336
*RES
1 *988:sram_adr_o[15] *887:7 13.5526 
2 *887:7 *887:9 235.696 
3 *887:9 *887:19 15.7669 
4 *887:19 *887:21 212.464 
5 *887:21 *989:wbs_adr_i[15] 11.3929 
*END

*D_NET *888 0.111723
*CONN
*I *989:wbs_adr_i[16] I *D CF_SRAM_1024x32_wb_wrapper
*I *988:sram_adr_o[16] O *D soc_sys
*CAP
1 *989:wbs_adr_i[16] 0.000446993
2 *988:sram_adr_o[16] 0.00514861
3 *888:13 0.00371009
4 *888:11 0.0032631
5 *888:9 0.00367726
6 *888:7 0.00882587
7 *989:wbs_adr_i[16] *989:wbs_dat_i[16] 0
8 *989:wbs_adr_i[16] *920:7 0
9 *888:7 *988:sram_dat_i[16] 0
10 *888:7 *957:7 0
11 *888:7 *960:15 0
12 *888:9 *919:21 0.0177817
13 *888:9 *922:13 0.000361673
14 *888:9 *950:13 0.000627007
15 *888:9 *957:9 0.0190117
16 *888:9 *957:19 0.000663107
17 *888:9 *960:27 0.000229226
18 *888:13 *989:wbs_adr_i[1] 0.00235603
19 *888:13 *889:17 0.0231823
20 *886:9 *888:9 2.04866e-05
21 *886:13 *888:13 3.97677e-05
22 *887:21 *888:13 0.0223778
*RES
1 *988:sram_adr_o[16] *888:7 17.0839 
2 *888:7 *888:9 245.866 
3 *888:9 *888:11 4.5 
4 *888:11 *888:13 220.268 
5 *888:13 *989:wbs_adr_i[16] 11.0893 
*END

*D_NET *889 0.117613
*CONN
*I *989:wbs_adr_i[17] I *D CF_SRAM_1024x32_wb_wrapper
*I *988:sram_adr_o[17] O *D soc_sys
*CAP
1 *989:wbs_adr_i[17] 0.000423194
2 *988:sram_adr_o[17] 0.00469933
3 *889:17 0.00398702
4 *889:15 0.00399731
5 *889:9 0.00442727
6 *889:7 0.00869311
7 *989:wbs_adr_i[17] *989:wbs_dat_i[17] 0
8 *989:wbs_adr_i[17] *921:7 0
9 *889:7 *988:sram_dat_i[17] 0
10 *889:7 *960:15 0
11 *889:9 *917:15 2.23987e-05
12 *889:9 *917:17 0.0151376
13 *889:9 *959:9 0.0193374
14 *889:15 *917:15 0.00149905
15 *889:15 *959:9 2.19012e-05
16 *889:15 *959:15 0.00142258
17 *889:17 *989:wbs_adr_i[1] 0.00254055
18 *889:17 *959:17 0.0244246
19 *31:17 *889:9 0.00379711
20 *888:13 *889:17 0.0231823
*RES
1 *988:sram_adr_o[17] *889:7 16.0029 
2 *889:7 *889:9 237.518 
3 *889:9 *889:15 24.1339 
4 *889:15 *889:17 232.179 
5 *889:17 *989:wbs_adr_i[17] 10.7857 
*END

*D_NET *890 0.109339
*CONN
*I *989:wbs_adr_i[18] I *D CF_SRAM_1024x32_wb_wrapper
*I *988:sram_adr_o[18] O *D soc_sys
*CAP
1 *989:wbs_adr_i[18] 0.000366954
2 *988:sram_adr_o[18] 0.00219198
3 *890:21 0.00380024
4 *890:19 0.00499593
5 *890:9 0.0101735
6 *890:7 0.0108029
7 *989:wbs_adr_i[18] *989:wbs_dat_i[18] 0
8 *989:wbs_adr_i[18] *922:7 0
9 *890:7 *988:sram_dat_i[18] 0
10 *890:7 *959:7 0
11 *890:9 *930:21 0
12 *890:9 *933:21 0.0216216
13 *890:19 *989:wbs_dat_i[6] 0.000586753
14 *890:19 *914:15 6.70605e-05
15 *890:19 *926:19 3.09665e-05
16 *890:21 *989:wbs_adr_i[26] 0.000112662
17 *890:21 *891:13 0.0246029
18 *890:21 *893:13 0.0249333
19 *890:21 *959:17 0.000172393
20 *32:37 *890:19 0.000350335
21 *33:29 *890:19 0.000182432
22 *34:25 *890:19 0.000122127
23 *35:27 *890:19 0.00054068
24 *35:29 *890:19 0.000254013
25 *36:23 *890:19 4.20573e-05
26 *37:35 *890:19 0.00013886
27 *38:31 *890:9 0.000107024
28 *38:33 *890:19 7.55918e-05
29 *39:17 *890:19 0.00106359
30 *884:19 *890:19 0.000213352
31 *885:19 *890:19 0.00179007
*RES
1 *988:sram_adr_o[18] *890:7 9.80513 
2 *890:7 *890:9 267.268 
3 *890:9 *890:19 18.7369 
4 *890:19 *890:21 237.107 
5 *890:21 *989:wbs_adr_i[18] 9.875 
*END

*D_NET *891 0.115909
*CONN
*I *989:wbs_adr_i[19] I *D CF_SRAM_1024x32_wb_wrapper
*I *988:sram_adr_o[19] O *D soc_sys
*CAP
1 *989:wbs_adr_i[19] 0.000369009
2 *988:sram_adr_o[19] 0.00485173
3 *891:13 0.00399218
4 *891:11 0.00362317
5 *891:9 0.00751016
6 *891:7 0.0123619
7 *989:wbs_adr_i[19] *989:wbs_dat_i[19] 0
8 *989:wbs_adr_i[19] *923:7 0
9 *989:wbs_adr_i[19] *924:7 0
10 *891:7 *988:sram_dat_i[19] 0
11 *891:7 *960:15 0
12 *891:9 *903:9 0.00683737
13 *891:9 *922:13 0.0210891
14 *891:9 *926:21 0.00298433
15 *891:9 *948:9 0
16 *891:9 *950:13 0.000618081
17 *891:9 *953:9 0
18 *891:13 *989:wbs_adr_i[2] 0.00254055
19 *891:13 *893:13 0.000355166
20 *891:13 *959:17 0.0241734
21 *890:21 *891:13 0.0246029
*RES
1 *988:sram_adr_o[19] *891:7 16.8677 
2 *891:7 *891:9 277.741 
3 *891:9 *891:11 4.5 
4 *891:11 *891:13 239.982 
5 *891:13 *989:wbs_adr_i[19] 10.1786 
*END

*D_NET *892 0.0591775
*CONN
*I *989:wbs_adr_i[1] I *D CF_SRAM_1024x32_wb_wrapper
*I *988:sram_adr_o[1] O *D soc_sys
*CAP
1 *989:wbs_adr_i[1] 0.00316093
2 *988:sram_adr_o[1] 0.00534562
3 *892:9 0.00542937
4 *892:7 0.00761406
5 *989:wbs_adr_i[1] *989:wbs_adr_i[2] 0.013712
6 *989:wbs_adr_i[1] *989:wbs_dat_i[1] 0
7 *989:wbs_adr_i[1] *989:wbs_dat_i[6] 9.50531e-05
8 *989:wbs_adr_i[1] *989:wbs_sel_i[0] 0
9 *989:wbs_adr_i[1] *914:11 0
10 *989:wbs_adr_i[1] *925:11 0.0126082
11 *989:wbs_adr_i[1] *950:13 0.0009915
12 *892:7 *988:sram_dat_i[1] 0
13 *892:9 *903:9 0.00241897
14 *892:9 *914:17 0
15 *892:9 *919:19 0.000646547
16 *892:9 *926:21 0.000830539
17 *892:9 *948:9 0
18 *892:9 *954:19 0.00132583
19 *892:9 *958:25 5.40845e-05
20 *885:19 *989:wbs_adr_i[1] 4.82357e-05
21 *888:13 *989:wbs_adr_i[1] 0.00235603
22 *889:17 *989:wbs_adr_i[1] 0.00254055
*RES
1 *988:sram_adr_o[1] *892:7 16.6515 
2 *892:7 *892:9 69.9464 
3 *892:9 *989:wbs_adr_i[1] 43.5785 
*END

*D_NET *893 0.111998
*CONN
*I *989:wbs_adr_i[20] I *D CF_SRAM_1024x32_wb_wrapper
*I *988:sram_adr_o[20] O *D soc_sys
*CAP
1 *989:wbs_adr_i[20] 0.000324306
2 *988:sram_adr_o[20] 0.00411494
3 *893:13 0.00445158
4 *893:11 0.00412728
5 *893:9 0.0102258
6 *893:7 0.0143407
7 *989:wbs_adr_i[20] *989:wbs_dat_i[20] 0
8 *989:wbs_adr_i[20] *924:7 0
9 *989:wbs_adr_i[20] *926:7 0
10 *893:7 *988:sram_dat_i[20] 0
11 *893:7 *961:11 0
12 *893:9 *920:13 0.000253763
13 *893:9 *944:21 0
14 *893:9 *960:17 0.0194382
15 *893:9 *961:13 0
16 *893:13 *989:wbs_adr_i[26] 0.000259202
17 *893:13 *898:13 0.0264841
18 *893:13 *950:13 0.00231835
19 *893:13 *959:17 4.85033e-05
20 *33:29 *893:13 0
21 *115:23 *893:9 0
22 *115:25 *893:13 0.000322912
23 *890:21 *893:13 0.0249333
24 *891:13 *893:13 0.000355166
*RES
1 *988:sram_adr_o[20] *893:7 14.7777 
2 *893:7 *893:9 288.062 
3 *893:9 *893:11 4.5 
4 *893:11 *893:13 258.054 
5 *893:13 *989:wbs_adr_i[20] 9.57143 
*END

*D_NET *894 0.124453
*CONN
*I *989:wbs_adr_i[21] I *D CF_SRAM_1024x32_wb_wrapper
*I *988:sram_adr_o[21] O *D soc_sys
*CAP
1 *989:wbs_adr_i[21] 0.00144271
2 *988:sram_adr_o[21] 0.00233012
3 *894:13 0.0065308
4 *894:11 0.00508809
5 *894:9 0.0113254
6 *894:7 0.0136555
7 *989:wbs_adr_i[21] *989:wbs_dat_i[21] 0
8 *989:wbs_adr_i[21] *926:7 0
9 *894:7 *988:sram_dat_i[21] 0
10 *894:7 *963:11 0.00140179
11 *894:9 *896:9 0.00537082
12 *894:9 *952:9 0.0157676
13 *894:9 *973:9 0
14 *894:13 *896:13 0.0315064
15 *894:13 *932:16 0.00405685
16 *894:13 *968:13 0.00321959
17 *894:13 *981:15 0.022757
*RES
1 *988:sram_adr_o[21] *894:7 11.9671 
2 *894:7 *894:9 320.089 
3 *894:9 *894:11 3.41 
4 *894:11 *894:13 49.1965 
5 *894:13 *989:wbs_adr_i[21] 29.5796 
*END

*D_NET *895 0.090404
*CONN
*I *989:wbs_adr_i[22] I *D CF_SRAM_1024x32_wb_wrapper
*I *988:sram_adr_o[22] O *D soc_sys
*CAP
1 *989:wbs_adr_i[22] 0.00434219
2 *988:sram_adr_o[22] 0.0110793
3 *895:9 0.0211776
4 *895:7 0.0279147
5 *989:wbs_adr_i[22] *989:wbs_adr_i[24] 0.00013838
6 *989:wbs_adr_i[22] *989:wbs_dat_i[20] 0.00546389
7 *989:wbs_adr_i[22] *989:wbs_dat_i[26] 0.00667782
8 *989:wbs_adr_i[22] *989:wbs_dat_i[28] 0.000496689
9 *989:wbs_adr_i[22] *989:wbs_dat_i[30] 0.000661645
10 *989:wbs_adr_i[22] *927:11 0.000426572
11 *989:wbs_adr_i[22] *972:19 0.00115417
12 *989:wbs_adr_i[22] *982:19 0.00055571
13 *895:7 *988:sram_dat_i[22] 0
14 *895:7 *928:18 0
15 *895:7 *964:7 0
16 *895:7 *965:13 0.00972521
17 *895:9 *989:wbs_dat_i[20] 0
18 *895:9 *963:15 0
19 *989:wbs_adr_i[10] *989:wbs_adr_i[22] 0.000471738
20 *989:wbs_adr_i[11] *989:wbs_adr_i[22] 0.000118418
*RES
1 *988:sram_adr_o[22] *895:7 47.0996 
2 *895:7 *895:9 53.8463 
3 *895:9 *989:wbs_adr_i[22] 23.4423 
*END

*D_NET *896 0.143601
*CONN
*I *989:wbs_adr_i[23] I *D CF_SRAM_1024x32_wb_wrapper
*I *988:sram_adr_o[23] O *D soc_sys
*CAP
1 *989:wbs_adr_i[23] 0.00137552
2 *988:sram_adr_o[23] 0.00257358
3 *896:13 0.00628526
4 *896:11 0.00490974
5 *896:9 0.0057261
6 *896:7 0.00829967
7 *989:wbs_adr_i[23] *989:wbs_dat_i[23] 0
8 *896:7 *988:sram_dat_i[23] 0
9 *896:7 *897:15 0.00109869
10 *896:7 *965:11 0
11 *896:9 *900:9 0.0274976
12 *896:9 *952:9 0.0159982
13 *896:13 *964:13 0.0318264
14 *896:13 *966:13 0.000676653
15 *896:13 *968:13 0.000408232
16 *896:13 *981:15 4.78438e-05
17 *894:9 *896:9 0.00537082
18 *894:13 *896:13 0.0315064
*RES
1 *988:sram_adr_o[23] *896:7 11.823 
2 *896:7 *896:9 341.339 
3 *896:9 *896:11 3.41 
4 *896:11 *896:13 51.5026 
5 *896:13 *989:wbs_adr_i[23] 28.9725 
*END

*D_NET *897 0.10083
*CONN
*I *989:wbs_adr_i[24] I *D CF_SRAM_1024x32_wb_wrapper
*I *988:sram_adr_o[24] O *D soc_sys
*CAP
1 *989:wbs_adr_i[24] 0.00246796
2 *988:sram_adr_o[24] 0.000817728
3 *897:17 0.0195435
4 *897:15 0.026977
5 *897:11 0.0107192
6 *989:wbs_adr_i[24] *989:wbs_dat_i[26] 0.00489821
7 *989:wbs_adr_i[24] *989:wbs_dat_i[28] 0.000758719
8 *989:wbs_adr_i[24] *928:8 0.0116037
9 *989:wbs_adr_i[24] *929:8 5.85882e-05
10 *989:wbs_adr_i[24] *942:48 4.98422e-05
11 *989:wbs_adr_i[24] *982:19 0.000316241
12 *897:11 *988:sram_dat_i[24] 0
13 *897:11 *966:7 0
14 *897:15 *988:sram_dat_i[23] 0
15 *897:15 *929:14 0.0184981
16 *897:15 *965:11 0.00103055
17 *989:wbs_adr_i[10] *989:wbs_adr_i[24] 0.00152678
18 *989:wbs_adr_i[11] *989:wbs_adr_i[24] 0.000327141
19 *989:wbs_adr_i[22] *989:wbs_adr_i[24] 0.00013838
20 *896:7 *897:15 0.00109869
*RES
1 *988:sram_adr_o[24] *897:11 20.6684 
2 *897:11 *897:15 44.571 
3 *897:15 *897:17 54.9117 
4 *897:17 *989:wbs_adr_i[24] 26.289 
*END

*D_NET *898 0.149803
*CONN
*I *989:wbs_adr_i[25] I *D CF_SRAM_1024x32_wb_wrapper
*I *988:sram_adr_o[25] O *D soc_sys
*CAP
1 *989:wbs_adr_i[25] 0.000285274
2 *988:sram_adr_o[25] 0.00301656
3 *898:13 0.00496277
4 *898:11 0.00467749
5 *898:9 0.00608995
6 *898:7 0.00910652
7 *989:wbs_adr_i[25] *989:wbs_dat_i[25] 0
8 *989:wbs_adr_i[25] *930:7 0
9 *898:7 *988:sram_dat_i[25] 0
10 *898:7 *899:13 0.00767153
11 *898:7 *967:11 0
12 *898:9 *988:sram_dat_i[23] 0
13 *898:9 *953:19 0.000137975
14 *898:9 *959:9 0.019975
15 *898:9 *959:15 0.000149872
16 *898:9 *980:19 0.00101279
17 *898:13 *989:wbs_adr_i[26] 0.00115837
18 *898:13 *950:13 0.00237488
19 *31:17 *898:9 0.00546386
20 *69:33 *898:9 0.0275141
21 *115:25 *898:13 0.0297217
22 *893:13 *898:13 0.0264841
*RES
1 *988:sram_adr_o[25] *898:7 15.8587 
2 *898:7 *898:9 342.402 
3 *898:9 *898:11 4.5 
4 *898:11 *898:13 282.696 
5 *898:13 *989:wbs_adr_i[25] 9.26786 
*END

*D_NET *899 0.113335
*CONN
*I *989:wbs_adr_i[26] I *D CF_SRAM_1024x32_wb_wrapper
*I *988:sram_adr_o[26] O *D soc_sys
*CAP
1 *989:wbs_adr_i[26] 0.00668708
2 *988:sram_adr_o[26] 0.000633739
3 *899:17 0.0191429
4 *899:15 0.0124558
5 *899:13 0.0133965
6 *899:11 0.0140302
7 *989:wbs_adr_i[26] *989:wbs_adr_i[28] 0.0059959
8 *989:wbs_adr_i[26] *989:wbs_dat_i[26] 0
9 *989:wbs_adr_i[26] *927:11 0.00203411
10 *989:wbs_adr_i[26] *931:7 0
11 *899:11 *968:7 0
12 *899:11 *971:17 0.000128598
13 *899:13 *988:sram_dat_i[25] 0.000688125
14 *899:13 *967:11 0
15 *899:17 *915:19 1.18941e-06
16 *899:17 *969:17 0.0285336
17 *989:wbs_adr_i[11] *899:17 0
18 *115:25 *989:wbs_adr_i[26] 0.0004052
19 *890:21 *989:wbs_adr_i[26] 0.000112662
20 *893:13 *989:wbs_adr_i[26] 0.000259202
21 *898:7 *899:13 0.00767153
22 *898:13 *989:wbs_adr_i[26] 0.00115837
*RES
1 *988:sram_adr_o[26] *899:11 17.6327 
2 *899:11 *899:13 46.9264 
3 *899:13 *899:15 3.41 
4 *899:15 *899:17 60.1318 
5 *899:17 *989:wbs_adr_i[26] 26.9981 
*END

*D_NET *900 0.146224
*CONN
*I *989:wbs_adr_i[27] I *D CF_SRAM_1024x32_wb_wrapper
*I *988:sram_adr_o[27] O *D soc_sys
*CAP
1 *989:wbs_adr_i[27] 0.0012894
2 *988:sram_adr_o[27] 0.00217675
3 *900:13 0.0116124
4 *900:11 0.010323
5 *900:9 0.00676993
6 *900:7 0.00894669
7 *989:wbs_adr_i[27] *989:wbs_dat_i[26] 0
8 *989:wbs_adr_i[27] *989:wbs_dat_i[27] 0
9 *989:wbs_adr_i[27] *932:16 0.000517931
10 *900:7 *988:sram_dat_i[27] 0
11 *900:7 *901:13 0.00140706
12 *900:7 *969:11 0
13 *900:9 *909:9 0
14 *900:9 *940:13 0
15 *900:13 *964:13 0.0127979
16 *900:13 *970:21 0.0338821
17 *38:21 *900:9 7.12256e-05
18 *39:13 *900:9 0
19 *112:17 *900:9 0.0285668
20 *113:33 *900:9 0.000365161
21 *896:9 *900:9 0.0274976
*RES
1 *988:sram_adr_o[27] *900:7 11.7509 
2 *900:7 *900:9 384.295 
3 *900:9 *900:11 4.5 
4 *900:11 *900:13 318.429 
5 *900:13 *989:wbs_adr_i[27] 29.3036 
*END

*D_NET *901 0.0976435
*CONN
*I *989:wbs_adr_i[28] I *D CF_SRAM_1024x32_wb_wrapper
*I *988:sram_adr_o[28] O *D soc_sys
*CAP
1 *989:wbs_adr_i[28] 0.00199912
2 *988:sram_adr_o[28] 0.000587343
3 *901:17 0.0164457
4 *901:15 0.0144466
5 *901:13 0.0160194
6 *901:11 0.0166068
7 *989:wbs_adr_i[28] *989:wbs_dat_i[28] 0
8 *989:wbs_adr_i[28] *989:wbs_dat_i[30] 0.00227388
9 *989:wbs_adr_i[28] *927:11 0.00304049
10 *989:wbs_adr_i[28] *933:7 0
11 *989:wbs_adr_i[28] *934:7 0
12 *901:11 *988:sram_dat_i[28] 0
13 *901:11 *970:7 0
14 *901:11 *971:15 0
15 *901:13 *988:sram_dat_i[27] 0.00216404
16 *901:17 *972:9 0.016526
17 *989:wbs_adr_i[26] *989:wbs_adr_i[28] 0.0059959
18 *115:25 *989:wbs_adr_i[28] 0.000131211
19 *900:7 *901:13 0.00140706
*RES
1 *988:sram_adr_o[28] *901:11 15.8113 
2 *901:11 *901:13 53.2682 
3 *901:13 *901:15 3.41 
4 *901:15 *901:17 64.1801 
5 *901:17 *989:wbs_adr_i[28] 22.2111 
*END

*D_NET *902 0.172831
*CONN
*I *989:wbs_adr_i[29] I *D CF_SRAM_1024x32_wb_wrapper
*I *988:sram_adr_o[29] O *D soc_sys
*CAP
1 *989:wbs_adr_i[29] 0.00119585
2 *988:sram_adr_o[29] 0.00199918
3 *902:13 0.00571324
4 *902:11 0.0045174
5 *902:9 0.00596377
6 *902:7 0.00796296
7 *989:wbs_adr_i[29] *989:wbs_dat_i[29] 0
8 *989:wbs_adr_i[29] *934:7 0
9 *989:wbs_adr_i[29] *935:7 0
10 *902:7 *988:sram_dat_i[29] 0
11 *902:7 *971:15 0
12 *902:9 *931:21 0
13 *902:9 *932:18 0.00137441
14 *902:9 *934:13 0.0321263
15 *902:9 *935:13 0.0326951
16 *902:13 *931:9 0.00689842
17 *902:13 *933:19 0.000150767
18 *902:13 *934:9 0.0359917
19 *902:13 *935:9 0.0362421
*RES
1 *988:sram_adr_o[29] *902:7 9.58893 
2 *902:7 *902:9 404.938 
3 *902:9 *902:11 4.5 
4 *902:11 *902:13 343.071 
5 *902:13 *989:wbs_adr_i[29] 28.0893 
*END

*D_NET *903 0.0612747
*CONN
*I *989:wbs_adr_i[2] I *D CF_SRAM_1024x32_wb_wrapper
*I *988:sram_adr_o[2] O *D soc_sys
*CAP
1 *989:wbs_adr_i[2] 0.00435684
2 *988:sram_adr_o[2] 0.00548062
3 *903:9 0.00600292
4 *903:7 0.00712671
5 *989:wbs_adr_i[2] *989:wbs_dat_i[2] 0
6 *989:wbs_adr_i[2] *989:wbs_dat_i[6] 0.000741005
7 *989:wbs_adr_i[2] *989:wbs_sel_i[1] 0
8 *989:wbs_adr_i[2] *925:11 0.00027277
9 *989:wbs_adr_i[2] *936:7 0
10 *989:wbs_adr_i[2] *950:13 0.00597357
11 *989:wbs_adr_i[2] *959:17 0.00235603
12 *903:7 *988:sram_dat_i[2] 0
13 *903:7 *947:7 0
14 *903:9 *922:13 1.34436e-05
15 *903:9 *926:21 0.000394864
16 *903:9 *948:9 0
17 *903:9 *950:13 0.00057134
18 *903:9 *954:19 0.00136948
19 *989:wbs_adr_i[1] *989:wbs_adr_i[2] 0.013712
20 *882:15 *989:wbs_adr_i[2] 9.40219e-05
21 *885:19 *989:wbs_adr_i[2] 0.00101226
22 *891:9 *903:9 0.00683737
23 *891:13 *989:wbs_adr_i[2] 0.00254055
24 *892:9 *903:9 0.00241897
*RES
1 *988:sram_adr_o[2] *903:7 16.7956 
2 *903:7 *903:9 85.125 
3 *903:9 *989:wbs_adr_i[2] 36.0623 
*END

*D_NET *904 0.153065
*CONN
*I *989:wbs_adr_i[30] I *D CF_SRAM_1024x32_wb_wrapper
*I *988:sram_adr_o[30] O *D soc_sys
*CAP
1 *989:wbs_adr_i[30] 0.00114726
2 *988:sram_adr_o[30] 0.00196793
3 *904:13 0.0124027
4 *904:11 0.0112555
5 *904:9 0.00621255
6 *904:7 0.00818048
7 *989:wbs_adr_i[30] *989:wbs_dat_i[30] 0
8 *989:wbs_adr_i[30] *935:7 0
9 *904:7 *988:sram_dat_i[30] 0
10 *904:7 *972:5 0
11 *904:9 *931:21 0.00117848
12 *904:9 *932:18 0.00329079
13 *904:9 *935:13 0.00115421
14 *904:13 *931:9 0.00666935
15 *904:13 *935:9 0.0367202
16 *904:13 *951:25 0.000118413
17 *904:13 *970:19 0.000216736
18 *104:25 *904:9 0.0312522
19 *114:17 *904:9 0.0312986
*RES
1 *988:sram_adr_o[30] *904:7 9.37273 
2 *904:7 *904:9 415.259 
3 *904:9 *904:11 4.5 
4 *904:11 *904:13 350.464 
5 *904:13 *989:wbs_adr_i[30] 27.4821 
*END

*D_NET *905 0.108011
*CONN
*I *989:wbs_adr_i[31] I *D CF_SRAM_1024x32_wb_wrapper
*I *988:sram_adr_o[31] O *D soc_sys
*CAP
1 *989:wbs_adr_i[31] 3.93512e-05
2 *988:sram_adr_o[31] 0.0223823
3 *905:17 0.00575522
4 *905:15 0.0125254
5 *905:5 0.0291918
6 *905:5 *988:sram_dat_i[31] 0
7 *905:5 *938:14 0
8 *905:5 *974:5 0
9 *905:15 *937:10 0
10 *905:15 *937:20 0
11 *905:17 *937:10 0.0133925
12 *905:17 *975:17 0.0247241
*RES
1 *988:sram_adr_o[31] *905:5 67.4716 
2 *905:5 *905:15 30.4024 
3 *905:15 *905:17 51.3961 
4 *905:17 *989:wbs_adr_i[31] 6.90303 
*END

*D_NET *906 0.0661686
*CONN
*I *989:wbs_adr_i[3] I *D CF_SRAM_1024x32_wb_wrapper
*I *988:sram_adr_o[3] O *D soc_sys
*CAP
1 *989:wbs_adr_i[3] 0.00471036
2 *988:sram_adr_o[3] 0.00187294
3 *906:9 0.0081599
4 *906:7 0.00532249
5 *989:wbs_adr_i[3] *989:wbs_dat_i[3] 0
6 *989:wbs_adr_i[3] *989:wbs_sel_i[2] 0
7 *989:wbs_adr_i[3] *909:19 0.0012603
8 *989:wbs_adr_i[3] *914:11 0.00779342
9 *989:wbs_adr_i[3] *939:7 0
10 *906:7 *988:sram_dat_i[3] 0
11 *906:7 *948:7 0
12 *906:9 *908:9 0
13 *906:9 *911:9 1.71361e-05
14 *906:9 *911:15 0.000380604
15 *906:9 *979:9 0.00790033
16 *989:wbs_adr_i[11] *989:wbs_adr_i[3] 0.00369767
17 *32:37 *989:wbs_adr_i[3] 0.000461868
18 *115:17 *989:wbs_adr_i[3] 0.00364641
19 *882:15 *989:wbs_adr_i[3] 0.0209451
*RES
1 *988:sram_adr_o[3] *906:7 8.43587 
2 *906:7 *906:9 103.339 
3 *906:9 *989:wbs_adr_i[3] 49.5062 
*END

*D_NET *907 0.0872481
*CONN
*I *989:wbs_adr_i[4] I *D CF_SRAM_1024x32_wb_wrapper
*I *988:sram_adr_o[4] O *D soc_sys
*CAP
1 *989:wbs_adr_i[4] 0.000939507
2 *988:sram_adr_o[4] 0.00273087
3 *907:15 0.00445673
4 *907:9 0.00536242
5 *907:7 0.00457606
6 *989:wbs_adr_i[4] *989:wbs_dat_i[4] 0
7 *989:wbs_adr_i[4] *989:wbs_sel_i[3] 0
8 *989:wbs_adr_i[4] *940:7 0
9 *907:7 *988:sram_dat_i[4] 0
10 *907:7 *949:7 0
11 *907:9 *930:21 0.00983531
12 *907:9 *943:21 0.00983326
13 *907:15 *908:19 0.00104285
14 *907:15 *910:15 0.0187525
15 *907:15 *911:19 0.0206662
16 *907:15 *915:19 0.000757905
17 *907:15 *917:9 0.00305336
18 *907:15 *919:9 0.0032925
19 *907:15 *942:48 0.00194868
*RES
1 *988:sram_adr_o[4] *907:7 10.4537 
2 *907:7 *907:9 122.161 
3 *907:9 *907:15 39.1529 
4 *907:15 *989:wbs_adr_i[4] 14.0268 
*END

*D_NET *908 0.0862822
*CONN
*I *989:wbs_adr_i[5] I *D CF_SRAM_1024x32_wb_wrapper
*I *988:sram_adr_o[5] O *D soc_sys
*CAP
1 *989:wbs_adr_i[5] 0.000791597
2 *988:sram_adr_o[5] 0.00204119
3 *908:19 0.00506245
4 *908:9 0.00871604
5 *908:7 0.00648637
6 *989:wbs_adr_i[5] *940:7 0
7 *989:wbs_adr_i[5] *941:7 0
8 *908:7 *988:sram_dat_i[5] 0
9 *908:7 *977:7 0
10 *908:9 *911:15 0
11 *908:9 *932:18 0.00113122
12 *908:9 *941:13 0.000511715
13 *908:9 *978:9 0.00959442
14 *908:9 *979:9 0
15 *908:19 *909:19 0.0206965
16 *908:19 *910:15 0.00058017
17 *908:19 *911:19 0.000320274
18 *908:19 *912:15 0.0183604
19 *908:19 *915:19 0.00406117
20 *908:19 *922:9 0.00305336
21 *908:19 *926:9 0.0032925
22 *989:wbs_adr_i[10] *989:wbs_adr_i[5] 0
23 *143:13 *908:19 0.000539928
24 *906:9 *908:9 0
25 *907:15 *908:19 0.00104285
*RES
1 *988:sram_adr_o[5] *908:7 9.0124 
2 *908:7 *908:9 131.875 
3 *908:9 *908:19 41.8757 
4 *908:19 *989:wbs_adr_i[5] 12.2054 
*END

*D_NET *909 0.0934703
*CONN
*I *989:wbs_adr_i[6] I *D CF_SRAM_1024x32_wb_wrapper
*I *988:sram_adr_o[6] O *D soc_sys
*CAP
1 *989:wbs_adr_i[6] 0.000729482
2 *988:sram_adr_o[6] 0.00285892
3 *909:19 0.00565421
4 *909:9 0.00741681
5 *909:7 0.005351
6 *989:wbs_adr_i[6] *989:wbs_dat_i[6] 0
7 *989:wbs_adr_i[6] *941:7 0
8 *909:7 *988:sram_dat_i[6] 0
9 *909:7 *978:7 0
10 *909:9 *940:13 0.00998389
11 *909:9 *977:9 0.000163392
12 *909:19 *912:15 0.000403611
13 *909:19 *914:11 0.013786
14 *909:19 *915:19 0.0038193
15 *909:19 *924:9 0.00326065
16 *909:19 *942:48 0.000213361
17 *989:wbs_adr_i[3] *909:19 0.0012603
18 *39:13 *909:9 0.0109512
19 *66:21 *909:9 0.00187194
20 *105:52 *909:19 0.000259202
21 *115:17 *909:19 0.000381188
22 *143:13 *909:19 0.000463879
23 *143:21 *909:19 0.00340426
24 *882:15 *909:19 0.000541152
25 *900:9 *909:9 0
26 *908:19 *909:19 0.0206965
*RES
1 *988:sram_adr_o[6] *909:7 11.3906 
2 *909:7 *909:9 142.196 
3 *909:9 *909:19 40.5785 
4 *909:19 *989:wbs_adr_i[6] 11.5982 
*END

*D_NET *910 0.098592
*CONN
*I *989:wbs_adr_i[7] I *D CF_SRAM_1024x32_wb_wrapper
*I *988:sram_adr_o[7] O *D soc_sys
*CAP
1 *989:wbs_adr_i[7] 0.000864855
2 *988:sram_adr_o[7] 0.00377632
3 *910:15 0.00444698
4 *910:9 0.00596792
5 *910:7 0.00616212
6 *989:wbs_adr_i[7] *989:wbs_dat_i[6] 0
7 *989:wbs_adr_i[7] *989:wbs_dat_i[7] 0
8 *989:wbs_adr_i[7] *943:7 0
9 *910:7 *988:sram_dat_i[7] 0
10 *910:7 *979:7 0
11 *910:9 *924:13 0
12 *910:9 *944:21 0
13 *910:9 *949:9 0.000250433
14 *910:15 *911:19 0.00114966
15 *910:15 *912:15 0.01975
16 *910:15 *915:19 0.00424274
17 *910:15 *917:9 0.000343729
18 *910:15 *918:9 0.00336432
19 *910:15 *919:9 0.000318763
20 *910:15 *957:21 0.00362781
21 *883:15 *910:9 0.00104793
22 *885:9 *910:9 0.0119492
23 *887:9 *910:9 0.0119966
24 *907:15 *910:15 0.0187525
25 *908:19 *910:15 0.00058017
*RES
1 *988:sram_adr_o[7] *910:7 13.4805 
2 *910:7 *910:9 154.339 
3 *910:9 *910:15 39.3691 
4 *910:15 *989:wbs_adr_i[7] 13.4196 
*END

*D_NET *911 0.0923656
*CONN
*I *989:wbs_adr_i[8] I *D CF_SRAM_1024x32_wb_wrapper
*I *988:sram_adr_o[8] O *D soc_sys
*CAP
1 *989:wbs_adr_i[8] 0.000930452
2 *988:sram_adr_o[8] 0.00173588
3 *911:19 0.00691088
4 *911:15 0.00632812
5 *911:9 0.00288183
6 *911:7 0.00427001
7 *989:wbs_adr_i[8] *989:wbs_dat_i[8] 0
8 *989:wbs_adr_i[8] *943:7 0
9 *911:7 *988:sram_dat_i[8] 0
10 *911:9 *955:9 0.0126632
11 *911:9 *979:9 0.0114366
12 *911:15 *955:9 0.000291993
13 *911:19 *989:wbs_sel_i[1] 0.00408397
14 *911:19 *912:15 0.00023492
15 *911:19 *915:19 0.00132851
16 *911:19 *916:9 0.00359048
17 *911:19 *942:48 0.00402754
18 *911:19 *954:21 0.00387168
19 *911:19 *956:19 0.00504027
20 *37:35 *911:15 0.000205446
21 *143:13 *911:19 0
22 *906:9 *911:9 1.71361e-05
23 *906:9 *911:15 0.000380604
24 *907:15 *911:19 0.0206662
25 *908:9 *911:15 0
26 *908:19 *911:19 0.000320274
27 *910:15 *911:19 0.00114966
*RES
1 *988:sram_adr_o[8] *911:7 8.29173 
2 *911:7 *911:9 156.768 
3 *911:9 *911:15 13.785 
4 *911:15 *911:19 42.1568 
5 *911:19 *989:wbs_adr_i[8] 14.6339 
*END

*D_NET *912 0.0942582
*CONN
*I *989:wbs_adr_i[9] I *D CF_SRAM_1024x32_wb_wrapper
*I *988:sram_adr_o[9] O *D soc_sys
*CAP
1 *989:wbs_adr_i[9] 0.000813931
2 *988:sram_adr_o[9] 0.0044207
3 *912:15 0.00581615
4 *912:9 0.0113148
5 *912:7 0.0107333
6 *989:wbs_adr_i[9] *989:wbs_dat_i[9] 0
7 *989:wbs_adr_i[9] *944:7 0
8 *989:wbs_adr_i[9] *945:7 0
9 *912:7 *988:sram_dat_i[9] 0
10 *912:7 *981:7 0
11 *912:9 *945:13 0.00374986
12 *912:9 *947:9 0.00698117
13 *912:9 *951:9 0
14 *912:9 *951:25 0
15 *912:15 *915:19 0.00444196
16 *912:15 *920:9 0.00362781
17 *912:15 *922:9 0.000131211
18 *912:15 *926:9 0.000114061
19 *912:15 *956:21 0.00336432
20 *31:27 *912:9 0
21 *69:33 *912:9 0
22 *908:19 *912:15 0.0183604
23 *909:19 *912:15 0.000403611
24 *910:15 *912:15 0.01975
25 *911:19 *912:15 0.00023492
*RES
1 *988:sram_adr_o[9] *912:7 15.1381 
2 *912:7 *912:9 175.589 
3 *912:9 *912:15 39.8735 
4 *912:15 *989:wbs_adr_i[9] 12.8125 
*END

*D_NET *913 0.030177
*CONN
*I *989:wbs_cyc_i I *D CF_SRAM_1024x32_wb_wrapper
*I *988:sram_cyc_o O *D soc_sys
*CAP
1 *989:wbs_cyc_i 0.0143342
2 *988:sram_cyc_o 0.0143342
3 *989:wbs_cyc_i *989:wbs_dat_i[5] 3.13654e-05
4 *989:wbs_cyc_i *927:13 0.000472382
5 *989:wbs_cyc_i *950:13 0
6 *989:wbs_cyc_i *962:9 0.000225686
7 *989:wbs_cyc_i *982:19 0.000669304
8 *988:sram_ack_i *989:wbs_cyc_i 8.48675e-05
9 *989:wbs_adr_i[0] *989:wbs_cyc_i 2.48858e-05
*RES
1 *988:sram_cyc_o *989:wbs_cyc_i 24.2089 
*END

*D_NET *914 0.0531552
*CONN
*I *988:sram_dat_i[0] I *D soc_sys
*I *989:wbs_dat_o[0] O *D CF_SRAM_1024x32_wb_wrapper
*CAP
1 *988:sram_dat_i[0] 0.00523155
2 *989:wbs_dat_o[0] 0.00320939
3 *914:17 0.00685288
4 *914:15 0.00207498
5 *914:11 0.00366305
6 *988:sram_dat_i[0] *951:7 0
7 *914:11 *989:wbs_dat_i[0] 0
8 *914:11 *989:wbs_sel_i[0] 0
9 *914:11 *915:19 0.00182449
10 *914:15 *917:15 0.000979812
11 *914:15 *926:19 0.000246789
12 *914:15 *958:25 0
13 *914:17 *917:15 1.20719e-05
14 *914:17 *948:9 0.00415891
15 *914:17 *958:25 7.05113e-05
16 *989:wbs_adr_i[1] *914:11 0
17 *989:wbs_adr_i[3] *914:11 0.00779342
18 *32:17 *914:17 0.000674085
19 *105:52 *914:11 0.00246584
20 *541:33 *914:15 4.43299e-05
21 *881:7 *988:sram_dat_i[0] 0
22 *890:19 *914:15 6.70605e-05
23 *892:9 *914:17 0
24 *909:19 *914:11 0.013786
*RES
1 *989:wbs_dat_o[0] *914:11 39.3339 
2 *914:11 *914:15 13.4107 
3 *914:15 *914:17 51.7321 
4 *914:17 *988:sram_dat_i[0] 16.2911 
*END

*D_NET *915 0.109118
*CONN
*I *988:sram_dat_i[10] I *D soc_sys
*I *989:wbs_dat_o[10] O *D CF_SRAM_1024x32_wb_wrapper
*CAP
1 *988:sram_dat_i[10] 0.0127654
2 *989:wbs_dat_o[10] 0.0104835
3 *915:19 0.0232489
4 *988:sram_dat_i[10] *988:sram_dat_i[6] 0.0120066
5 *988:sram_dat_i[10] *942:48 3.48388e-05
6 *988:sram_dat_i[10] *952:7 0
7 *988:sram_dat_i[10] *973:9 0.00101362
8 *915:19 *989:wbs_dat_i[10] 0
9 *915:19 *989:wbs_dat_i[11] 0.000223553
10 *915:19 *989:wbs_sel_i[1] 0.000158512
11 *915:19 *927:11 6.99156e-05
12 *915:19 *942:48 0.0102766
13 *915:19 *949:27 0.000135879
14 *989:wbs_adr_i[11] *915:19 0.0157562
15 *881:11 *988:sram_dat_i[10] 0.000541485
16 *883:15 *988:sram_dat_i[10] 0.00192539
17 *899:17 *915:19 1.18941e-06
18 *907:15 *915:19 0.000757905
19 *908:19 *915:19 0.00406117
20 *909:19 *915:19 0.0038193
21 *910:15 *915:19 0.00424274
22 *911:19 *915:19 0.00132851
23 *912:15 *915:19 0.00444196
24 *914:11 *915:19 0.00182449
*RES
1 *989:wbs_dat_o[10] *915:19 18.0539 
2 *915:19 *988:sram_dat_i[10] 46.1502 
*END

*D_NET *916 0.07944
*CONN
*I *988:sram_dat_i[11] I *D soc_sys
*I *989:wbs_dat_o[11] O *D CF_SRAM_1024x32_wb_wrapper
*CAP
1 *988:sram_dat_i[11] 0.00543046
2 *989:wbs_dat_o[11] 0.000940328
3 *916:25 0.011202
4 *916:23 0.00668708
5 *916:9 0.00724505
6 *916:7 0.00726986
7 *988:sram_dat_i[11] *953:7 0
8 *916:7 *989:wbs_dat_i[11] 0
9 *916:7 *989:wbs_dat_i[12] 0
10 *916:9 *930:9 0
11 *916:9 *954:21 0.02043
12 *916:23 *923:19 4.68132e-05
13 *916:23 *925:13 0
14 *916:23 *957:19 0.000200514
15 *916:23 *961:23 6.36238e-05
16 *916:23 *983:9 0
17 *916:25 *923:19 0.000839168
18 *916:25 *925:13 0
19 *916:25 *954:9 0.0144296
20 *988:sram_ack_i *916:25 0.0006023
21 *989:wbs_adr_i[12] *916:7 0
22 *883:15 *988:sram_dat_i[11] 0
23 *886:9 *916:23 0.000408857
24 *886:9 *916:25 1.19409e-05
25 *887:19 *916:23 4.19535e-05
26 *911:19 *916:9 0.00359048
*RES
1 *989:wbs_dat_o[11] *916:7 18.9821 
2 *916:7 *916:9 192.339 
3 *916:9 *916:23 21.5089 
4 *916:23 *916:25 187.732 
5 *916:25 *988:sram_dat_i[11] 17.3721 
*END

*D_NET *917 0.106275
*CONN
*I *988:sram_dat_i[12] I *D soc_sys
*I *989:wbs_dat_o[12] O *D CF_SRAM_1024x32_wb_wrapper
*CAP
1 *988:sram_dat_i[12] 0.00468704
2 *989:wbs_dat_o[12] 0.000912207
3 *917:17 0.00720701
4 *917:15 0.00332889
5 *917:9 0.00359684
6 *917:7 0.00370013
7 *988:sram_dat_i[12] *954:7 0
8 *917:7 *989:wbs_dat_i[12] 0
9 *917:9 *918:9 0.000114655
10 *917:9 *919:9 0.0215104
11 *917:9 *920:9 3.06878e-06
12 *917:9 *930:9 0
13 *917:9 *954:21 0.0212124
14 *917:15 *918:19 5.42764e-05
15 *917:15 *926:19 0
16 *917:15 *948:9 0.000896979
17 *917:15 *953:19 0
18 *917:15 *956:19 2.2355e-05
19 *917:17 *948:9 1.43864e-05
20 *917:17 *953:9 0.014507
21 *989:wbs_adr_i[13] *917:7 0
22 *31:17 *917:17 0.00345949
23 *884:7 *988:sram_dat_i[12] 0
24 *889:9 *917:15 2.23987e-05
25 *889:9 *917:17 0.0151376
26 *889:15 *917:15 0.00149905
27 *907:15 *917:9 0.00305336
28 *910:15 *917:9 0.000343729
29 *914:15 *917:15 0.000979812
30 *914:17 *917:15 1.20719e-05
*RES
1 *989:wbs_dat_o[12] *917:7 18.375 
2 *917:7 *917:9 205.071 
3 *917:9 *917:15 32.3304 
4 *917:15 *917:17 185.911 
5 *917:17 *988:sram_dat_i[12] 16.0749 
*END

*D_NET *918 0.101613
*CONN
*I *988:sram_dat_i[13] I *D soc_sys
*I *989:wbs_dat_o[13] O *D CF_SRAM_1024x32_wb_wrapper
*CAP
1 *988:sram_dat_i[13] 0.000931003
2 *989:wbs_dat_o[13] 0.000841878
3 *918:21 0.00933803
4 *918:19 0.0101696
5 *918:9 0.00456605
6 *918:7 0.00364534
7 *988:sram_dat_i[13] *955:7 0
8 *918:7 *989:wbs_dat_i[13] 0
9 *918:7 *989:wbs_dat_i[14] 0
10 *918:9 *919:9 0.0221596
11 *918:9 *920:9 1.21258e-05
12 *918:9 *956:21 0.00028115
13 *918:9 *957:21 0.0218096
14 *918:19 *989:wbs_sel_i[1] 0.000754179
15 *918:19 *930:19 0.000547859
16 *918:19 *936:11 0.000576202
17 *918:19 *942:48 0.00039432
18 *918:19 *944:19 0.000281294
19 *918:19 *952:19 0.00148081
20 *918:19 *953:19 0
21 *918:19 *956:19 0.00121882
22 *918:21 *981:9 0.0141455
23 *989:wbs_adr_i[14] *918:7 0
24 *32:37 *918:19 0.000376666
25 *105:44 *918:19 0.00454951
26 *885:7 *988:sram_dat_i[13] 0
27 *910:15 *918:9 0.00336432
28 *917:9 *918:9 0.000114655
29 *917:15 *918:19 5.42764e-05
*RES
1 *989:wbs_dat_o[13] *918:7 17.7679 
2 *918:7 *918:9 210.821 
3 *918:9 *918:19 24.8409 
4 *918:19 *918:21 226.589 
5 *918:21 *988:sram_dat_i[13] 6.05767 
*END

*D_NET *919 0.110468
*CONN
*I *988:sram_dat_i[14] I *D soc_sys
*I *989:wbs_dat_o[14] O *D CF_SRAM_1024x32_wb_wrapper
*CAP
1 *988:sram_dat_i[14] 0.00508181
2 *989:wbs_dat_o[14] 0.000845913
3 *919:21 0.00793082
4 *919:19 0.00365937
5 *919:9 0.00387996
6 *919:7 0.00391552
7 *988:sram_dat_i[14] *956:7 0
8 *919:7 *989:wbs_dat_i[14] 0
9 *919:7 *989:wbs_dat_i[15] 0
10 *919:9 *957:21 0.000363512
11 *919:19 *926:19 0.000315023
12 *919:19 *954:19 0.000284457
13 *919:19 *957:19 4.58194e-05
14 *919:19 *958:25 0.000467699
15 *988:sram_ack_i *919:21 0.000482113
16 *989:wbs_adr_i[15] *919:7 0
17 *886:7 *988:sram_dat_i[14] 0
18 *886:9 *919:21 0.0174864
19 *888:9 *919:21 0.0177817
20 *892:9 *919:19 0.000646547
21 *907:15 *919:9 0.0032925
22 *910:15 *919:9 0.000318763
23 *917:9 *919:9 0.0215104
24 *918:9 *919:9 0.0221596
*RES
1 *989:wbs_dat_o[14] *919:7 18.0714 
2 *919:7 *919:9 214.929 
3 *919:9 *919:19 33.4286 
4 *919:19 *919:21 218.241 
5 *919:21 *988:sram_dat_i[14] 17.1559 
*END

*D_NET *920 0.111051
*CONN
*I *988:sram_dat_i[15] I *D soc_sys
*I *989:wbs_dat_o[15] O *D CF_SRAM_1024x32_wb_wrapper
*CAP
1 *988:sram_dat_i[15] 0.00426973
2 *989:wbs_dat_o[15] 0.000774143
3 *920:13 0.00964131
4 *920:11 0.00537157
5 *920:9 0.00341215
6 *920:7 0.0041863
7 *988:sram_dat_i[15] *957:7 0
8 *920:7 *989:wbs_dat_i[15] 0
9 *920:9 *922:9 0.0232348
10 *920:9 *924:9 0.000322565
11 *920:9 *926:9 0.000161947
12 *920:9 *956:21 0.0227568
13 *920:9 *957:21 0.000355905
14 *920:13 *945:13 0.0142461
15 *920:13 *960:17 0.0184204
16 *989:wbs_adr_i[16] *920:7 0
17 *115:23 *920:13 0
18 *887:7 *988:sram_dat_i[15] 0
19 *893:9 *920:13 0.000253763
20 *912:15 *920:9 0.00362781
21 *917:9 *920:9 3.06878e-06
22 *918:9 *920:9 1.21258e-05
*RES
1 *989:wbs_dat_o[15] *920:7 16.8571 
2 *920:7 *920:9 230.536 
3 *920:9 *920:11 4.5 
4 *920:11 *920:13 244.348 
5 *920:13 *988:sram_dat_i[15] 14.9219 
*END

*D_NET *921 0.109352
*CONN
*I *988:sram_dat_i[16] I *D soc_sys
*I *989:wbs_dat_o[16] O *D CF_SRAM_1024x32_wb_wrapper
*CAP
1 *988:sram_dat_i[16] 0.000113104
2 *989:wbs_dat_o[16] 0.000129798
3 *921:21 0.005523
4 *921:19 0.00925885
5 *921:9 0.00707053
6 *921:7 0.00335136
7 *921:7 *989:wbs_dat_i[16] 0
8 *921:9 *989:wbs_dat_i[2] 0.00223513
9 *921:9 *923:9 0.0230553
10 *921:9 *958:29 0.0167625
11 *921:19 *989:wbs_dat_i[5] 0.000719894
12 *921:19 *946:29 0.00021726
13 *921:19 *958:25 0.00797856
14 *921:19 *960:27 0.000385683
15 *921:19 *982:19 0.000279127
16 *921:21 *946:9 0.000249808
17 *921:21 *958:9 0.00308308
18 *921:21 *980:9 0.0110633
19 *988:sram_ack_i *921:19 0.000186301
20 *989:wbs_adr_i[0] *921:19 0.000572388
21 *989:wbs_adr_i[17] *921:7 0
22 *540:25 *921:19 0
23 *541:35 *921:9 0.00337552
24 *882:9 *921:21 0.0137413
25 *888:7 *988:sram_dat_i[16] 0
*RES
1 *989:wbs_dat_o[16] *921:7 6.23214 
2 *921:7 *921:9 217.804 
3 *921:9 *921:19 31.362 
4 *921:19 *921:21 239.286 
5 *921:21 *988:sram_dat_i[16] 3.68573 
*END

*D_NET *922 0.120935
*CONN
*I *988:sram_dat_i[17] I *D soc_sys
*I *989:wbs_dat_o[17] O *D CF_SRAM_1024x32_wb_wrapper
*CAP
1 *988:sram_dat_i[17] 0.00505631
2 *989:wbs_dat_o[17] 0.000733417
3 *922:13 0.00908547
4 *922:11 0.00402917
5 *922:9 0.00331354
6 *922:7 0.00404696
7 *988:sram_dat_i[17] *959:7 0
8 *922:7 *989:wbs_dat_i[17] 0
9 *922:9 *926:9 0.0245414
10 *922:13 *926:21 0.0021946
11 *922:13 *950:13 0.000552536
12 *922:13 *954:19 0.000132644
13 *922:13 *957:9 0.0190134
14 *922:13 *957:19 0.00012131
15 *922:13 *960:27 0.000230874
16 *989:wbs_adr_i[18] *922:7 0
17 *888:9 *922:13 0.000361673
18 *889:7 *988:sram_dat_i[17] 0
19 *891:9 *922:13 0.0210891
20 *903:9 *922:13 1.34436e-05
21 *908:19 *922:9 0.00305336
22 *912:15 *922:9 0.000131211
23 *920:9 *922:9 0.0232348
*RES
1 *989:wbs_dat_o[17] *922:7 16.5536 
2 *922:7 *922:9 231.357 
3 *922:9 *922:11 4.5 
4 *922:11 *922:13 265.902 
5 *922:13 *988:sram_dat_i[17] 16.9397 
*END

*D_NET *923 0.112902
*CONN
*I *988:sram_dat_i[18] I *D soc_sys
*I *989:wbs_dat_o[18] O *D CF_SRAM_1024x32_wb_wrapper
*CAP
1 *988:sram_dat_i[18] 9.8266e-05
2 *989:wbs_dat_o[18] 9.36386e-05
3 *923:21 0.00867219
4 *923:19 0.0125727
5 *923:9 0.00758085
6 *923:7 0.00367567
7 *923:7 *989:wbs_dat_i[18] 0
8 *923:7 *972:19 5.05056e-05
9 *923:9 *989:wbs_dat_i[19] 0.000183713
10 *923:9 *989:wbs_dat_i[2] 0.0024219
11 *923:9 *960:29 0.0246954
12 *923:9 *961:25 1.69961e-05
13 *923:19 *946:29 0
14 *923:19 *961:23 6.51414e-05
15 *923:19 *980:19 0.00745728
16 *923:21 *958:9 0.0190569
17 *923:21 *960:15 0
18 *989:wbs_adr_i[19] *923:7 0
19 *70:25 *923:19 0.00112168
20 *115:25 *923:9 0
21 *541:35 *923:9 0.0002126
22 *886:9 *923:19 0.000985137
23 *890:7 *988:sram_dat_i[18] 0
24 *916:23 *923:19 4.68132e-05
25 *916:25 *923:19 0.000839168
26 *921:9 *923:9 0.0230553
*RES
1 *989:wbs_dat_o[18] *923:7 5.92857 
2 *923:7 *923:9 235.464 
3 *923:9 *923:19 37.6234 
4 *923:19 *923:21 253.857 
5 *923:21 *988:sram_dat_i[18] 4.07731 
*END

*D_NET *924 0.129039
*CONN
*I *988:sram_dat_i[19] I *D soc_sys
*I *989:wbs_dat_o[19] O *D CF_SRAM_1024x32_wb_wrapper
*CAP
1 *988:sram_dat_i[19] 0.00269283
2 *989:wbs_dat_o[19] 0.000655605
3 *924:13 0.00714704
4 *924:11 0.00445421
5 *924:9 0.00370345
6 *924:7 0.00435905
7 *988:sram_dat_i[19] *961:11 0.00359995
8 *924:7 *989:wbs_dat_i[19] 0
9 *924:9 *926:9 0.0261492
10 *924:13 *944:21 0.0135064
11 *924:13 *961:13 0.00542885
12 *989:wbs_adr_i[19] *924:7 0
13 *989:wbs_adr_i[20] *924:7 0
14 *35:17 *924:13 0.00360254
15 *37:25 *924:13 0
16 *40:25 *924:13 0.0225538
17 *143:21 *924:9 0.0276028
18 *891:7 *988:sram_dat_i[19] 0
19 *909:19 *924:9 0.00326065
20 *910:9 *924:13 0
21 *920:9 *924:9 0.000322565
*RES
1 *989:wbs_dat_o[19] *924:7 15.9464 
2 *924:7 *924:9 260.518 
3 *924:9 *924:11 4.5 
4 *924:11 *924:13 287.152 
5 *924:13 *988:sram_dat_i[19] 13.985 
*END

*D_NET *925 0.0588106
*CONN
*I *988:sram_dat_i[1] I *D soc_sys
*I *989:wbs_dat_o[1] O *D CF_SRAM_1024x32_wb_wrapper
*CAP
1 *988:sram_dat_i[1] 0.00583066
2 *989:wbs_dat_o[1] 0.00296476
3 *925:13 0.00874924
4 *925:11 0.00588334
5 *988:sram_dat_i[1] *962:7 0
6 *925:11 *989:wbs_dat_i[1] 0
7 *925:11 *989:wbs_sel_i[1] 0
8 *925:11 *989:wbs_we_i 0.0117859
9 *925:13 *983:9 0.00428699
10 *989:wbs_adr_i[1] *925:11 0.0126082
11 *989:wbs_adr_i[2] *925:11 0.00027277
12 *882:15 *925:11 0.000621617
13 *884:19 *925:11 2.44726e-05
14 *884:21 *925:11 0.00014225
15 *885:19 *925:11 0.000298588
16 *885:21 *925:11 0.000131918
17 *886:13 *925:11 0.0025068
18 *887:21 *925:11 0.00270313
19 *892:7 *988:sram_dat_i[1] 0
20 *916:23 *925:13 0
21 *916:25 *925:13 0
*RES
1 *989:wbs_dat_o[1] *925:11 35.4028 
2 *925:11 *925:13 75.4107 
3 *925:13 *988:sram_dat_i[1] 17.9487 
*END

*D_NET *926 0.126969
*CONN
*I *988:sram_dat_i[20] I *D soc_sys
*I *989:wbs_dat_o[20] O *D CF_SRAM_1024x32_wb_wrapper
*CAP
1 *988:sram_dat_i[20] 0.00478794
2 *989:wbs_dat_o[20] 0.000663562
3 *926:21 0.0153403
4 *926:19 0.0110756
5 *926:9 0.00428048
6 *926:7 0.00442082
7 *988:sram_dat_i[20] *963:11 0
8 *926:7 *989:wbs_dat_i[20] 0
9 *926:19 *989:wbs_dat_i[5] 5.11566e-05
10 *926:19 *958:25 0.000333712
11 *926:19 *960:27 4.73891e-05
12 *926:21 *950:13 0.000394707
13 *989:wbs_adr_i[20] *926:7 0
14 *989:wbs_adr_i[21] *926:7 0
15 *32:17 *926:21 0.0239374
16 *143:21 *926:9 0.000360443
17 *541:33 *926:19 1.94135e-05
18 *890:19 *926:19 3.09665e-05
19 *891:9 *926:21 0.00298433
20 *892:9 *926:21 0.000830539
21 *893:7 *988:sram_dat_i[20] 0
22 *903:9 *926:21 0.000394864
23 *908:19 *926:9 0.0032925
24 *912:15 *926:9 0.000114061
25 *914:15 *926:19 0.000246789
26 *917:15 *926:19 0
27 *919:19 *926:19 0.000315023
28 *920:9 *926:9 0.000161947
29 *922:9 *926:9 0.0245414
30 *922:13 *926:21 0.0021946
31 *924:9 *926:9 0.0261492
*RES
1 *989:wbs_dat_o[20] *926:7 16.25 
2 *926:7 *926:9 252.714 
3 *926:9 *926:19 24.4298 
4 *926:19 *926:21 50.1177 
5 *926:21 *988:sram_dat_i[20] 16.3992 
*END

*D_NET *927 0.0878875
*CONN
*I *988:sram_dat_i[21] I *D soc_sys
*I *989:wbs_dat_o[21] O *D CF_SRAM_1024x32_wb_wrapper
*CAP
1 *988:sram_dat_i[21] 0.00975796
2 *989:wbs_dat_o[21] 0.00526796
3 *927:13 0.0261
4 *927:11 0.02161
5 *988:sram_dat_i[21] *928:18 0.00298977
6 *988:sram_dat_i[21] *963:11 0
7 *927:11 *989:wbs_dat_i[20] 0.00686007
8 *927:11 *989:wbs_dat_i[21] 0
9 *927:11 *989:wbs_dat_i[2] 0.000702261
10 *927:11 *989:wbs_dat_i[30] 0.00114014
11 *927:11 *989:wbs_dat_i[4] 0.00427596
12 *927:11 *989:wbs_dat_i[6] 0.000692221
13 *927:11 *989:wbs_dat_i[7] 0.00121239
14 *927:11 *989:wbs_sel_i[0] 0.00113689
15 *989:wbs_adr_i[10] *927:11 9.84862e-05
16 *989:wbs_adr_i[22] *927:11 0.000426572
17 *989:wbs_adr_i[26] *927:11 0.00203411
18 *989:wbs_adr_i[28] *927:11 0.00304049
19 *989:wbs_cyc_i *927:13 0.000472382
20 *894:7 *988:sram_dat_i[21] 0
21 *915:19 *927:11 6.99156e-05
*RES
1 *989:wbs_dat_o[21] *927:11 35.5128 
2 *927:11 *927:13 52.781 
3 *927:13 *988:sram_dat_i[21] 36.2896 
*END

*D_NET *928 0.0857241
*CONN
*I *988:sram_dat_i[22] I *D soc_sys
*I *989:wbs_dat_o[22] O *D CF_SRAM_1024x32_wb_wrapper
*CAP
1 *988:sram_dat_i[22] 0.000134108
2 *989:wbs_dat_o[22] 0.00509912
3 *928:18 0.0108089
4 *928:10 0.0270196
5 *928:8 0.0214439
6 *988:sram_dat_i[22] *965:11 0
7 *928:8 *989:wbs_dat_i[22] 5.40377e-05
8 *928:8 *989:wbs_dat_i[28] 0.000348073
9 *928:8 *989:wbs_dat_i[5] 0.00369366
10 *928:8 *989:wbs_dat_i[7] 4.48889e-05
11 *928:18 *964:7 0.0023769
12 *988:sram_dat_i[21] *928:18 0.00298977
13 *989:wbs_adr_i[10] *928:8 0.000107395
14 *989:wbs_adr_i[24] *928:8 0.0116037
15 *895:7 *988:sram_dat_i[22] 0
16 *895:7 *928:18 0
*RES
1 *989:wbs_dat_o[22] *928:8 31.3336 
2 *928:8 *928:10 52.5679 
3 *928:10 *928:18 49.4593 
4 *928:18 *988:sram_dat_i[22] 3.82987 
*END

*D_NET *929 0.0861709
*CONN
*I *988:sram_dat_i[23] I *D soc_sys
*I *989:wbs_dat_o[23] O *D CF_SRAM_1024x32_wb_wrapper
*CAP
1 *988:sram_dat_i[23] 0.00509863
2 *989:wbs_dat_o[23] 3.87857e-05
3 *929:14 0.0168186
4 *929:12 0.0117199
5 *929:10 0.0168941
6 *929:8 0.0169329
7 *988:sram_dat_i[23] *966:7 0
8 *929:10 *967:17 0
9 *929:14 *965:13 0
10 *989:wbs_adr_i[24] *929:8 5.85882e-05
11 *32:17 *988:sram_dat_i[23] 0.000111243
12 *896:7 *988:sram_dat_i[23] 0
13 *897:15 *988:sram_dat_i[23] 0
14 *897:15 *929:14 0.0184981
15 *898:9 *988:sram_dat_i[23] 0
*RES
1 *989:wbs_dat_o[23] *929:8 6.9751 
2 *929:8 *929:10 54.5921 
3 *929:10 *929:12 3.41 
4 *929:12 *929:14 47.7912 
5 *929:14 *988:sram_dat_i[23] 26.5768 
*END

*D_NET *930 0.101775
*CONN
*I *988:sram_dat_i[24] I *D soc_sys
*I *989:wbs_dat_o[24] O *D CF_SRAM_1024x32_wb_wrapper
*CAP
1 *988:sram_dat_i[24] 0.00248214
2 *989:wbs_dat_o[24] 0.000892989
3 *930:21 0.0172867
4 *930:19 0.0152199
5 *930:9 0.0116084
6 *930:7 0.0120861
7 *988:sram_dat_i[24] *967:11 0
8 *930:7 *989:wbs_dat_i[25] 0
9 *930:9 *989:wbs_sel_i[1] 0.00279567
10 *930:9 *942:48 0.000665759
11 *930:9 *954:21 0
12 *930:9 *955:21 0.0239999
13 *930:19 *936:11 0.001733
14 *930:19 *949:9 5.25192e-06
15 *930:19 *952:19 0.00079349
16 *930:19 *955:19 4.43299e-05
17 *930:21 *933:21 0
18 *930:21 *943:21 0.00177824
19 *989:wbs_adr_i[25] *930:7 0
20 *890:9 *930:21 0
21 *897:11 *988:sram_dat_i[24] 0
22 *907:9 *930:21 0.00983531
23 *916:9 *930:9 0
24 *917:9 *930:9 0
25 *918:19 *930:19 0.000547859
*RES
1 *989:wbs_dat_o[24] *930:7 21.4107 
2 *930:7 *930:9 296.25 
3 *930:9 *930:19 14.9895 
4 *930:19 *930:21 348.018 
5 *930:21 *988:sram_dat_i[24] 10.3817 
*END

*D_NET *931 0.154912
*CONN
*I *988:sram_dat_i[25] I *D soc_sys
*I *989:wbs_dat_o[25] O *D CF_SRAM_1024x32_wb_wrapper
*CAP
1 *988:sram_dat_i[25] 0.00157157
2 *989:wbs_dat_o[25] 0.00123374
3 *931:21 0.011072
4 *931:19 0.00979846
5 *931:9 0.0107476
6 *931:7 0.0116833
7 *988:sram_dat_i[25] *968:7 0
8 *931:7 *989:wbs_dat_i[25] 0
9 *931:9 *935:9 0.00743869
10 *931:9 *939:11 0.00610778
11 *931:9 *941:11 0.000353657
12 *931:9 *951:25 0.00028516
13 *931:9 *966:13 0.033685
14 *931:9 *968:13 0
15 *931:9 *970:19 0.000253456
16 *931:19 *933:19 1.61405e-05
17 *931:19 *964:13 0.00124177
18 *931:19 *981:15 0.000720913
19 *931:21 *932:18 0.00442011
20 *931:21 *941:13 0.0115814
21 *931:21 *978:9 0.000159622
22 *989:wbs_adr_i[26] *931:7 0
23 *104:25 *931:21 0.027107
24 *898:7 *988:sram_dat_i[25] 0
25 *899:13 *988:sram_dat_i[25] 0.000688125
26 *902:9 *931:21 0
27 *902:13 *931:9 0.00689842
28 *904:9 *931:21 0.00117848
29 *904:13 *931:9 0.00666935
*RES
1 *989:wbs_dat_o[25] *931:7 27.1511 
2 *931:7 *931:9 55.1059 
3 *931:9 *931:19 14.0972 
4 *931:19 *931:21 366.839 
5 *931:21 *988:sram_dat_i[25] 9.2286 
*END

*D_NET *932 0.176485
*CONN
*I *988:sram_dat_i[26] I *D soc_sys
*I *989:wbs_dat_o[26] O *D CF_SRAM_1024x32_wb_wrapper
*CAP
1 *988:sram_dat_i[26] 0.00156681
2 *989:wbs_dat_o[26] 0.0246051
3 *932:18 0.0370153
4 *932:16 0.0600535
5 *988:sram_dat_i[26] *969:13 0.00112542
6 *988:sram_dat_i[26] *971:17 5.26595e-05
7 *932:16 *989:wbs_dat_i[30] 2.27357e-05
8 *932:16 *962:15 0.00406718
9 *932:16 *968:13 0.0149243
10 *932:16 *981:15 0.00489058
11 *932:18 *933:21 0.00137441
12 *932:18 *934:13 0.00137441
13 *932:18 *935:13 0.00137441
14 *932:18 *941:13 0.00121554
15 *932:18 *978:9 0.00135973
16 *989:wbs_adr_i[27] *932:16 0.000517931
17 *104:25 *932:18 0.00372561
18 *114:17 *932:18 0.00294622
19 *894:13 *932:16 0.00405685
20 *902:9 *932:18 0.00137441
21 *904:9 *932:18 0.00329079
22 *908:9 *932:18 0.00113122
23 *931:21 *932:18 0.00442011
*RES
1 *989:wbs_dat_o[26] *932:16 19.4054 
2 *932:16 *932:18 66.8434 
3 *932:18 *988:sram_dat_i[26] 9.19257 
*END

*D_NET *933 0.163775
*CONN
*I *988:sram_dat_i[27] I *D soc_sys
*I *989:wbs_dat_o[27] O *D CF_SRAM_1024x32_wb_wrapper
*CAP
1 *988:sram_dat_i[27] 0.00149222
2 *989:wbs_dat_o[27] 0.00126466
3 *933:21 0.00924439
4 *933:19 0.00789486
5 *933:9 0.00432792
6 *933:7 0.00544989
7 *988:sram_dat_i[27] *970:7 0
8 *933:7 *989:wbs_dat_i[27] 0
9 *933:9 *934:9 0.0347841
10 *933:9 *966:13 0.00662513
11 *933:9 *970:21 0.0342706
12 *933:19 *935:9 0.000170992
13 *933:19 *966:13 0.000827898
14 *933:19 *970:19 0.000805062
15 *933:21 *934:13 0.0312446
16 *989:wbs_adr_i[28] *933:7 0
17 *33:35 *933:21 2.11419e-05
18 *38:31 *933:21 2.41874e-05
19 *890:9 *933:21 0.0216216
20 *900:7 *988:sram_dat_i[27] 0
21 *901:13 *988:sram_dat_i[27] 0.00216404
22 *902:13 *933:19 0.000150767
23 *930:21 *933:21 0
24 *931:19 *933:19 1.61405e-05
25 *932:18 *933:21 0.00137441
*RES
1 *989:wbs_dat_o[27] *933:7 28.6964 
2 *933:7 *933:9 327.054 
3 *933:9 *933:19 13.1725 
4 *933:19 *933:21 386.875 
5 *933:21 *988:sram_dat_i[27] 9.73307 
*END

*D_NET *934 0.170634
*CONN
*I *988:sram_dat_i[28] I *D soc_sys
*I *989:wbs_dat_o[28] O *D CF_SRAM_1024x32_wb_wrapper
*CAP
1 *988:sram_dat_i[28] 0.00204257
2 *989:wbs_dat_o[28] 0.00122326
3 *934:13 0.00798664
4 *934:11 0.00594408
5 *934:9 0.00460154
6 *934:7 0.0058248
7 *988:sram_dat_i[28] *971:15 0
8 *934:7 *989:wbs_dat_i[28] 0
9 *934:9 *966:13 0.00748948
10 *989:wbs_adr_i[28] *934:7 0
11 *989:wbs_adr_i[29] *934:7 0
12 *901:11 *988:sram_dat_i[28] 0
13 *902:9 *934:13 0.0321263
14 *902:13 *934:9 0.0359917
15 *932:18 *934:13 0.00137441
16 *933:9 *934:9 0.0347841
17 *933:21 *934:13 0.0312446
*RES
1 *989:wbs_dat_o[28] *934:7 28.3929 
2 *934:7 *934:9 340.607 
3 *934:9 *934:11 4.5 
4 *934:11 *934:13 397.955 
5 *934:13 *988:sram_dat_i[28] 9.661 
*END

*D_NET *935 0.174155
*CONN
*I *988:sram_dat_i[29] I *D soc_sys
*I *989:wbs_dat_o[29] O *D CF_SRAM_1024x32_wb_wrapper
*CAP
1 *988:sram_dat_i[29] 0.00196222
2 *989:wbs_dat_o[29] 0.00117155
3 *935:13 0.0080251
4 *935:11 0.00606289
5 *935:9 0.00462724
6 *935:7 0.00579879
7 *988:sram_dat_i[29] *972:5 0
8 *935:7 *989:wbs_dat_i[29] 0
9 *989:wbs_adr_i[29] *935:7 0
10 *989:wbs_adr_i[30] *935:7 0
11 *114:17 *935:13 0.0307113
12 *902:7 *988:sram_dat_i[29] 0
13 *902:9 *935:13 0.0326951
14 *902:13 *935:9 0.0362421
15 *904:9 *935:13 0.00115421
16 *904:13 *935:9 0.0367202
17 *931:9 *935:9 0.00743869
18 *932:18 *935:13 0.00137441
19 *933:19 *935:9 0.000170992
*RES
1 *989:wbs_dat_o[29] *935:7 27.7857 
2 *935:7 *935:9 347.589 
3 *935:9 *935:11 4.5 
4 *935:11 *935:13 408.277 
5 *935:13 *988:sram_dat_i[29] 9.51687 
*END

*D_NET *936 0.0748852
*CONN
*I *988:sram_dat_i[2] I *D soc_sys
*I *989:wbs_dat_o[2] O *D CF_SRAM_1024x32_wb_wrapper
*CAP
1 *988:sram_dat_i[2] 0.00149531
2 *989:wbs_dat_o[2] 0.00125539
3 *936:13 0.00305016
4 *936:11 0.00634614
5 *936:7 0.00604669
6 *988:sram_dat_i[2] *973:7 0
7 *936:7 *989:wbs_dat_i[2] 0
8 *936:7 *989:wbs_sel_i[2] 0
9 *936:11 *989:wbs_sel_i[1] 0.00519732
10 *936:11 *940:11 0.0183614
11 *936:11 *942:48 0.000320984
12 *936:11 *944:19 0.00141928
13 *936:11 *945:9 0.00312873
14 *936:11 *949:27 0.00475953
15 *936:11 *952:19 0.000293812
16 *936:11 *953:21 0.00337377
17 *936:11 *955:19 0.00101365
18 *936:13 *964:9 0.00811182
19 *936:13 *966:9 0.0081134
20 *936:13 *982:19 0.00028856
21 *989:wbs_adr_i[2] *936:7 0
22 *903:7 *988:sram_dat_i[2] 0
23 *918:19 *936:11 0.000576202
24 *930:19 *936:11 0.001733
*RES
1 *989:wbs_dat_o[2] *936:7 21.6868 
2 *936:7 *936:11 36.5356 
3 *936:11 *936:13 100.911 
4 *936:13 *988:sram_dat_i[2] 7.499 
*END

*D_NET *937 0.0916581
*CONN
*I *988:sram_dat_i[30] I *D soc_sys
*I *989:wbs_dat_o[30] O *D CF_SRAM_1024x32_wb_wrapper
*CAP
1 *988:sram_dat_i[30] 0.0174017
2 *989:wbs_dat_o[30] 3.93512e-05
3 *937:20 0.0235084
4 *937:10 0.0176012
5 *937:8 0.0115339
6 *988:sram_dat_i[30] *938:14 0.00810029
7 *988:sram_dat_i[30] *974:5 0
8 *988:sram_dat_i[30] *975:15 0
9 *937:10 *975:17 8.08153e-05
10 *904:7 *988:sram_dat_i[30] 0
11 *905:15 *937:10 0
12 *905:15 *937:20 0
13 *905:17 *937:10 0.0133925
*RES
1 *989:wbs_dat_o[30] *937:8 6.90303 
2 *937:8 *937:10 52.0353 
3 *937:10 *937:20 29.4937 
4 *937:20 *988:sram_dat_i[30] 66.1744 
*END

*D_NET *938 0.111395
*CONN
*I *988:sram_dat_i[31] I *D soc_sys
*I *989:wbs_dat_o[31] O *D CF_SRAM_1024x32_wb_wrapper
*CAP
1 *988:sram_dat_i[31] 0.00146771
2 *989:wbs_dat_o[31] 6.30211e-05
3 *938:14 0.0129
4 *938:12 0.0114323
5 *938:10 0.0215404
6 *938:8 0.0216034
7 *988:sram_dat_i[31] *975:5 0
8 *938:10 *975:17 0
9 *938:14 *974:5 0.0342884
10 *988:sram_dat_i[30] *938:14 0.00810029
11 *905:5 *988:sram_dat_i[31] 0
12 *905:5 *938:14 0
*RES
1 *989:wbs_dat_o[31] *938:8 6.9751 
2 *938:8 *938:10 69.7198 
3 *938:10 *938:12 3.41 
4 *938:12 *938:14 66.2402 
5 *938:14 *988:sram_dat_i[31] 17.99 
*END

*D_NET *939 0.068697
*CONN
*I *988:sram_dat_i[3] I *D soc_sys
*I *989:wbs_dat_o[3] O *D CF_SRAM_1024x32_wb_wrapper
*CAP
1 *988:sram_dat_i[3] 0.00143044
2 *989:wbs_dat_o[3] 0.00143366
3 *939:13 0.00324559
4 *939:11 0.00735851
5 *939:7 0.00697702
6 *988:sram_dat_i[3] *976:7 0
7 *939:7 *989:wbs_dat_i[3] 0
8 *939:7 *989:wbs_sel_i[3] 0
9 *939:11 *941:11 0.0206496
10 *939:11 *951:25 0.000533121
11 *939:11 *955:19 0.000136596
12 *939:11 *970:19 0.00137281
13 *939:13 *966:9 0.00958083
14 *939:13 *968:9 0.00958241
15 *939:13 *982:19 0.00028856
16 *989:wbs_adr_i[3] *939:7 0
17 *906:7 *988:sram_dat_i[3] 0
18 *931:9 *939:11 0.00610778
*RES
1 *989:wbs_dat_o[3] *939:7 25.3296 
2 *939:7 *939:11 38.1211 
3 *939:11 *939:13 119.125 
4 *939:13 *988:sram_dat_i[3] 7.35487 
*END

*D_NET *940 0.0903835
*CONN
*I *988:sram_dat_i[4] I *D soc_sys
*I *989:wbs_dat_o[4] O *D CF_SRAM_1024x32_wb_wrapper
*CAP
1 *988:sram_dat_i[4] 0.00294618
2 *989:wbs_dat_o[4] 0.00126523
3 *940:13 0.00536355
4 *940:11 0.00657203
5 *940:7 0.00541989
6 *988:sram_dat_i[4] *977:7 0
7 *940:7 *989:wbs_dat_i[4] 0
8 *940:11 *989:wbs_sel_i[2] 0.00131945
9 *940:11 *989:wbs_sel_i[3] 0.00520798
10 *940:11 *941:11 0.000145206
11 *940:11 *942:48 0.00278172
12 *940:11 *943:9 0.00689495
13 *940:11 *943:19 2.06702e-05
14 *940:11 *944:9 0.00370909
15 *940:11 *945:9 0.000129601
16 *940:11 *949:27 0.00834203
17 *940:11 *953:21 0.000112662
18 *940:11 *955:19 0.00119035
19 *940:13 *977:9 0.00933582
20 *989:wbs_adr_i[4] *940:7 0
21 *989:wbs_adr_i[5] *940:7 0
22 *66:21 *940:13 0.00128185
23 *900:9 *940:13 0
24 *907:7 *988:sram_dat_i[4] 0
25 *909:9 *940:13 0.00998389
26 *936:11 *940:11 0.0183614
*RES
1 *989:wbs_dat_o[4] *940:7 22.2939 
2 *940:7 *940:11 35.5987 
3 *940:11 *940:13 130.661 
4 *940:13 *988:sram_dat_i[4] 11.3185 
*END

*D_NET *941 0.0843881
*CONN
*I *988:sram_dat_i[5] I *D soc_sys
*I *989:wbs_dat_o[5] O *D CF_SRAM_1024x32_wb_wrapper
*CAP
1 *988:sram_dat_i[5] 0.00217372
2 *989:wbs_dat_o[5] 0.0011944
3 *941:13 0.00458989
4 *941:11 0.00703781
5 *941:7 0.00581605
6 *988:sram_dat_i[5] *978:7 0
7 *941:11 *989:wbs_dat_i[0] 0.0132093
8 *941:11 *989:wbs_sel_i[2] 0.00121953
9 *941:11 *989:wbs_sel_i[3] 0.000303034
10 *941:11 *942:48 0
11 *941:11 *943:19 0.00359212
12 *941:11 *955:19 0.000262523
13 *941:13 *978:9 0.00988638
14 *989:wbs_adr_i[10] *941:7 0.000646081
15 *989:wbs_adr_i[5] *941:7 0
16 *989:wbs_adr_i[6] *941:7 0
17 *908:7 *988:sram_dat_i[5] 0
18 *908:9 *941:13 0.000511715
19 *931:9 *941:11 0.000353657
20 *931:21 *941:13 0.0115814
21 *932:18 *941:13 0.00121554
22 *939:11 *941:11 0.0206496
23 *940:11 *941:11 0.000145206
*RES
1 *989:wbs_dat_o[5] *941:7 24.7225 
2 *941:7 *941:11 38.8417 
3 *941:11 *941:13 144.018 
4 *941:13 *988:sram_dat_i[5] 9.15653 
*END

*D_NET *942 0.0875002
*CONN
*I *988:sram_dat_i[6] I *D soc_sys
*I *989:wbs_dat_o[6] O *D CF_SRAM_1024x32_wb_wrapper
*CAP
1 *988:sram_dat_i[6] 0.00683534
2 *989:wbs_dat_o[6] 0.011856
3 *942:48 0.0186913
4 *988:sram_dat_i[6] *979:7 0
5 *942:48 *989:wbs_sel_i[1] 0.00274668
6 *942:48 *989:wbs_sel_i[2] 0.00220604
7 *942:48 *944:19 0.000165485
8 *942:48 *945:9 0.000123352
9 *942:48 *949:27 0.000452716
10 *942:48 *952:19 0.000203728
11 *942:48 *952:21 0.0007179
12 *942:48 *953:21 0.000141899
13 *942:48 *955:21 0.000665759
14 *942:48 *956:19 0.000428778
15 *988:sram_dat_i[10] *988:sram_dat_i[6] 0.0120066
16 *988:sram_dat_i[10] *942:48 3.48388e-05
17 *989:wbs_adr_i[10] *942:48 4.98422e-05
18 *989:wbs_adr_i[24] *942:48 4.98422e-05
19 *143:13 *942:48 0.00020854
20 *883:15 *988:sram_dat_i[6] 0.00928648
21 *907:15 *942:48 0.00194868
22 *909:7 *988:sram_dat_i[6] 0
23 *909:19 *942:48 0.000213361
24 *911:19 *942:48 0.00402754
25 *915:19 *942:48 0.0102766
26 *918:19 *942:48 0.00039432
27 *930:9 *942:48 0.000665759
28 *936:11 *942:48 0.000320984
29 *940:11 *942:48 0.00278172
30 *941:11 *942:48 0
*RES
1 *989:wbs_dat_o[6] *942:48 46.7462 
2 *942:48 *988:sram_dat_i[6] 38.3044 
*END

*D_NET *943 0.0788621
*CONN
*I *988:sram_dat_i[7] I *D soc_sys
*I *989:wbs_dat_o[7] O *D CF_SRAM_1024x32_wb_wrapper
*CAP
1 *988:sram_dat_i[7] 0.00255259
2 *989:wbs_dat_o[7] 0.00118648
3 *943:21 0.00635907
4 *943:19 0.00477238
5 *943:9 0.00651924
6 *943:7 0.00673982
7 *943:7 *989:wbs_dat_i[7] 0
8 *943:7 *989:wbs_dat_i[8] 0
9 *943:9 *944:9 0.0183252
10 *943:9 *945:9 2.12733e-05
11 *943:19 *989:wbs_sel_i[2] 0.000393285
12 *943:19 *949:27 0.000755968
13 *943:19 *951:25 9.54798e-06
14 *943:19 *955:19 0.000882682
15 *943:21 *976:9 0.00822531
16 *943:21 *977:9 0
17 *989:wbs_adr_i[7] *943:7 0
18 *989:wbs_adr_i[8] *943:7 0
19 *907:9 *943:21 0.00983326
20 *910:7 *988:sram_dat_i[7] 0
21 *930:21 *943:21 0.00177824
22 *940:11 *943:9 0.00689495
23 *940:11 *943:19 2.06702e-05
24 *941:11 *943:19 0.00359212
*RES
1 *989:wbs_dat_o[7] *943:7 23.2321 
2 *943:7 *943:9 173.857 
3 *943:9 *943:19 19.1585 
4 *943:19 *943:21 165.268 
5 *943:21 *988:sram_dat_i[7] 10.5258 
*END

*D_NET *944 0.0953382
*CONN
*I *988:sram_dat_i[8] I *D soc_sys
*I *989:wbs_dat_o[8] O *D CF_SRAM_1024x32_wb_wrapper
*CAP
1 *988:sram_dat_i[8] 0.00413619
2 *989:wbs_dat_o[8] 0.00115912
3 *944:21 0.00697872
4 *944:19 0.0034708
5 *944:9 0.0031
6 *944:7 0.00363085
7 *988:sram_dat_i[8] *981:7 0
8 *944:7 *989:wbs_dat_i[8] 0
9 *944:9 *945:9 0.0189703
10 *944:19 *989:wbs_sel_i[1] 0.000800645
11 *944:19 *952:19 0.000121515
12 *944:19 *955:21 0.000101601
13 *944:21 *949:9 0
14 *944:21 *952:19 1.8038e-05
15 *944:21 *961:13 0.0126436
16 *989:wbs_adr_i[9] *944:7 0
17 *35:17 *944:21 0.00254651
18 *115:23 *944:21 0.000224375
19 *540:31 *944:21 2.92236e-05
20 *893:9 *944:21 0
21 *910:9 *944:21 0
22 *911:7 *988:sram_dat_i[8] 0
23 *918:19 *944:19 0.000281294
24 *924:13 *944:21 0.0135064
25 *936:11 *944:19 0.00141928
26 *940:11 *944:9 0.00370909
27 *942:48 *944:19 0.000165485
28 *943:9 *944:9 0.0183252
*RES
1 *989:wbs_dat_o[8] *944:7 22.9286 
2 *944:7 *944:9 179.607 
3 *944:9 *944:19 14.485 
4 *944:19 *944:21 173.161 
5 *944:21 *988:sram_dat_i[8] 14.0571 
*END

*D_NET *945 0.091764
*CONN
*I *988:sram_dat_i[9] I *D soc_sys
*I *989:wbs_dat_o[9] O *D CF_SRAM_1024x32_wb_wrapper
*CAP
1 *988:sram_dat_i[9] 0.00433799
2 *989:wbs_dat_o[9] 0.00115183
3 *945:13 0.00796367
4 *945:11 0.00362568
5 *945:9 0.00283234
6 *945:7 0.00398417
7 *988:sram_dat_i[9] *982:19 0
8 *945:7 *989:wbs_dat_i[10] 0
9 *945:7 *989:wbs_dat_i[9] 0
10 *945:9 *952:21 0.000227272
11 *945:9 *953:21 0.019964
12 *945:13 *947:9 0.00730783
13 *945:13 *951:25 0
14 *989:wbs_adr_i[10] *945:7 0
15 *989:wbs_adr_i[9] *945:7 0
16 *912:7 *988:sram_dat_i[9] 0
17 *912:9 *945:13 0.00374986
18 *920:13 *945:13 0.0142461
19 *936:11 *945:9 0.00312873
20 *940:11 *945:9 0.000129601
21 *942:48 *945:9 0.000123352
22 *943:9 *945:9 2.12733e-05
23 *944:9 *945:9 0.0189703
*RES
1 *989:wbs_dat_o[9] *945:7 22.625 
2 *945:7 *945:9 193.161 
3 *945:9 *945:11 4.5 
4 *945:11 *945:13 184.545 
5 *945:13 *988:sram_dat_i[9] 14.9939 
*END

*D_NET *946 0.0610602
*CONN
*I *989:wbs_sel_i[0] I *D CF_SRAM_1024x32_wb_wrapper
*I *988:sram_sel_o[0] O *D soc_sys
*CAP
1 *989:wbs_sel_i[0] 0.00215888
2 *988:sram_sel_o[0] 0.00018897
3 *946:29 0.00593279
4 *946:9 0.00559131
5 *946:7 0.00200637
6 *989:wbs_sel_i[0] *989:wbs_dat_i[2] 0.0122831
7 *989:wbs_sel_i[0] *989:wbs_dat_i[4] 0.00270993
8 *989:wbs_sel_i[0] *958:25 0.00580058
9 *989:wbs_sel_i[0] *958:29 0.00110765
10 *989:wbs_sel_i[0] *982:19 0.00294014
11 *946:9 *980:9 0.00400236
12 *946:29 *989:wbs_dat_i[2] 0.000546495
13 *946:29 *989:wbs_dat_i[7] 0.000543613
14 *946:29 *958:25 0.00301104
15 *946:29 *982:19 0.000135146
16 *946:29 *983:9 0.000577581
17 *988:sram_ack_i *946:29 0.000125565
18 *989:wbs_adr_i[0] *946:29 0.00335419
19 *989:wbs_adr_i[1] *989:wbs_sel_i[0] 0
20 *70:25 *946:29 0.000282844
21 *112:13 *946:29 0.000490534
22 *114:13 *946:29 0.00357674
23 *541:35 *989:wbs_sel_i[0] 0.00209049
24 *914:11 *989:wbs_sel_i[0] 0
25 *921:19 *946:29 0.00021726
26 *921:21 *946:9 0.000249808
27 *923:19 *946:29 0
28 *927:11 *989:wbs_sel_i[0] 0.00113689
*RES
1 *988:sram_sel_o[0] *946:7 3.82987 
2 *946:7 *946:9 55.3214 
3 *946:9 *946:29 41.7059 
4 *946:29 *989:wbs_sel_i[0] 24.9016 
*END

*D_NET *947 0.0632924
*CONN
*I *989:wbs_sel_i[1] I *D CF_SRAM_1024x32_wb_wrapper
*I *988:sram_sel_o[1] O *D soc_sys
*CAP
1 *989:wbs_sel_i[1] 0.0051645
2 *988:sram_sel_o[1] 0.00485507
3 *947:9 0.00694194
4 *947:7 0.00663251
5 *989:wbs_sel_i[1] *989:wbs_dat_i[1] 0
6 *989:wbs_sel_i[1] *949:27 0.00484854
7 *989:wbs_sel_i[1] *952:21 0.00207837
8 *989:wbs_sel_i[1] *955:21 0.00192741
9 *989:wbs_sel_i[1] *956:19 1.8115e-05
10 *947:7 *962:7 0
11 *947:9 *951:25 0
12 *989:wbs_adr_i[2] *989:wbs_sel_i[1] 0
13 *903:7 *947:7 0
14 *911:19 *989:wbs_sel_i[1] 0.00408397
15 *912:9 *947:9 0.00698117
16 *915:19 *989:wbs_sel_i[1] 0.000158512
17 *918:19 *989:wbs_sel_i[1] 0.000754179
18 *925:11 *989:wbs_sel_i[1] 0
19 *930:9 *989:wbs_sel_i[1] 0.00279567
20 *936:11 *989:wbs_sel_i[1] 0.00519732
21 *942:48 *989:wbs_sel_i[1] 0.00274668
22 *944:19 *989:wbs_sel_i[1] 0.000800645
23 *945:13 *947:9 0.00730783
*RES
1 *988:sram_sel_o[1] *947:7 15.066 
2 *947:7 *947:9 92.4107 
3 *947:9 *989:wbs_sel_i[1] 48.3601 
*END

*D_NET *948 0.070012
*CONN
*I *989:wbs_sel_i[2] I *D CF_SRAM_1024x32_wb_wrapper
*I *988:sram_sel_o[2] O *D soc_sys
*CAP
1 *989:wbs_sel_i[2] 0.00441227
2 *988:sram_sel_o[2] 0.00536488
3 *948:19 0.00538374
4 *948:9 0.00281825
5 *948:7 0.00721166
6 *989:wbs_sel_i[2] *989:wbs_dat_i[0] 0.0132068
7 *989:wbs_sel_i[2] *989:wbs_sel_i[3] 0.00429931
8 *989:wbs_sel_i[2] *949:27 0.00690426
9 *948:7 *973:7 0
10 *948:9 *953:9 0.00619341
11 *948:19 *951:9 0.000321726
12 *948:19 *951:25 0.000567638
13 *948:19 *953:19 0.00152971
14 *989:wbs_adr_i[3] *989:wbs_sel_i[2] 0
15 *33:17 *948:9 0.00138447
16 *33:29 *948:19 0.000205322
17 *891:9 *948:9 0
18 *892:9 *948:9 0
19 *903:9 *948:9 0
20 *906:7 *948:7 0
21 *914:17 *948:9 0.00415891
22 *917:15 *948:9 0.000896979
23 *917:17 *948:9 1.43864e-05
24 *936:7 *989:wbs_sel_i[2] 0
25 *940:11 *989:wbs_sel_i[2] 0.00131945
26 *941:11 *989:wbs_sel_i[2] 0.00121953
27 *942:48 *989:wbs_sel_i[2] 0.00220604
28 *943:19 *989:wbs_sel_i[2] 0.000393285
*RES
1 *988:sram_sel_o[2] *948:7 16.2191 
2 *948:7 *948:9 87.7054 
3 *948:9 *948:19 38.2582 
4 *948:19 *989:wbs_sel_i[2] 48.8506 
*END

*D_NET *949 0.0750335
*CONN
*I *989:wbs_sel_i[3] I *D CF_SRAM_1024x32_wb_wrapper
*I *988:sram_sel_o[3] O *D soc_sys
*CAP
1 *989:wbs_sel_i[3] 0.00220415
2 *988:sram_sel_o[3] 0.00389915
3 *949:27 0.00496011
4 *949:9 0.00698527
5 *949:7 0.00812847
6 *949:7 *976:7 0
7 *949:9 *955:19 9.1107e-05
8 *949:27 *952:21 0.000995688
9 *949:27 *955:21 0.00107367
10 *989:wbs_adr_i[4] *989:wbs_sel_i[3] 0
11 *989:wbs_sel_i[1] *949:27 0.00484854
12 *989:wbs_sel_i[2] *989:wbs_sel_i[3] 0.00429931
13 *989:wbs_sel_i[2] *949:27 0.00690426
14 *35:27 *949:9 4.19624e-06
15 *36:23 *949:9 1.10422e-05
16 *105:50 *949:9 0.000192301
17 *881:11 *949:9 0
18 *883:15 *949:9 0.00124108
19 *885:9 *949:9 0.00898234
20 *907:7 *949:7 0
21 *910:9 *949:9 0.000250433
22 *915:19 *949:27 0.000135879
23 *930:19 *949:9 5.25192e-06
24 *936:11 *949:27 0.00475953
25 *939:7 *989:wbs_sel_i[3] 0
26 *940:11 *989:wbs_sel_i[3] 0.00520798
27 *940:11 *949:27 0.00834203
28 *941:11 *989:wbs_sel_i[3] 0.000303034
29 *942:48 *949:27 0.000452716
30 *943:19 *949:27 0.000755968
31 *944:21 *949:9 0
*RES
1 *988:sram_sel_o[3] *949:7 13.3364 
2 *949:7 *949:9 123.982 
3 *949:9 *949:27 41.8641 
4 *949:27 *989:wbs_sel_i[3] 31.1637 
*END

*D_NET *950 0.0535691
*CONN
*I *989:wbs_stb_i I *D CF_SRAM_1024x32_wb_wrapper
*I *988:sram_stb_o O *D soc_sys
*CAP
1 *989:wbs_stb_i 0.000342781
2 *988:sram_stb_o 0.0109153
3 *950:13 0.0112581
4 *989:wbs_stb_i *989:wbs_we_i 0
5 *950:13 *989:wbs_dat_i[6] 0.0122037
6 *950:13 *957:9 0.000552536
7 *950:13 *983:7 0
8 *988:sram_ack_i *950:13 0.00131388
9 *989:wbs_adr_i[1] *950:13 0.0009915
10 *989:wbs_adr_i[2] *950:13 0.00597357
11 *989:wbs_cyc_i *950:13 0
12 *32:17 *950:13 0
13 *115:25 *950:13 0.00256088
14 *888:9 *950:13 0.000627007
15 *891:9 *950:13 0.000618081
16 *893:13 *950:13 0.00231835
17 *898:13 *950:13 0.00237488
18 *903:9 *950:13 0.00057134
19 *922:13 *950:13 0.000552536
20 *926:21 *950:13 0.000394707
*RES
1 *988:sram_stb_o *950:13 48.0672 
2 *950:13 *989:wbs_stb_i 8.32964 
*END

*D_NET *951 0.0549712
*CONN
*I *989:wbs_dat_i[0] I *D CF_SRAM_1024x32_wb_wrapper
*I *988:sram_dat_o[0] O *D soc_sys
*CAP
1 *989:wbs_dat_i[0] 0.00377875
2 *988:sram_dat_o[0] 0.00485661
3 *951:25 0.00508309
4 *951:9 0.0034557
5 *951:7 0.00700797
6 *989:wbs_dat_i[0] *989:wbs_we_i 0
7 *951:9 *953:19 0.000497053
8 *988:sram_dat_i[0] *951:7 0
9 *989:wbs_sel_i[2] *989:wbs_dat_i[0] 0.0132068
10 *31:17 *951:9 0.000263097
11 *31:27 *951:9 0.000202663
12 *33:29 *951:25 0.000206816
13 *69:33 *951:9 0.00136778
14 *904:13 *951:25 0.000118413
15 *912:9 *951:9 0
16 *912:9 *951:25 0
17 *914:11 *989:wbs_dat_i[0] 0
18 *931:9 *951:25 0.00028516
19 *939:11 *951:25 0.000533121
20 *941:11 *989:wbs_dat_i[0] 0.0132093
21 *943:19 *951:25 9.54798e-06
22 *945:13 *951:25 0
23 *947:9 *951:25 0
24 *948:19 *951:9 0.000321726
25 *948:19 *951:25 0.000567638
*RES
1 *988:sram_dat_o[0] *951:7 15.5705 
2 *951:7 *951:9 59.0179 
3 *951:9 *951:25 34.8554 
4 *951:25 *989:wbs_dat_i[0] 45.1338 
*END

*D_NET *952 0.101488
*CONN
*I *989:wbs_dat_i[10] I *D CF_SRAM_1024x32_wb_wrapper
*I *988:sram_dat_o[10] O *D soc_sys
*CAP
1 *989:wbs_dat_i[10] 0.00109823
2 *988:sram_dat_o[10] 0.00299198
3 *952:21 0.00380729
4 *952:19 0.00316155
5 *952:9 0.00356526
6 *952:7 0.00610475
7 *952:21 *953:21 0.0205221
8 *952:21 *955:21 0.0214339
9 *988:sram_dat_i[10] *952:7 0
10 *989:wbs_adr_i[10] *989:wbs_dat_i[10] 0
11 *989:wbs_adr_i[11] *989:wbs_dat_i[10] 0.000106852
12 *989:wbs_sel_i[1] *952:21 0.00207837
13 *883:15 *952:7 0
14 *894:9 *952:9 0.0157676
15 *896:9 *952:9 0.0159982
16 *915:19 *989:wbs_dat_i[10] 0
17 *918:19 *952:19 0.00148081
18 *930:19 *952:19 0.00079349
19 *936:11 *952:19 0.000293812
20 *942:48 *952:19 0.000203728
21 *942:48 *952:21 0.0007179
22 *944:19 *952:19 0.000121515
23 *944:21 *952:19 1.8038e-05
24 *945:7 *989:wbs_dat_i[10] 0
25 *945:9 *952:21 0.000227272
26 *949:27 *952:21 0.000995688
*RES
1 *988:sram_dat_o[10] *952:7 11.8951 
2 *952:7 *952:9 198.054 
3 *952:9 *952:19 14.2535 
4 *952:19 *952:21 201.786 
5 *952:21 *989:wbs_dat_i[10] 22.0179 
*END

*D_NET *953 0.0999896
*CONN
*I *989:wbs_dat_i[11] I *D CF_SRAM_1024x32_wb_wrapper
*I *988:sram_dat_o[11] O *D soc_sys
*CAP
1 *989:wbs_dat_i[11] 0.00112137
2 *988:sram_dat_o[11] 0.00486751
3 *953:21 0.00393158
4 *953:19 0.00402506
5 *953:9 0.00533598
6 *953:7 0.00898864
7 *953:19 *959:15 0
8 *953:21 *955:21 0.000363512
9 *988:sram_dat_i[11] *953:7 0
10 *33:17 *953:9 0.00297108
11 *69:33 *953:19 0.0011818
12 *884:7 *953:7 0
13 *891:9 *953:9 0
14 *898:9 *953:19 0.000137975
15 *915:19 *989:wbs_dat_i[11] 0.000223553
16 *916:7 *989:wbs_dat_i[11] 0
17 *917:15 *953:19 0
18 *917:17 *953:9 0.014507
19 *918:19 *953:19 0
20 *936:11 *953:21 0.00337377
21 *940:11 *953:21 0.000112662
22 *942:48 *953:21 0.000141899
23 *945:9 *953:21 0.019964
24 *948:9 *953:9 0.00619341
25 *948:19 *953:19 0.00152971
26 *951:9 *953:19 0.000497053
27 *952:21 *953:21 0.0205221
*RES
1 *988:sram_dat_o[11] *953:7 16.147 
2 *953:7 *953:9 178.17 
3 *953:9 *953:19 47.7857 
4 *953:19 *953:21 199.321 
5 *953:21 *989:wbs_dat_i[11] 22.3214 
*END

*D_NET *954 0.104149
*CONN
*I *989:wbs_dat_i[12] I *D CF_SRAM_1024x32_wb_wrapper
*I *988:sram_dat_o[12] O *D soc_sys
*CAP
1 *989:wbs_dat_i[12] 0.000926519
2 *988:sram_dat_o[12] 0.00518372
3 *954:21 0.00364715
4 *954:19 0.0037439
5 *954:9 0.00369245
6 *954:7 0.0078529
7 *988:sram_ack_i *954:9 0.000429362
8 *988:sram_dat_i[12] *954:7 0
9 *989:wbs_adr_i[12] *989:wbs_dat_i[12] 0
10 *885:7 *954:7 0
11 *886:9 *954:9 0.0156171
12 *892:9 *954:19 0.00132583
13 *903:9 *954:19 0.00136948
14 *911:19 *954:21 0.00387168
15 *916:7 *989:wbs_dat_i[12] 0
16 *916:9 *954:21 0.02043
17 *916:25 *954:9 0.0144296
18 *917:7 *989:wbs_dat_i[12] 0
19 *917:9 *954:21 0.0212124
20 *919:19 *954:19 0.000284457
21 *922:13 *954:19 0.000132644
22 *930:9 *954:21 0
*RES
1 *988:sram_dat_o[12] *954:7 17.3001 
2 *954:7 *954:9 191.527 
3 *954:9 *954:19 42.5357 
4 *954:19 *954:21 199.732 
5 *954:21 *989:wbs_dat_i[12] 18.6786 
*END

*D_NET *955 0.0981845
*CONN
*I *989:wbs_dat_i[13] I *D CF_SRAM_1024x32_wb_wrapper
*I *988:sram_dat_o[13] O *D soc_sys
*CAP
1 *989:wbs_dat_i[13] 0.00106537
2 *988:sram_dat_o[13] 0.00163421
3 *955:21 0.00437343
4 *955:19 0.00432667
5 *955:9 0.00991001
6 *955:7 0.0105256
7 *955:9 *964:9 0
8 *988:sram_dat_i[13] *955:7 0
9 *989:wbs_adr_i[13] *989:wbs_dat_i[13] 0
10 *989:wbs_sel_i[1] *955:21 0.00192741
11 *37:35 *955:9 0.00020697
12 *886:7 *955:7 0
13 *911:9 *955:9 0.0126632
14 *911:15 *955:9 0.000291993
15 *918:7 *989:wbs_dat_i[13] 0
16 *930:9 *955:21 0.0239999
17 *930:19 *955:19 4.43299e-05
18 *936:11 *955:19 0.00101365
19 *939:11 *955:19 0.000136596
20 *940:11 *955:19 0.00119035
21 *941:11 *955:19 0.000262523
22 *942:48 *955:21 0.000665759
23 *943:19 *955:19 0.000882682
24 *944:19 *955:21 0.000101601
25 *949:9 *955:19 9.1107e-05
26 *949:27 *955:21 0.00107367
27 *952:21 *955:21 0.0214339
28 *953:21 *955:21 0.000363512
*RES
1 *988:sram_dat_o[13] *955:7 8.21967 
2 *955:7 *955:9 233.268 
3 *955:9 *955:19 18.7414 
4 *955:19 *955:21 226.018 
5 *955:21 *989:wbs_dat_i[13] 21.7143 
*END

*D_NET *956 0.118816
*CONN
*I *989:wbs_dat_i[14] I *D CF_SRAM_1024x32_wb_wrapper
*I *988:sram_dat_o[14] O *D soc_sys
*CAP
1 *989:wbs_dat_i[14] 0.000795996
2 *988:sram_dat_o[14] 0.00128538
3 *956:21 0.00364655
4 *956:19 0.00424911
5 *956:9 0.00490109
6 *956:7 0.00478791
7 *956:9 *968:9 0.019367
8 *956:9 *970:9 0.0193691
9 *956:9 *982:19 0.00106265
10 *956:21 *957:21 0.0222448
11 *988:sram_dat_i[14] *956:7 0
12 *989:wbs_adr_i[14] *989:wbs_dat_i[14] 0
13 *989:wbs_sel_i[1] *956:19 1.8115e-05
14 *32:37 *956:19 0.000163198
15 *105:44 *956:19 0.00381242
16 *143:13 *956:19 0
17 *887:7 *956:7 0
18 *911:19 *956:19 0.00504027
19 *912:15 *956:21 0.00336432
20 *917:15 *956:19 2.2355e-05
21 *918:7 *989:wbs_dat_i[14] 0
22 *918:9 *956:21 0.00028115
23 *918:19 *956:19 0.00121882
24 *919:7 *989:wbs_dat_i[14] 0
25 *920:9 *956:21 0.0227568
26 *942:48 *956:19 0.000428778
*RES
1 *988:sram_dat_o[14] *956:7 7.21073 
2 *956:7 *956:9 239.946 
3 *956:9 *956:19 23.1528 
4 *956:19 *956:21 214.518 
5 *956:21 *989:wbs_dat_i[14] 17.1607 
*END

*D_NET *957 0.113979
*CONN
*I *989:wbs_dat_i[15] I *D CF_SRAM_1024x32_wb_wrapper
*I *988:sram_dat_o[15] O *D soc_sys
*CAP
1 *989:wbs_dat_i[15] 0.000813994
2 *988:sram_dat_o[15] 0.00526451
3 *957:21 0.00376327
4 *957:19 0.00356134
5 *957:9 0.00360081
6 *957:7 0.00825325
7 *988:sram_dat_i[15] *957:7 0
8 *989:wbs_adr_i[15] *989:wbs_dat_i[15] 0
9 *886:9 *957:19 0.000712161
10 *888:7 *957:7 0
11 *888:9 *957:9 0.0190117
12 *888:9 *957:19 0.000663107
13 *910:15 *957:21 0.00362781
14 *916:23 *957:19 0.000200514
15 *918:9 *957:21 0.0218096
16 *919:7 *989:wbs_dat_i[15] 0
17 *919:9 *957:21 0.000363512
18 *919:19 *957:19 4.58194e-05
19 *920:7 *989:wbs_dat_i[15] 0
20 *920:9 *957:21 0.000355905
21 *922:13 *957:9 0.0190134
22 *922:13 *957:19 0.00012131
23 *950:13 *957:9 0.000552536
24 *956:21 *957:21 0.0222448
*RES
1 *988:sram_dat_o[15] *957:7 17.0118 
2 *957:7 *957:9 233.42 
3 *957:9 *957:19 29.75 
4 *957:19 *957:21 215.75 
5 *957:21 *989:wbs_dat_i[15] 17.4643 
*END

*D_NET *958 0.112418
*CONN
*I *989:wbs_dat_i[16] I *D CF_SRAM_1024x32_wb_wrapper
*I *988:sram_dat_o[16] O *D soc_sys
*CAP
1 *989:wbs_dat_i[16] 0.000151096
2 *988:sram_dat_o[16] 6.0798e-05
3 *958:29 0.00475038
4 *958:27 0.00459929
5 *958:25 0.00385972
6 *958:9 0.00772213
7 *958:7 0.0039232
8 *958:9 *960:15 0
9 *958:25 *989:wbs_dat_i[2] 0.00158778
10 *958:25 *989:wbs_dat_i[4] 0.0074064
11 *958:25 *982:19 0.000279127
12 *989:wbs_adr_i[0] *958:25 0.00238214
13 *989:wbs_adr_i[16] *989:wbs_dat_i[16] 0
14 *989:wbs_sel_i[0] *958:25 0.00580058
15 *989:wbs_sel_i[0] *958:29 0.00110765
16 *114:13 *958:25 6.07555e-05
17 *115:25 *958:29 0
18 *540:25 *958:25 0
19 *541:35 *958:29 0.00421553
20 *882:9 *958:9 0.0136929
21 *892:9 *958:25 5.40845e-05
22 *914:15 *958:25 0
23 *914:17 *958:25 7.05113e-05
24 *919:19 *958:25 0.000467699
25 *921:7 *989:wbs_dat_i[16] 0
26 *921:9 *958:29 0.0167625
27 *921:19 *958:25 0.00797856
28 *921:21 *958:9 0.00308308
29 *923:21 *958:9 0.0190569
30 *926:19 *958:25 0.000333712
31 *946:29 *958:25 0.00301104
*RES
1 *988:sram_dat_o[16] *958:7 3.5416 
2 *958:7 *958:9 242.321 
3 *958:9 *958:25 47.0511 
4 *958:25 *958:27 4.5 
5 *958:27 *958:29 158.661 
6 *958:29 *989:wbs_dat_i[16] 6.53571 
*END

*D_NET *959 0.121185
*CONN
*I *989:wbs_dat_i[17] I *D CF_SRAM_1024x32_wb_wrapper
*I *988:sram_dat_o[17] O *D soc_sys
*CAP
1 *989:wbs_dat_i[17] 0.000404587
2 *988:sram_dat_o[17] 0.0045083
3 *959:17 0.00386997
4 *959:15 0.0039203
5 *959:9 0.00376374
6 *959:7 0.00781712
7 *959:15 *980:19 0.0010112
8 *988:sram_dat_i[17] *959:7 0
9 *989:wbs_adr_i[17] *989:wbs_dat_i[17] 0
10 *989:wbs_adr_i[2] *959:17 0.00235603
11 *31:17 *959:9 0.00380816
12 *889:9 *959:9 0.0193374
13 *889:15 *959:9 2.19012e-05
14 *889:15 *959:15 0.00142258
15 *889:17 *959:17 0.0244246
16 *890:7 *959:7 0
17 *890:21 *959:17 0.000172393
18 *891:13 *959:17 0.0241734
19 *893:13 *959:17 4.85033e-05
20 *898:9 *959:9 0.019975
21 *898:9 *959:15 0.000149872
22 *922:7 *989:wbs_dat_i[17] 0
23 *953:19 *959:15 0
*RES
1 *988:sram_dat_o[17] *959:7 15.9308 
2 *959:7 *959:9 245.411 
3 *959:9 *959:15 23.2232 
4 *959:15 *959:17 234.643 
5 *959:17 *989:wbs_dat_i[17] 10.4821 
*END

*D_NET *960 0.118751
*CONN
*I *989:wbs_dat_i[18] I *D CF_SRAM_1024x32_wb_wrapper
*I *988:sram_dat_o[18] O *D soc_sys
*CAP
1 *989:wbs_dat_i[18] 9.75779e-05
2 *988:sram_dat_o[18] 0.00528275
3 *960:29 0.00348337
4 *960:27 0.00420307
5 *960:17 0.00494104
6 *960:15 0.00940652
7 *960:27 *989:wbs_dat_i[5] 0.000467948
8 *960:29 *989:wbs_dat_i[7] 0.00233716
9 *960:29 *961:25 0.0246438
10 *989:wbs_adr_i[18] *989:wbs_dat_i[18] 0
11 *31:27 *960:27 0.000306514
12 *540:33 *960:29 9.94194e-05
13 *541:35 *960:29 3.5079e-05
14 *888:7 *960:15 0
15 *888:9 *960:27 0.000229226
16 *889:7 *960:15 0
17 *891:7 *960:15 0
18 *893:9 *960:17 0.0194382
19 *920:13 *960:17 0.0184204
20 *921:19 *960:27 0.000385683
21 *922:13 *960:27 0.000230874
22 *923:7 *989:wbs_dat_i[18] 0
23 *923:9 *960:29 0.0246954
24 *923:21 *960:15 0
25 *926:19 *960:27 4.73891e-05
26 *958:9 *960:15 0
*RES
1 *988:sram_dat_o[18] *960:15 45.4731 
2 *960:15 *960:17 242.982 
3 *960:17 *960:27 16.5379 
4 *960:27 *960:29 235.054 
5 *960:29 *989:wbs_dat_i[18] 5.625 
*END

*D_NET *961 0.114512
*CONN
*I *989:wbs_dat_i[19] I *D CF_SRAM_1024x32_wb_wrapper
*I *988:sram_dat_o[19] O *D soc_sys
*CAP
1 *989:wbs_dat_i[19] 0.00029314
2 *988:sram_dat_o[19] 0.0029091
3 *961:25 0.00360419
4 *961:23 0.00398179
5 *961:13 0.00969909
6 *961:11 0.0119375
7 *989:wbs_dat_i[19] *972:21 0.000485121
8 *961:23 *989:wbs_dat_i[3] 0.00198564
9 *961:23 *989:wbs_dat_i[5] 0.00198677
10 *961:23 *982:19 0.000119664
11 *961:25 *989:wbs_dat_i[7] 0.00246588
12 *988:sram_dat_i[19] *961:11 0.00359995
13 *989:wbs_adr_i[19] *989:wbs_dat_i[19] 0
14 *36:13 *961:13 0.00361361
15 *40:25 *961:13 3.38439e-05
16 *540:33 *961:25 0.0105488
17 *540:47 *989:wbs_dat_i[19] 6.42778e-05
18 *540:47 *961:25 0.0141379
19 *893:7 *961:11 0
20 *893:9 *961:13 0
21 *916:23 *961:23 6.36238e-05
22 *923:9 *989:wbs_dat_i[19] 0.000183713
23 *923:9 *961:25 1.69961e-05
24 *923:19 *961:23 6.51414e-05
25 *924:7 *989:wbs_dat_i[19] 0
26 *924:13 *961:13 0.00542885
27 *944:21 *961:13 0.0126436
28 *960:29 *961:25 0.0246438
*RES
1 *988:sram_dat_o[19] *961:11 14.6461 
2 *961:11 *961:13 276.982 
3 *961:13 *961:23 15.4939 
4 *961:23 *961:25 233.411 
5 *961:25 *989:wbs_dat_i[19] 11.9286 
*END

*D_NET *962 0.0688783
*CONN
*I *989:wbs_dat_i[1] I *D CF_SRAM_1024x32_wb_wrapper
*I *988:sram_dat_o[1] O *D soc_sys
*CAP
1 *989:wbs_dat_i[1] 0.00184969
2 *988:sram_dat_o[1] 0.00107936
3 *962:15 0.00482508
4 *962:9 0.00661053
5 *962:7 0.0047145
6 *962:9 *981:9 0.00432504
7 *962:15 *968:13 0.0202641
8 *962:15 *981:15 0.0209172
9 *988:sram_dat_i[1] *962:7 0
10 *989:wbs_adr_i[1] *989:wbs_dat_i[1] 0
11 *989:wbs_cyc_i *962:9 0.000225686
12 *989:wbs_sel_i[1] *989:wbs_dat_i[1] 0
13 *925:11 *989:wbs_dat_i[1] 0
14 *932:16 *962:15 0.00406718
15 *947:7 *962:7 0
*RES
1 *988:sram_dat_o[1] *962:7 6.27387 
2 *962:7 *962:9 99.0893 
3 *962:9 *962:15 39.3691 
4 *962:15 *989:wbs_dat_i[1] 27.3839 
*END

*D_NET *963 0.0800726
*CONN
*I *989:wbs_dat_i[20] I *D CF_SRAM_1024x32_wb_wrapper
*I *988:sram_dat_o[20] O *D soc_sys
*CAP
1 *989:wbs_dat_i[20] 0.00535465
2 *988:sram_dat_o[20] 0.0141068
3 *963:15 0.0182724
4 *963:11 0.0270246
5 *989:wbs_dat_i[20] *989:wbs_dat_i[28] 0.000194122
6 *989:wbs_dat_i[20] *989:wbs_dat_i[30] 0.0002358
7 *989:wbs_dat_i[20] *972:19 0.00115846
8 *988:sram_dat_i[20] *963:11 0
9 *988:sram_dat_i[21] *963:11 0
10 *989:wbs_adr_i[11] *989:wbs_dat_i[20] 0
11 *989:wbs_adr_i[20] *989:wbs_dat_i[20] 0
12 *989:wbs_adr_i[22] *989:wbs_dat_i[20] 0.00546389
13 *894:7 *963:11 0.00140179
14 *895:9 *989:wbs_dat_i[20] 0
15 *895:9 *963:15 0
16 *926:7 *989:wbs_dat_i[20] 0
17 *927:11 *989:wbs_dat_i[20] 0.00686007
*RES
1 *988:sram_dat_o[20] *963:11 48.3874 
2 *963:11 *963:15 41.4697 
3 *963:15 *989:wbs_dat_i[20] 31.4723 
*END

*D_NET *964 0.146337
*CONN
*I *989:wbs_dat_i[21] I *D CF_SRAM_1024x32_wb_wrapper
*I *988:sram_dat_o[21] O *D soc_sys
*CAP
1 *989:wbs_dat_i[21] 0.00136337
2 *988:sram_dat_o[21] 0.000975247
3 *964:13 0.00653746
4 *964:11 0.00517409
5 *964:9 0.0113074
6 *964:7 0.0122827
7 *964:9 *966:9 0.0100001
8 *964:9 *968:9 0
9 *964:9 *982:19 0.00028856
10 *964:13 *966:13 0.0345735
11 *964:13 *970:21 0.00690014
12 *964:13 *981:15 0.000579767
13 *989:wbs_adr_i[21] *989:wbs_dat_i[21] 0
14 *895:7 *964:7 0
15 *896:13 *964:13 0.0318264
16 *900:13 *964:13 0.0127979
17 *927:11 *989:wbs_dat_i[21] 0
18 *928:18 *964:7 0.0023769
19 *931:19 *964:13 0.00124177
20 *936:13 *964:9 0.00811182
21 *955:9 *964:9 0
*RES
1 *988:sram_dat_o[21] *964:7 7.57107 
2 *964:7 *964:9 326.161 
3 *964:9 *964:11 3.41 
4 *964:11 *964:13 53.9529 
5 *964:13 *989:wbs_dat_i[21] 28.3654 
*END

*D_NET *965 0.0754443
*CONN
*I *989:wbs_dat_i[22] I *D CF_SRAM_1024x32_wb_wrapper
*I *988:sram_dat_o[22] O *D soc_sys
*CAP
1 *989:wbs_dat_i[22] 2.2371e-05
2 *988:sram_dat_o[22] 0.00106733
3 *965:17 0.016621
4 *965:15 0.0165986
5 *965:13 0.014629
6 *965:11 0.0156963
7 *965:11 *970:9 0
8 *988:sram_dat_i[22] *965:11 0
9 *895:7 *965:13 0.00972521
10 *896:7 *965:11 0
11 *897:15 *965:11 0.00103055
12 *928:8 *989:wbs_dat_i[22] 5.40377e-05
13 *929:14 *965:13 0
*RES
1 *988:sram_dat_o[22] *965:11 15.6335 
2 *965:11 *965:13 55.9347 
3 *965:13 *965:15 3.41 
4 *965:15 *965:17 53.5267 
5 *965:17 *989:wbs_dat_i[22] 6.90303 
*END

*D_NET *966 0.152753
*CONN
*I *989:wbs_dat_i[23] I *D CF_SRAM_1024x32_wb_wrapper
*I *988:sram_dat_o[23] O *D soc_sys
*CAP
1 *989:wbs_dat_i[23] 0.00129673
2 *988:sram_dat_o[23] 0.00133973
3 *966:13 0.00686034
4 *966:11 0.0055636
5 *966:9 0.00670562
6 *966:7 0.00804535
7 *966:9 *968:9 0.0101674
8 *966:9 *982:19 0.00028856
9 *966:13 *968:13 0
10 *966:13 *970:19 0.000886925
11 *966:13 *981:15 2.72155e-05
12 *988:sram_dat_i[23] *966:7 0
13 *989:wbs_adr_i[23] *989:wbs_dat_i[23] 0
14 *896:13 *966:13 0.000676653
15 *897:11 *966:7 0
16 *931:9 *966:13 0.033685
17 *933:9 *966:13 0.00662513
18 *933:19 *966:13 0.000827898
19 *934:9 *966:13 0.00748948
20 *936:13 *966:9 0.0081134
21 *939:13 *966:9 0.00958083
22 *964:9 *966:9 0.0100001
23 *964:13 *966:13 0.0345735
*RES
1 *988:sram_dat_o[23] *966:7 7.42693 
2 *966:7 *966:9 347.411 
3 *966:9 *966:11 3.41 
4 *966:11 *966:13 56.259 
5 *966:13 *989:wbs_dat_i[23] 27.7582 
*END

*D_NET *967 0.0765784
*CONN
*I *989:wbs_dat_i[24] I *D CF_SRAM_1024x32_wb_wrapper
*I *988:sram_dat_o[24] O *D soc_sys
*CAP
1 *989:wbs_dat_i[24] 4.19966e-05
2 *988:sram_dat_o[24] 0.00563745
3 *967:17 0.0176611
4 *967:15 0.0176191
5 *967:13 0.014976
6 *967:11 0.0206134
7 *989:wbs_dat_i[24] *989:wbs_dat_i[26] 2.92862e-05
8 *988:sram_dat_i[24] *967:11 0
9 *898:7 *967:11 0
10 *899:13 *967:11 0
11 *929:10 *967:17 0
*RES
1 *988:sram_dat_o[24] *967:11 30.0143 
2 *967:11 *967:13 47.5029 
3 *967:13 *967:15 3.41 
4 *967:15 *967:17 56.7227 
5 *967:17 *989:wbs_dat_i[24] 6.9751 
*END

*D_NET *968 0.133684
*CONN
*I *989:wbs_dat_i[25] I *D CF_SRAM_1024x32_wb_wrapper
*I *988:sram_dat_o[25] O *D soc_sys
*CAP
1 *989:wbs_dat_i[25] 0.00147865
2 *988:sram_dat_o[25] 0.00128585
3 *968:13 0.0147188
4 *968:11 0.0132402
5 *968:9 0.00698157
6 *968:7 0.00826742
7 *968:7 *971:17 0
8 *968:9 *970:9 0.00567588
9 *968:9 *982:19 0.000982072
10 *968:13 *981:15 0.00312055
11 *988:sram_dat_i[25] *968:7 0
12 *989:wbs_adr_i[25] *989:wbs_dat_i[25] 0
13 *894:13 *968:13 0.00321959
14 *896:13 *968:13 0.000408232
15 *899:11 *968:7 0
16 *930:7 *989:wbs_dat_i[25] 0
17 *931:7 *989:wbs_dat_i[25] 0
18 *931:9 *968:13 0
19 *932:16 *968:13 0.0149243
20 *939:13 *968:9 0.00958241
21 *956:9 *968:9 0.019367
22 *962:15 *968:13 0.0202641
23 *964:9 *968:9 0
24 *966:9 *968:9 0.0101674
25 *966:13 *968:13 0
*RES
1 *988:sram_dat_o[25] *968:7 7.2828 
2 *968:7 *968:9 372.911 
3 *968:9 *968:11 3.41 
4 *968:11 *968:13 58.5651 
5 *968:13 *989:wbs_dat_i[25] 31.4011 
*END

*D_NET *969 0.128442
*CONN
*I *989:wbs_dat_i[26] I *D CF_SRAM_1024x32_wb_wrapper
*I *988:sram_dat_o[26] O *D soc_sys
*CAP
1 *989:wbs_dat_i[26] 0.00378108
2 *988:sram_dat_o[26] 0.000433927
3 *969:17 0.0166541
4 *969:15 0.012873
5 *969:13 0.0101425
6 *969:11 0.0105765
7 *989:wbs_dat_i[26] *989:wbs_dat_i[28] 0.00117519
8 *989:wbs_dat_i[26] *989:wbs_dat_i[30] 0.00114852
9 *989:wbs_dat_i[26] *972:21 0.000621916
10 *969:11 *971:15 0
11 *969:13 *971:17 0.0294603
12 *988:sram_dat_i[26] *969:13 0.00112542
13 *989:wbs_adr_i[11] *969:17 0
14 *989:wbs_adr_i[22] *989:wbs_dat_i[26] 0.00667782
15 *989:wbs_adr_i[24] *989:wbs_dat_i[26] 0.00489821
16 *989:wbs_adr_i[26] *989:wbs_dat_i[26] 0
17 *989:wbs_adr_i[27] *989:wbs_dat_i[26] 0
18 *989:wbs_dat_i[24] *989:wbs_dat_i[26] 2.92862e-05
19 *540:47 *989:wbs_dat_i[26] 0.000310958
20 *899:17 *969:17 0.0285336
21 *900:7 *969:11 0
*RES
1 *988:sram_dat_o[26] *969:11 12.7756 
2 *969:11 *969:13 46.7822 
3 *969:13 *969:15 3.41 
4 *969:15 *969:17 61.6233 
5 *969:17 *989:wbs_dat_i[26] 23.8597 
*END

*D_NET *970 0.147715
*CONN
*I *989:wbs_dat_i[27] I *D CF_SRAM_1024x32_wb_wrapper
*I *988:sram_dat_o[27] O *D soc_sys
*CAP
1 *989:wbs_dat_i[27] 0.00126572
2 *988:sram_dat_o[27] 0.00124293
3 *970:21 0.00533839
4 *970:19 0.00486629
5 *970:9 0.0143104
6 *970:7 0.0147597
7 *970:9 *982:19 0.00229918
8 *970:19 *981:15 0
9 *988:sram_dat_i[27] *970:7 0
10 *989:wbs_adr_i[27] *989:wbs_dat_i[27] 0
11 *900:13 *970:21 0.0338821
12 *901:11 *970:7 0
13 *904:13 *970:19 0.000216736
14 *931:9 *970:19 0.000253456
15 *933:7 *989:wbs_dat_i[27] 0
16 *933:9 *970:21 0.0342706
17 *933:19 *970:19 0.000805062
18 *939:11 *970:19 0.00137281
19 *956:9 *970:9 0.0193691
20 *964:13 *970:21 0.00690014
21 *965:11 *970:9 0
22 *966:13 *970:19 0.000886925
23 *968:9 *970:9 0.00567588
*RES
1 *988:sram_dat_o[27] *970:7 7.13867 
2 *970:7 *970:9 389.911 
3 *970:9 *970:19 17.1821 
4 *970:19 *970:21 322.125 
5 *970:21 *989:wbs_dat_i[27] 29 
*END

*D_NET *971 0.110619
*CONN
*I *989:wbs_dat_i[28] I *D CF_SRAM_1024x32_wb_wrapper
*I *988:sram_dat_o[28] O *D soc_sys
*CAP
1 *989:wbs_dat_i[28] 0.00438829
2 *988:sram_dat_o[28] 0.00151063
3 *971:21 0.0237006
4 *971:19 0.0193123
5 *971:17 0.0135466
6 *971:15 0.0150572
7 *989:wbs_dat_i[28] *989:wbs_dat_i[30] 0.000489197
8 *971:21 *974:9 0
9 *988:sram_dat_i[26] *971:17 5.26595e-05
10 *988:sram_dat_i[28] *971:15 0
11 *989:wbs_adr_i[22] *989:wbs_dat_i[28] 0.000496689
12 *989:wbs_adr_i[24] *989:wbs_dat_i[28] 0.000758719
13 *989:wbs_adr_i[28] *989:wbs_dat_i[28] 0
14 *989:wbs_dat_i[20] *989:wbs_dat_i[28] 0.000194122
15 *989:wbs_dat_i[26] *989:wbs_dat_i[28] 0.00117519
16 *899:11 *971:17 0.000128598
17 *901:11 *971:15 0
18 *902:7 *971:15 0
19 *928:8 *989:wbs_dat_i[28] 0.000348073
20 *934:7 *989:wbs_dat_i[28] 0
21 *968:7 *971:17 0
22 *969:11 *971:15 0
23 *969:13 *971:17 0.0294603
*RES
1 *988:sram_dat_o[28] *971:15 35.6596 
2 *971:15 *971:17 55.5023 
3 *971:17 *971:19 3.41 
4 *971:19 *971:21 61.6233 
5 *971:21 *989:wbs_dat_i[28] 10.4987 
*END

*D_NET *972 0.0978597
*CONN
*I *989:wbs_dat_i[29] I *D CF_SRAM_1024x32_wb_wrapper
*I *988:sram_dat_o[29] O *D soc_sys
*CAP
1 *989:wbs_dat_i[29] 5.11656e-05
2 *988:sram_dat_o[29] 0.0171669
3 *972:21 0.0023113
4 *972:19 0.00262106
5 *972:9 0.0159595
6 *972:7 0.0155986
7 *972:5 0.0171669
8 *988:sram_dat_i[29] *972:5 0
9 *989:wbs_adr_i[22] *972:19 0.00115417
10 *989:wbs_adr_i[29] *989:wbs_dat_i[29] 0
11 *989:wbs_dat_i[19] *972:21 0.000485121
12 *989:wbs_dat_i[20] *972:19 0.00115846
13 *989:wbs_dat_i[26] *972:21 0.000621916
14 *540:47 *972:21 0.0069881
15 *901:17 *972:9 0.016526
16 *904:7 *972:5 0
17 *923:7 *972:19 5.05056e-05
18 *935:7 *989:wbs_dat_i[29] 0
*RES
1 *988:sram_dat_o[29] *972:5 53.3466 
2 *972:5 *972:7 3.41 
3 *972:7 *972:9 68.5479 
4 *972:9 *972:19 14.3201 
5 *972:19 *972:21 66.25 
6 *972:21 *989:wbs_dat_i[29] 5.32143 
*END

*D_NET *973 0.068559
*CONN
*I *989:wbs_dat_i[2] I *D CF_SRAM_1024x32_wb_wrapper
*I *988:sram_dat_o[2] O *D soc_sys
*CAP
1 *989:wbs_dat_i[2] 0.00382363
2 *988:sram_dat_o[2] 0.00364715
3 *973:9 0.00757741
4 *973:7 0.00740093
5 *989:wbs_dat_i[2] *989:wbs_dat_i[4] 0.00119236
6 *989:wbs_dat_i[2] *989:wbs_dat_i[7] 0.0143301
7 *989:wbs_dat_i[2] *982:19 0.00371848
8 *988:sram_dat_i[10] *973:9 0.00101362
9 *988:sram_dat_i[2] *973:7 0
10 *989:wbs_adr_i[2] *989:wbs_dat_i[2] 0
11 *989:wbs_sel_i[0] *989:wbs_dat_i[2] 0.0122831
12 *40:29 *989:wbs_dat_i[2] 0.000101601
13 *541:27 *989:wbs_dat_i[2] 0.00232255
14 *881:11 *973:9 0.00365449
15 *894:9 *973:9 0
16 *921:9 *989:wbs_dat_i[2] 0.00223513
17 *923:9 *989:wbs_dat_i[2] 0.0024219
18 *927:11 *989:wbs_dat_i[2] 0.000702261
19 *936:7 *989:wbs_dat_i[2] 0
20 *946:29 *989:wbs_dat_i[2] 0.000546495
21 *948:7 *973:7 0
22 *958:25 *989:wbs_dat_i[2] 0.00158778
*RES
1 *988:sram_dat_o[2] *973:7 12.5437 
2 *973:7 *973:9 88.7679 
3 *973:9 *989:wbs_dat_i[2] 36.6251 
*END

*D_NET *974 0.114063
*CONN
*I *989:wbs_dat_i[30] I *D CF_SRAM_1024x32_wb_wrapper
*I *988:sram_dat_o[30] O *D soc_sys
*CAP
1 *989:wbs_dat_i[30] 0.00236764
2 *988:sram_dat_o[30] 0.0125137
3 *974:9 0.0243874
4 *974:7 0.0220198
5 *974:5 0.0125137
6 *988:sram_dat_i[30] *974:5 0
7 *989:wbs_adr_i[22] *989:wbs_dat_i[30] 0.000661645
8 *989:wbs_adr_i[28] *989:wbs_dat_i[30] 0.00227388
9 *989:wbs_adr_i[30] *989:wbs_dat_i[30] 0
10 *989:wbs_dat_i[20] *989:wbs_dat_i[30] 0.0002358
11 *989:wbs_dat_i[26] *989:wbs_dat_i[30] 0.00114852
12 *989:wbs_dat_i[28] *989:wbs_dat_i[30] 0.000489197
13 *905:5 *974:5 0
14 *927:11 *989:wbs_dat_i[30] 0.00114014
15 *932:16 *989:wbs_dat_i[30] 2.27357e-05
16 *938:14 *974:5 0.0342884
17 *971:21 *974:9 0
*RES
1 *988:sram_dat_o[30] *974:5 56.6616 
2 *974:5 *974:7 3.41 
3 *974:7 *974:9 70.5721 
4 *974:9 *989:wbs_dat_i[30] 20.4924 
*END

*D_NET *975 0.107575
*CONN
*I *989:wbs_dat_i[31] I *D CF_SRAM_1024x32_wb_wrapper
*I *988:sram_dat_o[31] O *D soc_sys
*CAP
1 *989:wbs_dat_i[31] 0.000115853
2 *988:sram_dat_o[31] 0.0232645
3 *975:17 0.016086
4 *975:15 0.0180045
5 *975:5 0.0252988
6 *988:sram_dat_i[30] *975:15 0
7 *988:sram_dat_i[31] *975:5 0
8 *905:17 *975:17 0.0247241
9 *937:10 *975:17 8.08153e-05
10 *938:10 *975:17 0
*RES
1 *988:sram_dat_o[31] *975:5 65.9222 
2 *975:5 *975:15 33.1402 
3 *975:15 *975:17 68.3349 
4 *975:17 *989:wbs_dat_i[31] 7.11923 
*END

*D_NET *976 0.0664339
*CONN
*I *989:wbs_dat_i[3] I *D CF_SRAM_1024x32_wb_wrapper
*I *988:sram_dat_o[3] O *D soc_sys
*CAP
1 *989:wbs_dat_i[3] 0.00442565
2 *988:sram_dat_o[3] 0.00264356
3 *976:9 0.00768561
4 *976:7 0.00590352
5 *989:wbs_dat_i[3] *989:wbs_dat_i[5] 0.010037
6 *989:wbs_dat_i[3] *989:wbs_dat_i[7] 0.0165287
7 *989:wbs_dat_i[3] *982:19 0.00392966
8 *976:9 *977:9 0
9 *988:sram_dat_i[3] *976:7 0
10 *989:wbs_adr_i[3] *989:wbs_dat_i[3] 0
11 *540:25 *989:wbs_dat_i[3] 0.00223737
12 *540:33 *989:wbs_dat_i[3] 0.0021487
13 *540:47 *989:wbs_dat_i[3] 0.000131918
14 *541:27 *989:wbs_dat_i[3] 0.000551221
15 *939:7 *989:wbs_dat_i[3] 0
16 *943:21 *976:9 0.00822531
17 *949:7 *976:7 0
18 *961:23 *989:wbs_dat_i[3] 0.00198564
*RES
1 *988:sram_dat_o[3] *976:7 10.5979 
2 *976:7 *976:9 101.518 
3 *976:9 *989:wbs_dat_i[3] 38.5974 
*END

*D_NET *977 0.0691247
*CONN
*I *989:wbs_dat_i[4] I *D CF_SRAM_1024x32_wb_wrapper
*I *988:sram_dat_o[4] O *D soc_sys
*CAP
1 *989:wbs_dat_i[4] 0.00453654
2 *988:sram_dat_o[4] 0.00282116
3 *977:9 0.00841287
4 *977:7 0.00669749
5 *989:wbs_dat_i[4] *989:wbs_dat_i[6] 0.0199187
6 *988:sram_dat_i[4] *977:7 0
7 *989:wbs_adr_i[4] *989:wbs_dat_i[4] 0
8 *989:wbs_dat_i[2] *989:wbs_dat_i[4] 0.00119236
9 *989:wbs_sel_i[0] *989:wbs_dat_i[4] 0.00270993
10 *66:21 *977:9 0.0014339
11 *541:27 *989:wbs_dat_i[4] 0.000220152
12 *908:7 *977:7 0
13 *909:9 *977:9 0.000163392
14 *927:11 *989:wbs_dat_i[4] 0.00427596
15 *940:7 *989:wbs_dat_i[4] 0
16 *940:13 *977:9 0.00933582
17 *943:21 *977:9 0
18 *958:25 *989:wbs_dat_i[4] 0.0074064
19 *976:9 *977:9 0
*RES
1 *988:sram_dat_o[4] *977:7 11.2465 
2 *977:7 *977:9 119.125 
3 *977:9 *989:wbs_dat_i[4] 42.4258 
*END

*D_NET *978 0.0661769
*CONN
*I *989:wbs_dat_i[5] I *D CF_SRAM_1024x32_wb_wrapper
*I *988:sram_dat_o[5] O *D soc_sys
*CAP
1 *989:wbs_dat_i[5] 0.00691152
2 *988:sram_dat_o[5] 0.0020636
3 *978:9 0.00882387
4 *978:7 0.00397594
5 *989:wbs_dat_i[5] *989:wbs_dat_i[7] 0.000568433
6 *989:wbs_dat_i[5] *982:19 0.00395146
7 *978:9 *979:9 0
8 *988:sram_ack_i *989:wbs_dat_i[5] 5.85882e-05
9 *988:sram_dat_i[5] *978:7 0
10 *989:wbs_adr_i[0] *989:wbs_dat_i[5] 0.00119913
11 *989:wbs_cyc_i *989:wbs_dat_i[5] 3.13654e-05
12 *989:wbs_dat_i[3] *989:wbs_dat_i[5] 0.010037
13 *31:27 *989:wbs_dat_i[5] 0.000310498
14 *540:25 *989:wbs_dat_i[5] 0.000325955
15 *908:9 *978:9 0.00959442
16 *909:7 *978:7 0
17 *921:19 *989:wbs_dat_i[5] 0.000719894
18 *926:19 *989:wbs_dat_i[5] 5.11566e-05
19 *928:8 *989:wbs_dat_i[5] 0.00369366
20 *931:21 *978:9 0.000159622
21 *932:18 *978:9 0.00135973
22 *941:13 *978:9 0.00988638
23 *960:27 *989:wbs_dat_i[5] 0.000467948
24 *961:23 *989:wbs_dat_i[5] 0.00198677
*RES
1 *988:sram_dat_o[5] *978:7 9.08447 
2 *978:7 *978:9 125.804 
3 *978:9 *989:wbs_dat_i[5] 41.9635 
*END

*D_NET *979 0.0820255
*CONN
*I *989:wbs_dat_i[6] I *D CF_SRAM_1024x32_wb_wrapper
*I *988:sram_dat_o[6] O *D soc_sys
*CAP
1 *989:wbs_dat_i[6] 0.00783967
2 *988:sram_dat_o[6] 0.00182869
3 *979:9 0.0106837
4 *979:7 0.00467272
5 *988:sram_dat_i[6] *979:7 0
6 *989:wbs_adr_i[1] *989:wbs_dat_i[6] 9.50531e-05
7 *989:wbs_adr_i[2] *989:wbs_dat_i[6] 0.000741005
8 *989:wbs_adr_i[6] *989:wbs_dat_i[6] 0
9 *989:wbs_adr_i[7] *989:wbs_dat_i[6] 0
10 *989:wbs_dat_i[4] *989:wbs_dat_i[6] 0.0199187
11 *33:29 *989:wbs_dat_i[6] 0.000354234
12 *36:23 *989:wbs_dat_i[6] 0.000610727
13 *36:25 *989:wbs_dat_i[6] 0.000141343
14 *39:17 *989:wbs_dat_i[6] 3.39094e-05
15 *66:25 *989:wbs_dat_i[6] 0.00187148
16 *541:27 *989:wbs_dat_i[6] 0.000375535
17 *882:15 *989:wbs_dat_i[6] 0
18 *885:19 *989:wbs_dat_i[6] 3.92231e-05
19 *890:19 *989:wbs_dat_i[6] 0.000586753
20 *906:9 *979:9 0.00790033
21 *908:9 *979:9 0
22 *910:7 *979:7 0
23 *911:9 *979:9 0.0114366
24 *927:11 *989:wbs_dat_i[6] 0.000692221
25 *950:13 *989:wbs_dat_i[6] 0.0122037
26 *978:9 *979:9 0
*RES
1 *988:sram_dat_o[6] *979:7 8.3638 
2 *979:7 *979:9 141.589 
3 *979:9 *989:wbs_dat_i[6] 48.0776 
*END

*D_NET *980 0.0944901
*CONN
*I *989:wbs_dat_i[7] I *D CF_SRAM_1024x32_wb_wrapper
*I *988:sram_dat_o[7] O *D soc_sys
*CAP
1 *989:wbs_dat_i[7] 0.00560362
2 *988:sram_dat_o[7] 0.000156535
3 *980:19 0.0094328
4 *980:9 0.00734504
5 *980:7 0.00367239
6 *989:wbs_dat_i[7] *982:19 0.00423881
7 *989:wbs_adr_i[10] *989:wbs_dat_i[7] 0.00122593
8 *989:wbs_adr_i[7] *989:wbs_dat_i[7] 0
9 *989:wbs_dat_i[2] *989:wbs_dat_i[7] 0.0143301
10 *989:wbs_dat_i[3] *989:wbs_dat_i[7] 0.0165287
11 *989:wbs_dat_i[5] *989:wbs_dat_i[7] 0.000568433
12 *541:27 *989:wbs_dat_i[7] 0.000236752
13 *898:9 *980:19 0.00101279
14 *921:21 *980:9 0.0110633
15 *923:19 *980:19 0.00745728
16 *927:11 *989:wbs_dat_i[7] 0.00121239
17 *928:8 *989:wbs_dat_i[7] 4.48889e-05
18 *943:7 *989:wbs_dat_i[7] 0
19 *946:9 *980:9 0.00400236
20 *946:29 *989:wbs_dat_i[7] 0.000543613
21 *959:15 *980:19 0.0010112
22 *960:29 *989:wbs_dat_i[7] 0.00233716
23 *961:25 *989:wbs_dat_i[7] 0.00246588
*RES
1 *988:sram_dat_o[7] *980:7 3.7578 
2 *980:7 *980:9 136.679 
3 *980:9 *980:19 35.3313 
4 *980:19 *989:wbs_dat_i[7] 35.1459 
*END

*D_NET *981 0.0948228
*CONN
*I *989:wbs_dat_i[8] I *D CF_SRAM_1024x32_wb_wrapper
*I *988:sram_dat_o[8] O *D soc_sys
*CAP
1 *989:wbs_dat_i[8] 0.00165025
2 *988:sram_dat_o[8] 0.00101285
3 *981:15 0.00580433
4 *981:9 0.00898248
5 *981:7 0.00584125
6 *988:sram_dat_i[8] *981:7 0
7 *989:wbs_adr_i[8] *989:wbs_dat_i[8] 0
8 *894:13 *981:15 0.022757
9 *896:13 *981:15 4.78438e-05
10 *912:7 *981:7 0
11 *918:21 *981:9 0.0141455
12 *931:19 *981:15 0.000720913
13 *932:16 *981:15 0.00489058
14 *943:7 *989:wbs_dat_i[8] 0
15 *944:7 *989:wbs_dat_i[8] 0
16 *962:9 *981:9 0.00432504
17 *962:15 *981:15 0.0209172
18 *964:13 *981:15 0.000579767
19 *966:13 *981:15 2.72155e-05
20 *968:13 *981:15 0.00312055
21 *970:19 *981:15 0
*RES
1 *988:sram_dat_o[8] *981:7 6.12973 
2 *981:7 *981:9 185.911 
3 *981:9 *981:15 48.1612 
4 *981:15 *989:wbs_dat_i[8] 26.7768 
*END

*D_NET *982 0.102124
*CONN
*I *989:wbs_dat_i[9] I *D CF_SRAM_1024x32_wb_wrapper
*I *988:sram_dat_o[9] O *D soc_sys
*CAP
1 *989:wbs_dat_i[9] 9.49387e-05
2 *988:sram_dat_o[9] 0.0349405
3 *982:19 0.0350354
4 *988:sram_ack_i *982:19 0.00289535
5 *988:sram_dat_i[9] *982:19 0
6 *989:wbs_adr_i[10] *982:19 0.000973958
7 *989:wbs_adr_i[22] *982:19 0.00055571
8 *989:wbs_adr_i[24] *982:19 0.000316241
9 *989:wbs_adr_i[9] *989:wbs_dat_i[9] 0
10 *989:wbs_cyc_i *982:19 0.000669304
11 *989:wbs_dat_i[2] *982:19 0.00371848
12 *989:wbs_dat_i[3] *982:19 0.00392966
13 *989:wbs_dat_i[5] *982:19 0.00395146
14 *989:wbs_dat_i[7] *982:19 0.00423881
15 *989:wbs_sel_i[0] *982:19 0.00294014
16 *540:25 *982:19 0.000755862
17 *541:27 *982:19 0.000797188
18 *921:19 *982:19 0.000279127
19 *936:13 *982:19 0.00028856
20 *939:13 *982:19 0.00028856
21 *945:7 *989:wbs_dat_i[9] 0
22 *946:29 *982:19 0.000135146
23 *956:9 *982:19 0.00106265
24 *958:25 *982:19 0.000279127
25 *961:23 *982:19 0.000119664
26 *964:9 *982:19 0.00028856
27 *966:9 *982:19 0.00028856
28 *968:9 *982:19 0.000982072
29 *970:9 *982:19 0.00229918
*RES
1 *988:sram_dat_o[9] *982:19 46.8155 
2 *982:19 *989:wbs_dat_i[9] 4.68679 
*END

*D_NET *983 0.0489287
*CONN
*I *989:wbs_we_i I *D CF_SRAM_1024x32_wb_wrapper
*I *988:sram_we_o O *D soc_sys
*CAP
1 *989:wbs_we_i 0.00247929
2 *988:sram_we_o 0.00591915
3 *983:9 0.00422082
4 *983:7 0.00766069
5 *989:wbs_dat_i[0] *989:wbs_we_i 0
6 *989:wbs_stb_i *989:wbs_we_i 0
7 *881:7 *983:7 0
8 *882:15 *989:wbs_we_i 0.00677019
9 *884:19 *989:wbs_we_i 0.00030178
10 *884:21 *989:wbs_we_i 0.00236545
11 *885:21 *989:wbs_we_i 0.00256088
12 *916:23 *983:9 0
13 *925:11 *989:wbs_we_i 0.0117859
14 *925:13 *983:9 0.00428699
15 *946:29 *983:9 0.000577581
16 *950:13 *983:7 0
*RES
1 *988:sram_we_o *983:7 18.0207 
2 *983:7 *983:9 54.1607 
3 *983:9 *989:wbs_we_i 33.4156 
*END
